66

C     -7.153279    3.756805   -1.377436
N     -5.973511    3.178673   -0.784400
C     -4.919423    2.774366   -1.579333
O     -4.884209    2.939753   -2.793257
C     -3.805753    2.068585   -0.887310
C     -3.483761    2.324588    0.450427
C     -2.425661    1.642304    1.059958
C     -1.665316    0.703247    0.341436
C     -0.521153   -0.048446    1.039803
C     -1.035093   -1.421939    1.496843
C     -1.426331   -1.611809    2.832691
C     -1.914073   -2.848591    3.263249
C     -2.033152   -3.914154    2.364013
C     -2.558573   -5.212586    2.871256
O     -2.454218   -5.496939    4.059136
N     -3.184911   -6.024069    1.946409
C     -3.830333   -7.243435    2.363695
C     -1.636625   -3.741065    1.033628
C     -1.148987   -2.502910    0.604426
N      0.729645   -0.121272    0.223855
C      1.217623    1.239179   -0.126388
C      2.511870    1.202854   -0.959998
N      3.569340    0.424920   -0.308783
C      4.923594    0.553178   -0.643794
O      5.720055   -0.372529   -0.492318
C      5.408321    1.836001   -1.151969
N      5.059275    3.013659   -0.599517
O      5.799745    3.981148   -1.255086
C      6.596552    3.394200   -2.189317
C      7.458881    4.293461   -2.979181
C      6.373670    2.038922   -2.161588
N      6.974101    1.070547   -3.005812
O      6.245855    0.156037   -3.406680
O      8.155605    1.257146   -3.320383
C      3.130820   -0.882302    0.173992
C      1.817365   -0.805868    0.973379
C     -1.996251    0.460575   -1.003251
C     -3.050325    1.143426   -1.614616
H     -7.745742    2.957512   -1.830547
H     -6.874464    4.483630   -2.145181
H     -7.732227    4.247548   -0.591800
H     -6.061720    2.776912    0.138864
H     -4.028030    3.069068    1.024552
H     -2.194185    1.854201    2.101982
H     -0.265883    0.521176    1.946163
H     -1.353453   -0.798678    3.551704
H     -2.205929   -2.979702    4.303796
H     -3.468133   -5.621923    1.063507
H     -4.012010   -7.860221    1.480623
H     -4.780583   -6.991248    2.841810
H     -3.197782   -7.784012    3.072983
H     -1.672725   -4.562437    0.324017
H     -0.837105   -2.386686   -0.431802
H      1.397317    1.823161    0.786453
H      0.475160    1.781820   -0.720141
H      2.320485    0.730526   -1.932193
H      2.828694    2.225612   -1.166892
H      8.503443    4.187882   -2.670928
H      7.387090    4.060432   -4.046018
H      7.169365    5.340485   -2.844902
H      3.006763   -1.532534   -0.701246
H      3.909520   -1.325384    0.805251
H      1.537333   -1.834940    1.220308
H      2.007685   -0.282460    1.920254
H     -1.421395   -0.255245   -1.587222
H     -3.282864    0.949846   -2.660093
