      -----------------------------------------------------------      
     |                   =====================                   |     
     |                           x T B                           |     
     |                   =====================                   |     
     |                         S. Grimme                         |     
     |          Mulliken Center for Theoretical Chemistry        |     
     |                    University of Bonn                     |     
      -----------------------------------------------------------      

   * xtb version 6.7.1 (edcfbbe) compiled by 'VssAdministrator@runnervm171ch' on 2026-06-10

   xtb is free software: you can redistribute it and/or modify it under
   the terms of the GNU Lesser General Public License as published by
   the Free Software Foundation, either version 3 of the License, or
   (at your option) any later version.
   
   xtb is distributed in the hope that it will be useful,
   but WITHOUT ANY WARRANTY; without even the implied warranty of
   MERCHANTABILITY or FITNESS FOR A PARTICULAR PURPOSE.  See the
   GNU Lesser General Public License for more details.
   
   Cite this work as:
   * C. Bannwarth, E. Caldeweyher, S. Ehlert, A. Hansen, P. Pracht,
     J. Seibert, S. Spicher, S. Grimme, WIREs Comput. Mol. Sci., 2020, 11,
     e01493. DOI: 10.1002/wcms.1493
   
   for GFN2-xTB:
   * C. Bannwarth, S. Ehlert and S. Grimme., J. Chem. Theory Comput., 2019,
     15, 1652-1671. DOI: 10.1021/acs.jctc.8b01176
   for GFN1-xTB:
   * S. Grimme, C. Bannwarth, P. Shushkov, J. Chem. Theory Comput., 2017,
     13, 1989-2009. DOI: 10.1021/acs.jctc.7b00118
   for GFN0-xTB:
   * P. Pracht, E. Caldeweyher, S. Ehlert, S. Grimme, ChemRxiv, 2019, preprint.
     DOI: 10.26434/chemrxiv.8326202.v1
   for GFN-FF:
   * S. Spicher and S. Grimme, Angew. Chem. Int. Ed., 2020, 59, 15665-15673.
     DOI: 10.1002/anie.202004239
   
   for ALPB and GBSA implicit solvation:
   * S. Ehlert, M. Stahn, S. Spicher, S. Grimme, J. Chem. Theory Comput.,
     2021, 17, 4250-4261. DOI: 10.1021/acs.jctc.1c00471
   
   for ddCOSMO and CPCM-X implicit solvation:
   * M. Stahn, S. Ehlert, S. Grimme, J. Phys. Chem. A,
     2023, XX, XXXX-XXXX. DOI: 10.1021/acs.jpca.3c04382
   
   for DFT-D4:
   * E. Caldeweyher, C. Bannwarth and S. Grimme, J. Chem. Phys., 2017,
     147, 034112. DOI: 10.1063/1.4993215
   * E. Caldeweyher, S. Ehlert, A. Hansen, H. Neugebauer, S. Spicher,
     C. Bannwarth and S. Grimme, J. Chem. Phys., 2019, 150, 154122.
     DOI: 10.1063/1.5090222
   * E. Caldeweyher, J.-M. Mewes, S. Ehlert and S. Grimme, Phys. Chem. Chem. Phys.
     2020, 22, 8499-8512. DOI: 10.1039/D0CP00502A
   
   for sTDA-xTB:
   * S. Grimme and C. Bannwarth, J. Chem. Phys., 2016, 145, 054103.
     DOI: 10.1063/1.4959605
   
   in the mass-spec context:
   * V. Asgeirsson, C. Bauer and S. Grimme, Chem. Sci., 2017, 8, 4879.
     DOI: 10.1039/c7sc00601b
   * J. Koopman and S. Grimme, ACS Omega 2019, 4, 12, 15120-15133.
     DOI: 10.1021/acsomega.9b02011
   
   for metadynamics refer to:
   * S. Grimme, J. Chem. Theory Comput., 2019, 155, 2847-2862
     DOI: 10.1021/acs.jctc.9b00143
   
   for SPH calculations refer to:
   * S. Spicher and S. Grimme, J. Chem. Theory Comput., 2021, 17, 1701-1714
     DOI: 10.1021/acs.jctc.0c01306
   
   for ONIOM refer to:
   * C. Plett, A. Katbashev, S. Ehlert, S. Grimme, M. Bursch,
     Phys. Chem. Chem. Phys., 2023, 25, 17860-17868. DOI: 10.1039/D3CP02178E
   
   for DIPRO refer to:
   * J. Kohn, N. Gildemeister, S. Grimme, D. Fazzi, A. Hansen,
     J. Chem. Phys., 2023, just accepted.
   
   for PTB refer to:
   * S. Grimme, M. Mueller, A. Hansen, J. Chem. Phys., 2023, 158, 124111.
     DOI: 10.1063/5.0137838
   
   with help from (in alphabetical order)
   P. Atkinson, C. Bannwarth, F. Bohle, G. Brandenburg, E. Caldeweyher
   M. Checinski, S. Dohm, S. Ehlert, S. Ehrlich, I. Gerasimov, C. Hölzer
   A. Katbashev, J. Kohn, J. Koopman, C. Lavigne, S. Lehtola, F. März, M. Müller,
   F. Musil, H. Neugebauer, J. Pisarek, C. Plett, P. Pracht, F. Pultar,
   J. Seibert, P. Shushkov, S. Spicher, M. Stahn, M. Steiner, T. Strunk,
   J. Stückrath, T. Rose, and J. Unsleber
   
 * started run on 2026/08/28 at 18:28:08.108     
   ID    Z sym.   atoms
    1    6 C      1, 3, 5-14, 17-19, 21, 22, 24, 26, 29-31, 35-38
    2    7 N      2, 16, 20, 23, 27, 32
    3    8 O      4, 15, 25, 28, 33, 34
    4    1 H      39-66

           -------------------------------------------------
          |                Calculation Setup                |
           -------------------------------------------------

          program call               : C:\Users\Christian\Miniconda3\Library\bin\xtb.exe S00.xyz --gfn 2 --opt --alpb water
          coordinate file            : S00.xyz
          omp threads                :                    12


           -------------------------------------------------
          |                 G F N 2 - x T B                 |
           -------------------------------------------------

        Reference                      10.1021/acs.jctc.8b01176
      * Hamiltonian:
        H0-scaling (s, p, d)           1.850000    2.230000    2.230000
        zeta-weighting                 0.500000
      * Dispersion:
        s8                             2.700000
        a1                             0.520000
        a2                             5.000000
        s9                             5.000000
      * Repulsion:
        kExp                           1.500000    1.000000
        rExp                           1.000000
      * Coulomb:
        alpha                          2.000000
        third order                    shell-resolved
        anisotropic                    true
        a3                             3.000000
        a5                             4.000000
        cn-shift                       1.200000
        cn-exp                         4.000000
        max-rad                        5.000000

      * Solvation model:               ALPB
        Solvent                        water
        Parameter file                 internal GFN2-xTB/ALPB
        Dielectric constant                8.0200E+01
        Reference state                gsolv [1 M gas/solution]
        Free energy shift                  1.0808E-03 Eh       6.7819E-01 kcal/mol
        Temperature                        2.9815E+02 K
        Density                            1.0000E+00 kg/L
        Solvent mass                       1.8000E+01 g/mol
        Interaction kernel             P16
        Born radius scaling (c1)           1.4744E+00
        Born radii integrator          GBOBC
        Born offset                        0.0000E+00 a0       0.0000E+00 AA
        H-bond correction              true
        Ion screening                  false
        Surface tension                    1.0000E-05 Eh       1.5569E+01 dyn/cm
        Grid points                               230 per atom

          ...................................................
          :                      SETUP                      :
          :.................................................:
          :  # basis functions                 180          :
          :  # atomic orbitals                 180          :
          :  # shells                          104          :
          :  # electrons                       198          :
          :  max. iterations                   250          :
          :  Hamiltonian                  GFN2-xTB          :
          :  restarted?                      false          :
          :  GBSA solvation                   true          :
          :  PC potential                    false          :
          :  electronic temp.          300.0000000     K    :
          :  accuracy                    1.0000000          :
          :  -> integral cutoff          0.2500000E+02      :
          :  -> integral neglect         0.1000000E-07      :
          :  -> SCF convergence          0.1000000E-05 Eh   :
          :  -> wf. convergence          0.1000000E-03 e    :
          :  Broyden damping             0.4000000          :
          :  net charge                          0          :
          :  unpaired electrons                  0          :
          ...................................................

 iter      E             dE          RMSdq      gap      omega  full diag
   1   -112.8623902 -0.112862E+03  0.468E+00    1.81       0.0  T
   2   -113.1345352 -0.272145E+00  0.251E+00    1.14       1.0  T
   3   -113.1426857 -0.815045E-02  0.122E+00    0.69       1.0  T
   4   -113.1495003 -0.681462E-02  0.487E-01    0.51       1.0  T
   5   -113.1577971 -0.829677E-02  0.101E-01    0.41       1.0  T
   6   -113.1579332 -0.136098E-03  0.544E-02    0.42       1.0  T
   7   -113.1579701 -0.368680E-04  0.277E-02    0.43       1.0  T
   8   -113.1579810 -0.109006E-04  0.908E-03    0.44       1.4  T
   9   -113.1579825 -0.153145E-05  0.456E-03    0.45       2.7  T
  10   -113.1579827 -0.216379E-06  0.224E-03    0.45       5.5  T
  11   -113.1579828 -0.749775E-07  0.902E-04    0.45      13.6  T
  12   -113.1579828 -0.157744E-07  0.396E-04    0.45      31.1  T

   *** convergence criteria satisfied after 12 iterations ***

         #    Occupation            Energy/Eh            Energy/eV
      -------------------------------------------------------------
         1        2.0000           -0.7945728             -21.6214
       ...           ...                  ...                  ...
        93        2.0000           -0.4076586             -11.0930
        94        2.0000           -0.4034777             -10.9792
        95        2.0000           -0.4014560             -10.9242
        96        2.0000           -0.3958809             -10.7725
        97        2.0000           -0.3940439             -10.7225
        98        2.0000           -0.3935349             -10.7086
        99        1.9997           -0.3630824              -9.8800 (HOMO)
       100        0.0003           -0.3466285              -9.4322 (LUMO)
       101                         -0.3069953              -8.3538
       102                         -0.2650792              -7.2132
       103                         -0.2564701              -6.9789
       104                         -0.2548761              -6.9355
       ...                                ...                  ...
       180                          0.6453517              17.5609
      -------------------------------------------------------------
                  HL-Gap            0.0164539 Eh            0.4477 eV
             Fermi-level           -0.3548555 Eh           -9.6561 eV

 SCC (total)                   0 d,  0 h,  0 min,  0.084 sec
 SCC setup                      ...        0 min,  0.001 sec (  1.632%)
 Dispersion                     ...        0 min,  0.002 sec (  2.411%)
 classical contributions        ...        0 min,  0.000 sec (  0.170%)
 integral evaluation            ...        0 min,  0.005 sec (  6.106%)
 iterations                     ...        0 min,  0.059 sec ( 70.298%)
 molecular gradient             ...        0 min,  0.016 sec ( 18.788%)
 printout                       ...        0 min,  0.000 sec (  0.559%)

         :::::::::::::::::::::::::::::::::::::::::::::::::::::
         ::                     SUMMARY                     ::
         :::::::::::::::::::::::::::::::::::::::::::::::::::::
         :: total energy            -111.821850846809 Eh    ::
         :: total w/o Gsasa/hb      -111.817276492179 Eh    ::
         :: gradient norm              0.129891382829 Eh/a0 ::
         :: HOMO-LUMO gap              0.447732898302 eV    ::
         ::.................................................::
         :: SCC energy              -113.157861590643 Eh    ::
         :: -> isotropic ES            0.236479064610 Eh    ::
         :: -> anisotropic ES          0.010410689494 Eh    ::
         :: -> anisotropic XC          0.046953794206 Eh    ::
         :: -> dispersion             -0.073753882683 Eh    ::
         :: -> Gsolv                  -0.053098198907 Eh    ::
         ::    -> Gelec               -0.048523844277 Eh    ::
         ::    -> Gsasa                0.004071832179 Eh    ::
         ::    -> Ghb                 -0.009726946508 Eh    ::
         ::    -> Gshift               0.001080759698 Eh    ::
         :: repulsion energy           1.336010743833 Eh    ::
         :: add. restraining           0.000000000000 Eh    ::
         :: total charge               0.000000000000 e     ::
         :::::::::::::::::::::::::::::::::::::::::::::::::::::

      ----------------------------------------------------------- 
     |                   =====================                   |
     |                        A N C O P T                        |
     |                   =====================                   |
     |               Approximate Normal Coordinate               |
     |                Rational Function Optimizer                |
      ----------------------------------------------------------- 
      ----------------------------------------------------------- 
     |                   =====================                   |
     |                        A N C O P T                        |
     |                   =====================                   |
     |               Approximate Normal Coordinate               |
     |                Rational Function Optimizer                |
      ----------------------------------------------------------- 

          ...................................................
          :                      SETUP                      :
          :.................................................:
          :   optimization level            normal          :
          :   max. optcycles                   200          :
          :   ANC micro-cycles                  20          :
          :   degrees of freedom               192          :
          :.................................................:
          :   RF solver                   davidson          :
          :   write xtbopt.log                true          :
          :   linear?                        false          :
          :   energy convergence         0.5000000E-05 Eh   :
          :   grad. convergence          0.1000000E-02 Eh/α :
          :   maxmium RF displ.          1.0000000          :
          :   Hlow (freq-cutoff)         0.1000000E-01      :
          :   Hmax (freq-cutoff)         5.0000000          :
          :   S6 in model hess.         20.0000000          :
          ...................................................

generating ANC from exact Hessian ...
Using Lindh-Hessian (1995)
 Shifting diagonal of input Hessian by    9.9213537105509054E-003
 Lowest  eigenvalues of input Hessian
    0.000000    0.000000    0.000000    0.000000    0.000000    0.000000
    0.010000    0.010026    0.010036    0.010275    0.010574    0.010692
    0.010900    0.010951    0.011193    0.011279    0.011683    0.012704
 Highest eigenvalues
    1.973183    2.176995    2.249806    2.269615    2.270274    2.523046


........................................................................
.............................. CYCLE    1 ..............................
........................................................................

 iter      E             dE          RMSdq      gap      omega  full diag
   1   -113.1579828 -0.113158E+03  0.180E-04    0.45       0.0  T
   2   -113.1579828 -0.500535E-09  0.118E-04    0.45     104.2  T
   3   -113.1579828 -0.179639E-09  0.808E-05    0.45     152.4  T
     SCC iter.                  ...        0 min,  0.015 sec
     gradient                   ...        0 min,  0.016 sec
 * total energy  :  -111.8218508 Eh     change       -0.1786830E-08 Eh
   gradient norm :     0.1298895 Eh/α   predicted     0.0000000E+00 (-100.00%)
   displ. norm   :     0.3555163 α      lambda       -0.2361253E-01
   maximum displ.:     0.1227730 α      in ANC's #62, #102, #16, ...

........................................................................
.............................. CYCLE    2 ..............................
........................................................................

 iter      E             dE          RMSdq      gap      omega  full diag
   1   -113.2236023 -0.113224E+03  0.202E-01    0.68       0.0  T
   2   -113.2241192 -0.516932E-03  0.117E-01    0.73       1.0  T
   3   -113.2241495 -0.302969E-04  0.581E-02    0.73       1.0  T
   4   -113.2241638 -0.142252E-04  0.165E-02    0.74       1.0  T
   5   -113.2241750 -0.112204E-04  0.503E-03    0.74       2.4  T
   6   -113.2241754 -0.397711E-06  0.255E-03    0.74       4.8  T
   7   -113.2241754 -0.367843E-07  0.112E-03    0.74      11.0  T
   8   -113.2241754 -0.211135E-07  0.418E-04    0.74      29.4  T
   9   -113.2241754 -0.397824E-08  0.201E-04    0.74      61.3  T
     SCC iter.                  ...        0 min,  0.039 sec
     gradient                   ...        0 min,  0.014 sec
 * total energy  :  -111.8382784 Eh     change       -0.1642753E-01 Eh
   gradient norm :     0.0563905 Eh/α   predicted    -0.1331638E-01 ( -18.94%)
   displ. norm   :     0.4055254 α      lambda       -0.8738419E-02
   maximum displ.:     0.1918534 α      in ANC's #16, #18, #21, ...

........................................................................
.............................. CYCLE    3 ..............................
........................................................................

 iter      E             dE          RMSdq      gap      omega  full diag
   1   -113.2623159 -0.113262E+03  0.157E-01    0.81       0.0  T
   2   -113.2627730 -0.457182E-03  0.890E-02    0.87       1.0  T
   3   -113.2628087 -0.356663E-04  0.472E-02    0.87       1.0  T
   4   -113.2628104 -0.169421E-05  0.155E-02    0.88       1.0  T
   5   -113.2628203 -0.987400E-05  0.397E-03    0.88       3.1  T
   6   -113.2628205 -0.208235E-06  0.205E-03    0.88       6.0  T
   7   -113.2628205 -0.293690E-07  0.960E-04    0.88      12.8  T
   8   -113.2628205 -0.140039E-07  0.360E-04    0.88      34.2  T
     SCC iter.                  ...        0 min,  0.038 sec
     gradient                   ...        0 min,  0.015 sec
 * total energy  :  -111.8433835 Eh     change       -0.5105123E-02 Eh
   gradient norm :     0.0205472 Eh/α   predicted    -0.5087730E-02 (  -0.34%)
   displ. norm   :     0.4186905 α      lambda       -0.3702185E-02
   maximum displ.:     0.2323740 α      in ANC's #16, #18, #21, ...

........................................................................
.............................. CYCLE    4 ..............................
........................................................................

 iter      E             dE          RMSdq      gap      omega  full diag
   1   -113.2721626 -0.113272E+03  0.107E-01    0.81       0.0  T
   2   -113.2722736 -0.110996E-03  0.603E-02    0.85       1.0  T
   3   -113.2722778 -0.418668E-05  0.280E-02    0.86       1.0  T
   4   -113.2722826 -0.481580E-05  0.808E-03    0.87       1.5  T
   5   -113.2722853 -0.276917E-05  0.288E-03    0.87       4.3  T
   6   -113.2722854 -0.759837E-07  0.137E-03    0.87       9.0  T
   7   -113.2722854 -0.169678E-07  0.596E-04    0.87      20.7  T
   8   -113.2722854 -0.705015E-08  0.228E-04    0.87      54.0  T
     SCC iter.                  ...        0 min,  0.035 sec
     gradient                   ...        0 min,  0.016 sec
 * total energy  :  -111.8456164 Eh     change       -0.2232890E-02 Eh
   gradient norm :     0.0259757 Eh/α   predicted    -0.2175593E-02 (  -2.57%)
   displ. norm   :     0.4743902 α      lambda       -0.3086250E-02
   maximum displ.:     0.2745453 α      in ANC's #16, #18, #25, ...

........................................................................
.............................. CYCLE    5 ..............................
........................................................................

 iter      E             dE          RMSdq      gap      omega  full diag
   1   -113.2726543 -0.113273E+03  0.992E-02    0.80       0.0  T
   2   -113.2726938 -0.395039E-04  0.568E-02    0.82       1.0  T
   3   -113.2726931  0.633493E-06  0.184E-02    0.83       1.0  T
   4   -113.2726995 -0.635665E-05  0.587E-03    0.84       2.1  T
   5   -113.2727005 -0.104135E-05  0.284E-03    0.84       4.3  T
   6   -113.2727006 -0.628951E-07  0.116E-03    0.84      10.6  T
   7   -113.2727006 -0.160513E-07  0.449E-04    0.84      27.4  T
   8   -113.2727006 -0.477074E-08  0.195E-04    0.84      63.1  T
     SCC iter.                  ...        0 min,  0.041 sec
     gradient                   ...        0 min,  0.015 sec
 * total energy  :  -111.8479827 Eh     change       -0.2366290E-02 Eh
   gradient norm :     0.0203425 Eh/α   predicted    -0.1890404E-02 ( -20.11%)
   displ. norm   :     0.5311293 α      lambda       -0.2436116E-02
   maximum displ.:     0.3113363 α      in ANC's #16, #18, #22, ...

........................................................................
.............................. CYCLE    6 ..............................
........................................................................

 iter      E             dE          RMSdq      gap      omega  full diag
   1   -113.2729630 -0.113273E+03  0.107E-01    0.77       0.0  T
   2   -113.2729935 -0.304629E-04  0.627E-02    0.78       1.0  T
   3   -113.2729913  0.215615E-05  0.181E-02    0.79       1.0  T
   4   -113.2730002 -0.882553E-05  0.510E-03    0.79       2.4  T
   5   -113.2730006 -0.399601E-06  0.280E-03    0.79       4.4  T
   6   -113.2730006 -0.492547E-07  0.780E-04    0.79      15.8  T
   7   -113.2730006 -0.109314E-07  0.314E-04    0.79      39.2  T
     SCC iter.                  ...        0 min,  0.031 sec
     gradient                   ...        0 min,  0.016 sec
 * total energy  :  -111.8497862 Eh     change       -0.1803542E-02 Eh
   gradient norm :     0.0181194 Eh/α   predicted    -0.1561672E-02 ( -13.41%)
   displ. norm   :     0.5154652 α      lambda       -0.1700281E-02
   maximum displ.:     0.2912281 α      in ANC's #16, #22, #7, ...

........................................................................
.............................. CYCLE    7 ..............................
........................................................................

 iter      E             dE          RMSdq      gap      omega  full diag
   1   -113.2753054 -0.113275E+03  0.973E-02    0.80       0.0  T
   2   -113.2753237 -0.183398E-04  0.568E-02    0.79       1.0  T
   3   -113.2753193  0.443311E-05  0.166E-02    0.80       1.0  T
   4   -113.2753282 -0.889224E-05  0.418E-03    0.80       2.9  T
   5   -113.2753285 -0.300333E-06  0.212E-03    0.80       5.8  T
   6   -113.2753285 -0.226301E-07  0.812E-04    0.80      15.2  T
   7   -113.2753285 -0.744630E-08  0.324E-04    0.80      38.0  T
     SCC iter.                  ...        0 min,  0.037 sec
     gradient                   ...        0 min,  0.015 sec
 * total energy  :  -111.8511314 Eh     change       -0.1345168E-02 Eh
   gradient norm :     0.0165665 Eh/α   predicted    -0.1076039E-02 ( -20.01%)
   displ. norm   :     0.5492557 α      lambda       -0.1621526E-02
   maximum displ.:     0.2832874 α      in ANC's #16, #22, #7, ...

........................................................................
.............................. CYCLE    8 ..............................
........................................................................

 iter      E             dE          RMSdq      gap      omega  full diag
   1   -113.2807051 -0.113281E+03  0.964E-02    0.80       0.0  T
   2   -113.2807249 -0.197638E-04  0.570E-02    0.79       1.0  T
   3   -113.2807185  0.642657E-05  0.181E-02    0.79       1.0  T
   4   -113.2807307 -0.122235E-04  0.424E-03    0.79       2.9  T
   5   -113.2807309 -0.186733E-06  0.226E-03    0.79       5.4  T
   6   -113.2807309 -0.402170E-07  0.852E-04    0.79      14.4  T
   7   -113.2807309 -0.103791E-07  0.339E-04    0.79      36.3  T
     SCC iter.                  ...        0 min,  0.030 sec
     gradient                   ...        0 min,  0.014 sec
 * total energy  :  -111.8524058 Eh     change       -0.1274434E-02 Eh
   gradient norm :     0.0131210 Eh/α   predicted    -0.1055356E-02 ( -17.19%)
   displ. norm   :     0.5879101 α      lambda       -0.1422629E-02
   maximum displ.:     0.2832904 α      in ANC's #16, #7, #22, ...

........................................................................
.............................. CYCLE    9 ..............................
........................................................................

 iter      E             dE          RMSdq      gap      omega  full diag
   1   -113.2827790 -0.113283E+03  0.112E-01    0.80       0.0  T
   2   -113.2828284 -0.493168E-04  0.646E-02    0.80       1.0  T
   3   -113.2828273  0.110272E-05  0.232E-02    0.80       1.0  T
   4   -113.2828353 -0.803184E-05  0.501E-03    0.80       2.5  T
   5   -113.2828359 -0.658382E-06  0.252E-03    0.80       4.9  T
   6   -113.2828360 -0.397731E-07  0.964E-04    0.80      12.8  T
   7   -113.2828360 -0.130292E-07  0.372E-04    0.80      33.1  T
     SCC iter.                  ...        0 min,  0.035 sec
     gradient                   ...        0 min,  0.016 sec
 * total energy  :  -111.8533682 Eh     change       -0.9623538E-03 Eh
   gradient norm :     0.0168797 Eh/α   predicted    -0.9571811E-03 (  -0.54%)
   displ. norm   :     0.4860100 α      lambda       -0.1232955E-02
   maximum displ.:     0.1806381 α      in ANC's #16, #22, #7, ...

........................................................................
.............................. CYCLE   10 ..............................
........................................................................

 iter      E             dE          RMSdq      gap      omega  full diag
   1   -113.2893911 -0.113289E+03  0.885E-02    0.80       0.0  T
   2   -113.2894480 -0.568917E-04  0.515E-02    0.79       1.0  T
   3   -113.2894504 -0.237027E-05  0.222E-02    0.79       1.0  T
   4   -113.2894564 -0.598531E-05  0.390E-03    0.79       3.2  T
   5   -113.2894565 -0.190500E-06  0.210E-03    0.79       5.9  T
   6   -113.2894566 -0.357331E-07  0.939E-04    0.79      13.1  T
   7   -113.2894566 -0.151866E-07  0.391E-04    0.79      31.5  T
     SCC iter.                  ...        0 min,  0.030 sec
     gradient                   ...        0 min,  0.015 sec
 * total energy  :  -111.8540173 Eh     change       -0.6490771E-03 Eh
   gradient norm :     0.0137116 Eh/α   predicted    -0.7620970E-03 (  17.41%)
   displ. norm   :     0.4479464 α      lambda       -0.6516650E-03
   maximum displ.:     0.1968990 α      in ANC's #16, #7, #22, ...

........................................................................
.............................. CYCLE   11 ..............................
........................................................................

 iter      E             dE          RMSdq      gap      omega  full diag
   1   -113.2820442 -0.113282E+03  0.866E-02    0.69       0.0  T
   2   -113.2820839 -0.396829E-04  0.501E-02    0.70       1.0  T
   3   -113.2820847 -0.760542E-06  0.177E-02    0.71       1.0  T
   4   -113.2820890 -0.436248E-05  0.508E-03    0.72       2.4  T
   5   -113.2820897 -0.648633E-06  0.249E-03    0.72       4.9  T
   6   -113.2820898 -0.631642E-07  0.122E-03    0.72      10.1  T
   7   -113.2820898 -0.150868E-07  0.374E-04    0.72      32.9  T
   8   -113.2820898 -0.311404E-08  0.162E-04    0.72      75.8  T
     SCC iter.                  ...        0 min,  0.042 sec
     gradient                   ...        0 min,  0.016 sec
 * total energy  :  -111.8542854 Eh     change       -0.2681634E-03 Eh
   gradient norm :     0.0167027 Eh/α   predicted    -0.3912287E-03 (  45.89%)
   displ. norm   :     0.2445591 α      lambda       -0.7537986E-03
   maximum displ.:     0.1028999 α      in ANC's #7, #12, #10, ...

........................................................................
.............................. CYCLE   12 ..............................
........................................................................

 iter      E             dE          RMSdq      gap      omega  full diag
   1   -113.2856354 -0.113286E+03  0.604E-02    0.83       0.0  T
   2   -113.2857008 -0.653597E-04  0.330E-02    0.82       1.0  T
   3   -113.2857049 -0.405601E-05  0.176E-02    0.81       1.0  T
   4   -113.2857057 -0.889895E-06  0.590E-03    0.81       2.1  T
   5   -113.2857063 -0.583674E-06  0.202E-03    0.80       6.1  T
   6   -113.2857064 -0.731360E-07  0.104E-03    0.80      11.9  T
   7   -113.2857064 -0.653711E-08  0.396E-04    0.80      31.1  T
   8   -113.2857064 -0.227109E-08  0.177E-04    0.80      69.7  T
     SCC iter.                  ...        0 min,  0.033 sec
     gradient                   ...        0 min,  0.016 sec
 * total energy  :  -111.8545639 Eh     change       -0.2784290E-03 Eh
   gradient norm :     0.0162699 Eh/α   predicted    -0.3994436E-03 (  43.46%)
   displ. norm   :     0.1376898 α      lambda       -0.4326808E-03
   maximum displ.:     0.0553170 α      in ANC's #10, #12, #5, ...

........................................................................
.............................. CYCLE   13 ..............................
........................................................................

 iter      E             dE          RMSdq      gap      omega  full diag
   1   -113.2887538 -0.113289E+03  0.335E-02    0.76       0.0  T
   2   -113.2887682 -0.144879E-04  0.188E-02    0.76       1.0  T
   3   -113.2887694 -0.118220E-05  0.937E-03    0.77       1.3  T
   4   -113.2887700 -0.532676E-06  0.232E-03    0.77       5.3  T
   5   -113.2887700 -0.818215E-07  0.104E-03    0.77      11.9  T
   6   -113.2887701 -0.901716E-08  0.483E-04    0.77      25.5  T
   7   -113.2887701 -0.212644E-08  0.202E-04    0.77      60.9  T
     SCC iter.                  ...        0 min,  0.039 sec
     gradient                   ...        0 min,  0.016 sec
 * total energy  :  -111.8548446 Eh     change       -0.2807869E-03 Eh
   gradient norm :     0.0073440 Eh/α   predicted    -0.2204436E-03 ( -21.49%)
   displ. norm   :     0.3451311 α      lambda       -0.3508689E-03
   maximum displ.:     0.1206023 α      in ANC's #7, #10, #12, ...

........................................................................
.............................. CYCLE   14 ..............................
........................................................................

 iter      E             dE          RMSdq      gap      omega  full diag
   1   -113.2859472 -0.113286E+03  0.619E-02    0.74       0.0  T
   2   -113.2859822 -0.349616E-04  0.346E-02    0.74       1.0  T
   3   -113.2859840 -0.181533E-05  0.153E-02    0.74       1.0  T
   4   -113.2859851 -0.110205E-05  0.264E-03    0.75       4.7  T
   5   -113.2859852 -0.124149E-06  0.141E-03    0.75       8.7  T
   6   -113.2859853 -0.144688E-07  0.481E-04    0.75      25.6  T
   7   -113.2859853 -0.384567E-08  0.239E-04    0.75      51.4  T
     SCC iter.                  ...        0 min,  0.030 sec
     gradient                   ...        0 min,  0.016 sec
 * total energy  :  -111.8550268 Eh     change       -0.1822095E-03 Eh
   gradient norm :     0.0099042 Eh/α   predicted    -0.1963318E-03 (   7.75%)
   displ. norm   :     0.2136681 α      lambda       -0.2267655E-03
   maximum displ.:     0.0858590 α      in ANC's #10, #5, #12, ...

........................................................................
.............................. CYCLE   15 ..............................
........................................................................

 iter      E             dE          RMSdq      gap      omega  full diag
   1   -113.2884098 -0.113288E+03  0.390E-02    0.73       0.0  T
   2   -113.2884211 -0.113185E-04  0.220E-02    0.73       1.0  T
   3   -113.2884216 -0.472890E-06  0.879E-03    0.73       1.4  T
   4   -113.2884219 -0.342368E-06  0.159E-03    0.73       7.7  T
   5   -113.2884220 -0.535402E-07  0.882E-04    0.73      14.0  T
   6   -113.2884220 -0.660927E-08  0.317E-04    0.73      38.8  T
     SCC iter.                  ...        0 min,  0.031 sec
     gradient                   ...        0 min,  0.014 sec
 * total energy  :  -111.8551607 Eh     change       -0.1338783E-03 Eh
   gradient norm :     0.0075157 Eh/α   predicted    -0.1185649E-03 ( -11.44%)
   displ. norm   :     0.2113238 α      lambda       -0.1649402E-03
   maximum displ.:     0.0914284 α      in ANC's #5, #10, #12, ...

........................................................................
.............................. CYCLE   16 ..............................
........................................................................

 iter      E             dE          RMSdq      gap      omega  full diag
   1   -113.2883352 -0.113288E+03  0.363E-02    0.76       0.0  T
   2   -113.2883453 -0.100607E-04  0.207E-02    0.75       1.0  T
   3   -113.2883456 -0.371878E-06  0.886E-03    0.75       1.4  T
   4   -113.2883460 -0.364744E-06  0.202E-03    0.75       6.1  T
   5   -113.2883461 -0.132167E-06  0.876E-04    0.75      14.0  T
   6   -113.2883461 -0.491131E-08  0.376E-04    0.75      32.8  T
     SCC iter.                  ...        0 min,  0.024 sec
     gradient                   ...        0 min,  0.016 sec
 * total energy  :  -111.8552586 Eh     change       -0.9787059E-04 Eh
   gradient norm :     0.0056364 Eh/α   predicted    -0.8615430E-04 ( -11.97%)
   displ. norm   :     0.1565826 α      lambda       -0.1181099E-03
   maximum displ.:     0.0969317 α      in ANC's #5, #14, #10, ...

........................................................................
.............................. CYCLE   17 ..............................
........................................................................

 iter      E             dE          RMSdq      gap      omega  full diag
   1   -113.2904308 -0.113290E+03  0.284E-02    0.78       0.0  T
   2   -113.2904363 -0.551448E-05  0.159E-02    0.77       1.0  T
   3   -113.2904365 -0.140034E-06  0.634E-03    0.77       1.9  T
   4   -113.2904366 -0.154970E-06  0.148E-03    0.77       8.3  T
   5   -113.2904367 -0.770126E-07  0.573E-04    0.77      21.5  T
   6   -113.2904367 -0.318839E-08  0.269E-04    0.77      45.7  T
     SCC iter.                  ...        0 min,  0.032 sec
     gradient                   ...        0 min,  0.017 sec
 * total energy  :  -111.8553281 Eh     change       -0.6951001E-04 Eh
   gradient norm :     0.0047024 Eh/α   predicted    -0.6050863E-04 ( -12.95%)
   displ. norm   :     0.2202041 α      lambda       -0.1194646E-03
   maximum displ.:     0.1266287 α      in ANC's #5, #14, #10, ...

........................................................................
.............................. CYCLE   18 ..............................
........................................................................

 iter      E             dE          RMSdq      gap      omega  full diag
   1   -113.2884778 -0.113288E+03  0.340E-02    0.76       0.0  T
   2   -113.2884800 -0.217538E-05  0.198E-02    0.76       1.0  T
   3   -113.2884794  0.620362E-06  0.566E-03    0.76       2.2  T
   4   -113.2884805 -0.105926E-05  0.133E-03    0.76       9.2  T
   5   -113.2884805 -0.397463E-07  0.623E-04    0.76      19.8  T
   6   -113.2884805 -0.148796E-08  0.224E-04    0.76      55.0  T
     SCC iter.                  ...        0 min,  0.023 sec
     gradient                   ...        0 min,  0.015 sec
 * total energy  :  -111.8554161 Eh     change       -0.8795441E-04 Eh
   gradient norm :     0.0052954 Eh/α   predicted    -0.6262918E-04 ( -28.79%)
   displ. norm   :     0.2506070 α      lambda       -0.1693417E-03
   maximum displ.:     0.1597742 α      in ANC's #5, #14, #9, ...

........................................................................
.............................. CYCLE   19 ..............................
........................................................................

 iter      E             dE          RMSdq      gap      omega  full diag
   1   -113.2884609 -0.113288E+03  0.429E-02    0.75       0.0  T
   2   -113.2884644 -0.357354E-05  0.250E-02    0.75       1.0  T
   3   -113.2884640  0.433401E-06  0.599E-03    0.76       2.1  T
   4   -113.2884649 -0.933094E-06  0.179E-03    0.76       6.9  T
   5   -113.2884650 -0.934940E-07  0.791E-04    0.76      15.6  T
   6   -113.2884650 -0.331696E-08  0.320E-04    0.76      38.5  T
     SCC iter.                  ...        0 min,  0.027 sec
     gradient                   ...        0 min,  0.016 sec
 * total energy  :  -111.8555303 Eh     change       -0.1142537E-03 Eh
   gradient norm :     0.0060098 Eh/α   predicted    -0.8999440E-04 ( -21.23%)
   displ. norm   :     0.3388210 α      lambda       -0.1787897E-03
   maximum displ.:     0.2061823 α      in ANC's #5, #14, #9, ...

........................................................................
.............................. CYCLE   20 ..............................
........................................................................

 iter      E             dE          RMSdq      gap      omega  full diag
   1   -113.2871722 -0.113287E+03  0.575E-02    0.76       0.0  T
   2   -113.2871753 -0.309812E-05  0.335E-02    0.76       1.0  T
   3   -113.2871751  0.200540E-06  0.479E-03    0.76       2.6  T
   4   -113.2871759 -0.739490E-06  0.168E-03    0.76       7.3  T
   5   -113.2871759 -0.570796E-07  0.849E-04    0.76      14.5  T
   6   -113.2871759 -0.526431E-08  0.287E-04    0.76      42.9  T
     SCC iter.                  ...        0 min,  0.026 sec
     gradient                   ...        0 min,  0.016 sec
 * total energy  :  -111.8556330 Eh     change       -0.1026711E-03 Eh
   gradient norm :     0.0066405 Eh/α   predicted    -0.9965969E-04 (  -2.93%)
   displ. norm   :     0.2012170 α      lambda       -0.1122055E-03
   maximum displ.:     0.1267067 α      in ANC's #5, #9, #14, ...
 * RMSD in coord.:     0.6491750 α      energy gain  -0.3378214E-01 Eh

generating ANC from exact Hessian ...
Using Lindh-Hessian (1995)
 Shifting diagonal of input Hessian by    9.9086939585832142E-003
 Lowest  eigenvalues of input Hessian
    0.000000    0.000000    0.000000    0.000000    0.000000    0.000000
    0.010000    0.010019    0.010045    0.010285    0.010494    0.010780
    0.010994    0.011131    0.011329    0.011479    0.011905    0.012791
 Highest eigenvalues
    2.076355    2.308345    2.314846    2.318561    2.349978    2.636656


........................................................................
.............................. CYCLE   21 ..............................
........................................................................

 iter      E             dE          RMSdq      gap      omega  full diag
   1   -113.2876861 -0.113288E+03  0.340E-02    0.76       0.0  T
   2   -113.2876872 -0.105175E-05  0.199E-02    0.76       1.0  T
   3   -113.2876871  0.730074E-07  0.285E-03    0.76       4.3  T
   4   -113.2876874 -0.279559E-06  0.103E-03    0.76      12.0  T
   5   -113.2876874 -0.177375E-07  0.472E-04    0.76      26.1  T
   6   -113.2876874 -0.145748E-08  0.142E-04    0.76      86.8  T
     SCC iter.                  ...        0 min,  0.033 sec
     gradient                   ...        0 min,  0.017 sec
 * total energy  :  -111.8557158 Eh     change       -0.8282684E-04 Eh
   gradient norm :     0.0047704 Eh/α   predicted     0.0000000E+00 (-100.00%)
   displ. norm   :     0.0418371 α      lambda       -0.6048365E-04
   maximum displ.:     0.0176113 α      in ANC's #7, #8, #14, ...

........................................................................
.............................. CYCLE   22 ..............................
........................................................................

 iter      E             dE          RMSdq      gap      omega  full diag
   1   -113.2892375 -0.113289E+03  0.105E-02    0.77       0.0  T
   2   -113.2892380 -0.470205E-06  0.613E-03    0.77       2.0  T
   3   -113.2892380  0.122054E-07  0.192E-03    0.76       6.4  T
   4   -113.2892381 -0.623544E-07  0.651E-04    0.76      18.9  T
   5   -113.2892381 -0.147006E-07  0.278E-04    0.76      44.3  T
     SCC iter.                  ...        0 min,  0.023 sec
     gradient                   ...        0 min,  0.016 sec
 * total energy  :  -111.8557661 Eh     change       -0.5029586E-04 Eh
   gradient norm :     0.0024110 Eh/α   predicted    -0.3203796E-04 ( -36.30%)
   displ. norm   :     0.1115378 α      lambda       -0.9197606E-04
   maximum displ.:     0.0482290 α      in ANC's #7, #14, #8, ...

........................................................................
.............................. CYCLE   23 ..............................
........................................................................

 iter      E             dE          RMSdq      gap      omega  full diag
   1   -113.2908776 -0.113291E+03  0.223E-02    0.77       0.0  T
   2   -113.2908789 -0.129602E-05  0.129E-02    0.77       1.0  T
   3   -113.2908788  0.106847E-06  0.343E-03    0.77       3.6  T
   4   -113.2908791 -0.334165E-06  0.115E-03    0.77      10.7  T
   5   -113.2908792 -0.343383E-07  0.561E-04    0.77      22.0  T
   6   -113.2908792 -0.153402E-08  0.190E-04    0.77      64.8  T
     SCC iter.                  ...        0 min,  0.030 sec
     gradient                   ...        0 min,  0.016 sec
 * total energy  :  -111.8558187 Eh     change       -0.5256370E-04 Eh
   gradient norm :     0.0026415 Eh/α   predicted    -0.4656060E-04 ( -11.42%)
   displ. norm   :     0.0982268 α      lambda       -0.4793757E-04
   maximum displ.:     0.0428418 α      in ANC's #7, #14, #8, ...

........................................................................
.............................. CYCLE   24 ..............................
........................................................................

 iter      E             dE          RMSdq      gap      omega  full diag
   1   -113.2906536 -0.113291E+03  0.185E-02    0.76       0.0  T
   2   -113.2906540 -0.421248E-06  0.107E-02    0.76       1.1  T
   3   -113.2906540 -0.468632E-07  0.188E-03    0.76       6.6  T
   4   -113.2906541 -0.949210E-07  0.854E-04    0.76      14.4  T
   5   -113.2906541 -0.636274E-08  0.417E-04    0.76      29.5  T
     SCC iter.                  ...        0 min,  0.021 sec
     gradient                   ...        0 min,  0.015 sec
 * total energy  :  -111.8558448 Eh     change       -0.2614663E-04 Eh
   gradient norm :     0.0032203 Eh/α   predicted    -0.2420099E-04 (  -7.44%)
   displ. norm   :     0.0987634 α      lambda       -0.3896247E-04
   maximum displ.:     0.0441050 α      in ANC's #14, #7, #8, ...

........................................................................
.............................. CYCLE   25 ..............................
........................................................................

 iter      E             dE          RMSdq      gap      omega  full diag
   1   -113.2898616 -0.113290E+03  0.167E-02    0.76       0.0  T
   2   -113.2898619 -0.263336E-06  0.968E-03    0.76       1.3  T
   3   -113.2898619 -0.617630E-07  0.136E-03    0.76       9.1  T
   4   -113.2898620 -0.424652E-07  0.748E-04    0.76      16.5  T
   5   -113.2898620 -0.682245E-08  0.285E-04    0.76      43.3  T
     SCC iter.                  ...        0 min,  0.028 sec
     gradient                   ...        0 min,  0.016 sec
 * total energy  :  -111.8558773 Eh     change       -0.3252801E-04 Eh
   gradient norm :     0.0027382 Eh/α   predicted    -0.1967427E-04 ( -39.52%)
   displ. norm   :     0.2306930 α      lambda       -0.8229888E-04
   maximum displ.:     0.1085080 α      in ANC's #14, #7, #8, ...

........................................................................
.............................. CYCLE   26 ..............................
........................................................................

 iter      E             dE          RMSdq      gap      omega  full diag
   1   -113.2878973 -0.113288E+03  0.384E-02    0.75       0.0  T
   2   -113.2878989 -0.153886E-05  0.223E-02    0.75       1.0  T
   3   -113.2878989 -0.408519E-07  0.372E-03    0.75       3.3  T
   4   -113.2878994 -0.511297E-06  0.172E-03    0.75       7.2  T
   5   -113.2878995 -0.362146E-07  0.757E-04    0.75      16.3  T
   6   -113.2878995 -0.413520E-08  0.245E-04    0.75      50.2  T
     SCC iter.                  ...        0 min,  0.025 sec
     gradient                   ...        0 min,  0.016 sec
 * total energy  :  -111.8559278 Eh     change       -0.5041569E-04 Eh
   gradient norm :     0.0033891 Eh/α   predicted    -0.4335874E-04 ( -14.00%)
   displ. norm   :     0.0943219 α      lambda       -0.2931721E-04
   maximum displ.:     0.0439065 α      in ANC's #14, #7, #8, ...

........................................................................
.............................. CYCLE   27 ..............................
........................................................................

 iter      E             dE          RMSdq      gap      omega  full diag
   1   -113.2879858 -0.113288E+03  0.161E-02    0.75       0.0  T
   2   -113.2879860 -0.265049E-06  0.931E-03    0.75       1.3  T
   3   -113.2879860  0.757636E-07  0.194E-03    0.75       6.3  T
   4   -113.2879861 -0.168897E-06  0.635E-04    0.75      19.4  T
   5   -113.2879861 -0.390335E-08  0.302E-04    0.75      40.8  T
     SCC iter.                  ...        0 min,  0.022 sec
     gradient                   ...        0 min,  0.016 sec
 * total energy  :  -111.8559520 Eh     change       -0.2426374E-04 Eh
   gradient norm :     0.0030269 Eh/α   predicted    -0.1484507E-04 ( -38.82%)
   displ. norm   :     0.2016509 α      lambda       -0.6182329E-04
   maximum displ.:     0.0917082 α      in ANC's #14, #8, #7, ...

........................................................................
.............................. CYCLE   28 ..............................
........................................................................

 iter      E             dE          RMSdq      gap      omega  full diag
   1   -113.2888154 -0.113289E+03  0.345E-02    0.76       0.0  T
   2   -113.2888165 -0.105119E-05  0.199E-02    0.76       1.0  T
   3   -113.2888163  0.164164E-06  0.366E-03    0.76       3.4  T
   4   -113.2888169 -0.553646E-06  0.131E-03    0.76       9.4  T
   5   -113.2888169 -0.123360E-07  0.510E-04    0.76      24.2  T
   6   -113.2888169 -0.235963E-08  0.175E-04    0.76      70.4  T
     SCC iter.                  ...        0 min,  0.030 sec
     gradient                   ...        0 min,  0.015 sec
 * total energy  :  -111.8559957 Eh     change       -0.4369144E-04 Eh
   gradient norm :     0.0020290 Eh/α   predicted    -0.3216948E-04 ( -26.37%)
   displ. norm   :     0.2110920 α      lambda       -0.3855333E-04
   maximum displ.:     0.0951386 α      in ANC's #14, #8, #7, ...

........................................................................
.............................. CYCLE   29 ..............................
........................................................................

 iter      E             dE          RMSdq      gap      omega  full diag
   1   -113.2888557 -0.113289E+03  0.358E-02    0.76       0.0  T
   2   -113.2888566 -0.956504E-06  0.207E-02    0.76       1.0  T
   3   -113.2888567 -0.134990E-06  0.286E-03    0.76       4.3  T
   4   -113.2888570 -0.254381E-06  0.136E-03    0.76       9.1  T
   5   -113.2888570 -0.983067E-08  0.417E-04    0.76      29.5  T
   6   -113.2888570 -0.377014E-08  0.149E-04    0.76      82.6  T
     SCC iter.                  ...        0 min,  0.025 sec
     gradient                   ...        0 min,  0.016 sec
 * total energy  :  -111.8560242 Eh     change       -0.2847013E-04 Eh
   gradient norm :     0.0021831 Eh/α   predicted    -0.2015395E-04 ( -29.21%)
   displ. norm   :     0.2011358 α      lambda       -0.4627145E-04
   maximum displ.:     0.0775259 α      in ANC's #14, #8, #2, ...

........................................................................
.............................. CYCLE   30 ..............................
........................................................................

 iter      E             dE          RMSdq      gap      omega  full diag
   1   -113.2903280 -0.113290E+03  0.362E-02    0.77       0.0  T
   2   -113.2903293 -0.131908E-05  0.209E-02    0.77       1.0  T
   3   -113.2903295 -0.155866E-06  0.291E-03    0.77       4.2  T
   4   -113.2903297 -0.219012E-06  0.133E-03    0.77       9.3  T
   5   -113.2903297 -0.191407E-07  0.604E-04    0.77      20.4  T
   6   -113.2903297 -0.375287E-08  0.159E-04    0.77      77.5  T
     SCC iter.                  ...        0 min,  0.030 sec
     gradient                   ...        0 min,  0.018 sec
 * total energy  :  -111.8560526 Eh     change       -0.2842529E-04 Eh
   gradient norm :     0.0025454 Eh/α   predicted    -0.2407205E-04 ( -15.31%)
   displ. norm   :     0.2044462 α      lambda        0.7140003E-05
   maximum displ.:     0.0788678 α      in ANC's #14, #8, #2, ...

........................................................................
.............................. CYCLE   31 ..............................
........................................................................

 iter      E             dE          RMSdq      gap      omega  full diag
   1   -113.2910872 -0.113291E+03  0.366E-02    0.78       0.0  T
   2   -113.2910885 -0.125948E-05  0.212E-02    0.78       1.0  T
   3   -113.2910886 -0.191591E-06  0.275E-03    0.78       4.5  T
   4   -113.2910888 -0.187396E-06  0.131E-03    0.78       9.4  T
   5   -113.2910889 -0.160467E-07  0.589E-04    0.78      20.9  T
   6   -113.2910889 -0.461282E-08  0.159E-04    0.78      77.3  T
     SCC iter.                  ...        0 min,  0.024 sec
     gradient                   ...        0 min,  0.015 sec
 * total energy  :  -111.8560544 Eh     change       -0.1789360E-05 Eh
   gradient norm :     0.0044617 Eh/α   predicted     0.3716417E-05 (-307.70%)
   displ. norm   :     0.2566809 α      lambda       -0.5058729E-04
   maximum displ.:     0.1162144 α      in ANC's #14, #8, #7, ...

........................................................................
.............................. CYCLE   32 ..............................
........................................................................

 iter      E             dE          RMSdq      gap      omega  full diag
   1   -113.2875040 -0.113288E+03  0.450E-02    0.77       0.0  T
   2   -113.2875066 -0.257008E-05  0.260E-02    0.77       1.0  T
   3   -113.2875070 -0.438609E-06  0.352E-03    0.77       3.5  T
   4   -113.2875072 -0.176005E-06  0.182E-03    0.77       6.8  T
   5   -113.2875072 -0.456819E-07  0.945E-04    0.77      13.0  T
   6   -113.2875073 -0.112160E-07  0.238E-04    0.77      51.6  T
     SCC iter.                  ...        0 min,  0.032 sec
     gradient                   ...        0 min,  0.016 sec
 * total energy  :  -111.8560552 Eh     change       -0.8387551E-06 Eh
   gradient norm :     0.0051922 Eh/α   predicted    -0.2696192E-04 (3114.52%)
   displ. norm   :     0.2137485 α      lambda       -0.7503146E-04
   maximum displ.:     0.0968952 α      in ANC's #14, #8, #7, ...

........................................................................
.............................. CYCLE   33 ..............................
........................................................................

 iter      E             dE          RMSdq      gap      omega  full diag
   1   -113.2896712 -0.113290E+03  0.377E-02    0.76       0.0  T
   2   -113.2896728 -0.159920E-05  0.218E-02    0.76       1.0  T
   3   -113.2896729 -0.104148E-06  0.318E-03    0.76       3.9  T
   4   -113.2896732 -0.319910E-06  0.139E-03    0.76       8.9  T
   5   -113.2896732 -0.178406E-07  0.631E-04    0.76      19.5  T
   6   -113.2896732 -0.364457E-08  0.212E-04    0.76      58.1  T
     SCC iter.                  ...        0 min,  0.024 sec
     gradient                   ...        0 min,  0.016 sec
 * total energy  :  -111.8560894 Eh     change       -0.3414910E-04 Eh
   gradient norm :     0.0013519 Eh/α   predicted    -0.3923804E-04 (  14.90%)
   displ. norm   :     0.1513985 α      lambda       -0.1543534E-04
   maximum displ.:     0.0535895 α      in ANC's #13, #4, #2, ...

........................................................................
.............................. CYCLE   34 ..............................
........................................................................

 iter      E             dE          RMSdq      gap      omega  full diag
   1   -113.2903463 -0.113290E+03  0.285E-02    0.77       0.0  T
   2   -113.2903472 -0.905281E-06  0.164E-02    0.77       1.0  T
   3   -113.2903473 -0.153406E-06  0.198E-03    0.77       6.2  T
   4   -113.2903474 -0.578766E-07  0.904E-04    0.77      13.6  T
   5   -113.2903474 -0.627735E-08  0.474E-04    0.77      26.0  T
     SCC iter.                  ...        0 min,  0.023 sec
     gradient                   ...        0 min,  0.017 sec
 * total energy  :  -111.8561040 Eh     change       -0.1458082E-04 Eh
   gradient norm :     0.0014523 Eh/α   predicted    -0.7797285E-05 ( -46.52%)
   displ. norm   :     0.1986080 α      lambda       -0.1407440E-04
   maximum displ.:     0.0690352 α      in ANC's #6, #4, #14, ...

........................................................................
.............................. CYCLE   35 ..............................
........................................................................

 iter      E             dE          RMSdq      gap      omega  full diag
   1   -113.2895437 -0.113290E+03  0.366E-02    0.76       0.0  T
   2   -113.2895447 -0.964668E-06  0.212E-02    0.77       1.0  T
   3   -113.2895449 -0.274169E-06  0.218E-03    0.77       5.7  T
   4   -113.2895450 -0.753863E-07  0.120E-03    0.77      10.2  T
   5   -113.2895450 -0.107571E-07  0.478E-04    0.77      25.8  T
   6   -113.2895450 -0.512637E-08  0.139E-04    0.77      88.4  T
     SCC iter.                  ...        0 min,  0.025 sec
     gradient                   ...        0 min,  0.016 sec
 * total energy  :  -111.8561165 Eh     change       -0.1252905E-04 Eh
   gradient norm :     0.0009779 Eh/α   predicted    -0.7160901E-05 ( -42.85%)
   displ. norm   :     0.0626038 α      lambda       -0.4766863E-05
   maximum displ.:     0.0256059 α      in ANC's #4, #6, #11, ...

........................................................................
.............................. CYCLE   36 ..............................
........................................................................

 iter      E             dE          RMSdq      gap      omega  full diag
   1   -113.2898408 -0.113290E+03  0.124E-02    0.77       0.0  T
   2   -113.2898409 -0.959593E-07  0.717E-03    0.77       1.7  T
   3   -113.2898409 -0.181390E-07  0.757E-04    0.77      16.3  T
   4   -113.2898409 -0.153650E-07  0.368E-04    0.77      33.4  T
     SCC iter.                  ...        0 min,  0.019 sec
     gradient                   ...        0 min,  0.017 sec
 * total energy  :  -111.8561223 Eh     change       -0.5836119E-05 Eh
   gradient norm :     0.0006938 Eh/α   predicted    -0.2389668E-05 ( -59.05%)
   displ. norm   :     0.1258005 α      lambda       -0.9618034E-05
   maximum displ.:     0.0576938 α      in ANC's #6, #4, #3, ...

........................................................................
.............................. CYCLE   37 ..............................
........................................................................

 iter      E             dE          RMSdq      gap      omega  full diag
   1   -113.2900614 -0.113290E+03  0.257E-02    0.77       0.0  T
   2   -113.2900617 -0.336038E-06  0.150E-02    0.77       1.0  T
   3   -113.2900618 -0.589009E-07  0.153E-03    0.77       8.1  T
   4   -113.2900619 -0.708207E-07  0.732E-04    0.77      16.8  T
   5   -113.2900619 -0.416840E-08  0.241E-04    0.77      51.2  T
     SCC iter.                  ...        0 min,  0.025 sec
     gradient                   ...        0 min,  0.013 sec
 * total energy  :  -111.8561331 Eh     change       -0.1078835E-04 Eh
   gradient norm :     0.0009198 Eh/α   predicted    -0.4844196E-05 ( -55.10%)
   displ. norm   :     0.1518931 α      lambda       -0.8968295E-05
   maximum displ.:     0.0755041 α      in ANC's #6, #4, #3, ...

........................................................................
.............................. CYCLE   38 ..............................
........................................................................

 iter      E             dE          RMSdq      gap      omega  full diag
   1   -113.2899491 -0.113290E+03  0.310E-02    0.76       0.0  T
   2   -113.2899496 -0.462690E-06  0.180E-02    0.76       1.0  T
   3   -113.2899497 -0.933827E-07  0.180E-03    0.76       6.8  T
   4   -113.2899498 -0.954151E-07  0.887E-04    0.76      13.9  T
   5   -113.2899498 -0.530208E-08  0.274E-04    0.76      44.9  T
     SCC iter.                  ...        0 min,  0.020 sec
     gradient                   ...        0 min,  0.015 sec
 * total energy  :  -111.8561429 Eh     change       -0.9767091E-05 Eh
   gradient norm :     0.0012762 Eh/α   predicted    -0.4532278E-05 ( -53.60%)
   displ. norm   :     0.1271678 α      lambda       -0.7708537E-05
   maximum displ.:     0.0652599 α      in ANC's #6, #3, #4, ...

........................................................................
.............................. CYCLE   39 ..............................
........................................................................

 iter      E             dE          RMSdq      gap      omega  full diag
   1   -113.2902708 -0.113290E+03  0.261E-02    0.76       0.0  T
   2   -113.2902711 -0.363722E-06  0.152E-02    0.76       1.0  T
   3   -113.2902712 -0.294443E-07  0.154E-03    0.76       8.0  T
   4   -113.2902712 -0.791877E-07  0.699E-04    0.76      17.6  T
   5   -113.2902712 -0.721617E-08  0.335E-04    0.76      36.7  T
     SCC iter.                  ...        0 min,  0.028 sec
     gradient                   ...        0 min,  0.015 sec
 * total energy  :  -111.8561506 Eh     change       -0.7720025E-05 Eh
   gradient norm :     0.0009708 Eh/α   predicted    -0.3883704E-05 ( -49.69%)
   displ. norm   :     0.1262144 α      lambda        0.1402262E-05
   maximum displ.:     0.0647585 α      in ANC's #6, #3, #4, ...

........................................................................
.............................. CYCLE   40 ..............................
........................................................................

 iter      E             dE          RMSdq      gap      omega  full diag
   1   -113.2904119 -0.113290E+03  0.259E-02    0.76       0.0  T
   2   -113.2904122 -0.346251E-06  0.150E-02    0.76       1.0  T
   3   -113.2904123 -0.332617E-07  0.148E-03    0.76       8.3  T
   4   -113.2904124 -0.726985E-07  0.687E-04    0.76      17.9  T
   5   -113.2904124 -0.677636E-08  0.328E-04    0.76      37.6  T
     SCC iter.                  ...        0 min,  0.022 sec
     gradient                   ...        0 min,  0.016 sec
 * total energy  :  -111.8561506 Eh     change        0.8290044E-09 Eh
   gradient norm :     0.0015996 Eh/α   predicted     0.7059560E-06 (*******%)
   displ. norm   :     0.0262104 α      lambda       -0.7079616E-05
   maximum displ.:     0.0117672 α      in ANC's #11, #9, #6, ...

........................................................................
.............................. CYCLE   41 ..............................
........................................................................

 iter      E             dE          RMSdq      gap      omega  full diag
   1   -113.2900961 -0.113290E+03  0.620E-03    0.76       0.0  T
   2   -113.2900963 -0.181007E-06  0.351E-03    0.76       3.5  T
   3   -113.2900963 -0.934264E-08  0.106E-03    0.76      11.6  T
   4   -113.2900963 -0.654663E-08  0.324E-04    0.76      38.0  T
   5   -113.2900963 -0.262291E-08  0.169E-04    0.76      72.7  T
     SCC iter.                  ...        0 min,  0.024 sec
     gradient                   ...        0 min,  0.017 sec
 * total energy  :  -111.8561567 Eh     change       -0.6050684E-05 Eh
   gradient norm :     0.0007498 Eh/α   predicted    -0.3544370E-05 ( -41.42%)
   displ. norm   :     0.0235000 α      lambda       -0.3118327E-05
   maximum displ.:     0.0100067 α      in ANC's #11, #3, #6, ...

........................................................................
.............................. CYCLE   42 ..............................
........................................................................

 iter      E             dE          RMSdq      gap      omega  full diag
   1   -113.2900619 -0.113290E+03  0.466E-03    0.76       0.0  T
   2   -113.2900619 -0.250073E-07  0.272E-03    0.76       4.5  T
   3   -113.2900619  0.149095E-08  0.437E-04    0.76      28.2  T
   4   -113.2900619 -0.759584E-08  0.170E-04    0.76      72.6  T
     SCC iter.                  ...        0 min,  0.018 sec
     gradient                   ...        0 min,  0.014 sec
 * total energy  :  -111.8561604 Eh     change       -0.3713151E-05 Eh
   gradient norm :     0.0005824 Eh/α   predicted    -0.1562951E-05 ( -57.91%)
   displ. norm   :     0.0665363 α      lambda       -0.5762852E-05
   maximum displ.:     0.0324227 α      in ANC's #3, #6, #14, ...

   *** GEOMETRY OPTIMIZATION CONVERGED AFTER 42 ITERATIONS ***

------------------------------------------------------------------------
 total energy gain   :        -0.0343095 Eh      -21.5296 kcal/mol
 total RMSD          :         0.7587067 a0        0.4015 Å
 total power (kW/mol):        -2.1447537 (step)  -38.6978 (real)
------------------------------------------------------------------------

 ANCopt (total)                0 d,  0 h,  0 min,  2.328 sec
 optimizer setup                ...        0 min,  0.000 sec (  0.020%)
 model hessian                  ...        0 min,  0.072 sec (  3.112%)
 ANC generation                 ...        0 min,  0.007 sec (  0.297%)
 coordinate transformation      ...        0 min,  0.002 sec (  0.084%)
 single point calculation       ...        0 min,  2.207 sec ( 94.815%)
 optimization log               ...        0 min,  0.022 sec (  0.950%)
 hessian update                 ...        0 min,  0.005 sec (  0.217%)
 rational function              ...        0 min,  0.009 sec (  0.366%)

================
 final structure:
================
66
 xtb: 6.7.1 (edcfbbe)
C           -7.06780969063412        3.44176886353526       -1.37261431328160
N           -5.86694903886152        2.84579460431039       -0.83542731270099
C           -4.76158546037824        2.62891092775509       -1.56462789126120
O           -4.68320008177447        2.91752431826437       -2.76013107401573
C           -3.62685424153568        1.99393366896735       -0.83639944946377
C           -3.36803935950820        2.23250596798433        0.51000171630476
C           -2.28753150781306        1.62906659712097        1.12660978130828
C           -1.45132410232248        0.77427731086368        0.42019703885776
C           -0.31742707767848        0.06641385938360        1.12967385372876
C           -0.87913033574062       -1.27205473463658        1.55756953955297
C           -1.33330694294515       -1.45912964877807        2.85624477209263
C           -1.88274520625150       -2.66806796966834        3.23719523080803
C           -2.00359668087538       -3.71039266642702        2.32375122230416
C           -2.58996540899710       -4.99462771657292        2.80094322918344
O           -2.46501147722988       -5.36688674230987        3.96961299105288
N           -3.26680068098896       -5.70047248042498        1.88248274858452
C           -3.90730700235244       -6.96284552885668        2.16848576437361
C           -1.53935155688969       -3.52645816808191        1.02337977189564
C           -0.98622956951573       -2.31793873252119        0.64750753129453
N            0.84299427469646       -0.09387283899463        0.26085488783839
C            1.37617314082732        1.18664527053532       -0.17368898861176
C            2.47306320854104        0.95034520128697       -1.21301359190709
N            3.50723243829446        0.12643831573766       -0.63154487297158
C            4.75746717375598        0.49941177965539       -0.40427655982996
O            5.61260922209002       -0.18351681259467        0.15822499468076
C            5.18874571793028        1.84582807364513       -0.90202147372079
N            5.05674405607054        2.95706805672120       -0.23919470335810
O            5.75609285364197        3.92120673593327       -0.91064406524703
C            6.34746843879061        3.41611397665876       -1.98192356410967
C            7.16746946628540        4.27187385402428       -2.84420857782932
C            6.01752829025227        2.06529199499912       -2.04688989177346
N            6.36604542712968        1.11876713821988       -3.01400183162966
O            5.80065130896185        0.03666788043626       -2.97997769348869
O            7.20392409038711        1.42650277725059       -3.84568494441432
C            3.00353483995781       -1.13410193750558       -0.12718290984630
C            1.90319332535837       -0.85987673176458        0.89541345927527
C           -1.70606683133227        0.54220931696263       -0.92678969973640
C           -2.77362573582963        1.15618811131246       -1.54997804344178
H           -7.90267596119587        2.74428501991442       -1.30347728911194
H           -6.88149837256256        3.68066973221731       -2.41857276526370
H           -7.31233035911537        4.35520878387814       -0.83027785324790
H           -5.89103917415865        2.54336315792276        0.12566520764312
H           -3.98310175789044        2.91480251413512        1.07642777340355
H           -2.09131044592032        1.82862163471180        2.16946313197252
H           -0.05070897272055        0.64218731416704        2.03618595051932
H           -1.24977236527665       -0.66073539522383        3.57821603686881
H           -2.22495457520987       -2.82804891670808        4.24885526422182
H           -3.38504143627583       -5.32088825509555        0.95604009010436
H           -3.49135543461113       -7.74984241816192        1.53967311341982
H           -4.98133786002124       -6.89210358149896        1.99897542876001
H           -3.72109638733739       -7.20035735520197        3.21440832148890
H           -1.57646787497051       -4.33357872158066        0.30815348234955
H           -0.61526964246036       -2.18141616352747       -0.35487054166020
H            1.80132005213419        1.75577717444111        0.67206790507143
H            0.57650992579676        1.77566736943907       -0.62311637923192
H            2.05407127600251        0.41724409626906       -2.07048545797114
H            2.88767440249234        1.90107960314374       -1.54333524462269
H            8.21409408343415        4.17485894914125       -2.55347570402669
H            7.09146887420445        3.94244628461332       -3.87777049151099
H            6.86858648263082        5.30928409672387       -2.72946678576298
H            2.59863681744442       -1.70528510120590       -0.96526905189002
H            3.83287324421202       -1.67848728433747        0.32466889755599
H            1.50248052507930       -1.80794638938744        1.25382233253555
H            2.33636863116012       -0.31681476429589        1.75488198140579
H           -1.05226809955884       -0.10758477405972       -1.48460774739842
H           -2.97093087885753        0.99708249713837       -2.59962568613580

 Bond Distances (Angstroems)
 ---------------------------
C1-N2=1.4442         C1-H39=1.0901        C1-H40=1.0890        C1-H41=1.0901        N2-C1=1.4442         N2-C3=1.3419         
N2-H42=1.0078        C3-N2=1.3419         C3-O4=1.2323         C3-C5=1.4903         O4-C3=1.2323         C5-C3=1.4903         
C5-C6=1.3917         C5-C38=1.3925        C6-C5=1.3917         C6-C7=1.3827         C6-H43=1.0792        C7-C6=1.3827         
C7-C8=1.3889         C7-H44=1.0798        C8-C7=1.3889         C8-C9=1.5133         C8-C37=1.3904        C9-C8=1.5133         
C9-C10=1.5133        C9-N20=1.4585        C9-H45=1.1065        C10-C9=1.5133        C10-C11=1.3885       C10-C19=1.3905       
C11-C10=1.3885       C11-C12=1.3815       C11-H46=1.0797       C12-C11=1.3815       C12-C13=1.3912       C12-H47=1.0799       
C13-C12=1.3912       C13-C14=1.4902       C13-C18=1.3930       C14-C13=1.4902       C14-O15=1.2329       C14-N16=1.3416       
O15-C14=1.2329       N16-C14=1.3416       N16-C17=1.4442       N16-H48=1.0081       C17-N16=1.4442       C17-H49=1.0899       
C17-H50=1.0896       C17-H51=1.0886       C18-C13=1.3930       C18-C19=1.3812       C18-H52=1.0791       C19-C10=1.3905       
C19-C18=1.3812       C19-H53=1.0775       N20-C9=1.4585        N20-C21=1.4536       N20-C36=1.4538       C21-N20=1.4536       
C21-C22=1.5294       C21-H54=1.1045       C21-H55=1.0901       C22-C21=1.5294       C22-N23=1.4444       C22-H56=1.0932       
C22-H57=1.0885       N23-C22=1.4444       N23-C24=1.3243       N23-C35=1.4481       C24-N23=1.3243       C24-O25=1.2305       
C24-C26=1.4989       O25-C24=1.2305       C26-C24=1.4989       C26-N27=1.3006       C26-C31=1.4303       N27-C26=1.3006       
N27-O28=1.3673       O28-N27=1.3673       O28-C29=1.3238       C29-O28=1.3238       C29-C30=1.4657       C29-C31=1.3920       
C30-C29=1.4657       C30-H58=1.0906       C30-H59=1.0875       C30-H60=1.0857       C31-C26=1.4303       C31-C29=1.3920       
C31-N32=1.3974       N32-C31=1.3974       N32-O33=1.2214       N32-O34=1.2200       O33-N32=1.2214       O34-N32=1.2200       
C35-N23=1.4481       C35-C36=1.5270       C35-H61=1.0921       C35-H62=1.0901       C36-N20=1.4538       C36-C35=1.5270       
C36-H63=1.0899       C36-H64=1.1051       C37-C8=1.3904        C37-C38=1.3802       C37-H65=1.0774       C38-C5=1.3925        
C38-C37=1.3802       C38-H66=1.0798       H39-C1=1.0901        H40-C1=1.0890        H41-C1=1.0901        H42-N2=1.0078        
H43-C6=1.0792        H44-C7=1.0798        H45-C9=1.1065        H46-C11=1.0797       H47-C12=1.0799       H48-N16=1.0081       
H49-C17=1.0899       H50-C17=1.0896       H51-C17=1.0886       H52-C18=1.0791       H53-C19=1.0775       H54-C21=1.1045       
H55-C21=1.0901       H56-C22=1.0932       H57-C22=1.0885       H58-C30=1.0906       H59-C30=1.0875       H60-C30=1.0857       
H61-C35=1.0921       H62-C35=1.0901       H63-C36=1.0899       H64-C36=1.1051       H65-C37=1.0774       H66-C38=1.0798       
 C  H  Rav=1.0882 sigma=0.0079  Rmin=1.0774  Rmax=1.1065    26
 C  C  Rav=1.4319 sigma=0.0562  Rmin=1.3802  Rmax=1.5294    22
 N  H  Rav=1.0080 sigma=0.0002  Rmin=1.0078  Rmax=1.0081     2
 N  C  Rav=1.4044 sigma=0.0574  Rmin=1.3006  Rmax=1.4585    12
 O  C  Rav=1.2549 sigma=0.0398  Rmin=1.2305  Rmax=1.3238     4
 O  N  Rav=1.2696 sigma=0.0691  Rmin=1.2200  Rmax=1.3673     3

 selected bond angles (degree)
 --------------------
H39-C1-N2=110.44               H40-C1-N2=107.79               H40-C1-H39=109.41              H41-C1-N2=110.32               
H41-C1-H39=109.44              H41-C1-H40=109.42              C3-N2-C1=123.33                H42-N2-C1=117.30               
H42-N2-C3=119.30               O4-C3-N2=122.80                C5-C3-N2=115.50                C5-C3-O4=121.69                
C6-C5-C3=122.77                C38-C5-C3=118.19               C38-C5-C6=119.01               C7-C6-C5=120.13                
H43-C6-C5=120.68               H43-C6-C7=119.16               C8-C7-C6=120.82                H44-C7-C6=119.48               
H44-C7-C8=119.71               C9-C8-C7=120.04                C37-C8-C7=119.02               C37-C8-C9=120.89               
C10-C9-C8=105.55               N20-C9-C8=111.61               N20-C9-C10=111.50              H45-C9-C8=108.74               
H45-C9-C10=108.54              H45-C9-N20=110.70              C11-C10-C9=120.33              C19-C10-C9=120.58              
C19-C10-C11=119.05             

 selected dihedral angles (degree)
 ---------------------------------
C3-N2-C1-H39=118.21           C3-N2-C1-H40=358.73           C3-N2-C1-H41=239.32           H42-N2-C1-H39=301.17          
H42-N2-C1-H40=181.69          H42-N2-C1-H41= 62.28          O4-C3-N2-C1=359.70            O4-C3-N2-H42=176.68           
C5-C3-N2-C1=180.46            C5-C3-N2-H42=357.45           C6-C5-C3-N2=326.56            C6-C5-C3-O4=147.32            
C38-C5-C3-N2=148.33           C38-C5-C3-O4=329.09           C7-C6-C5-C3=180.96            C7-C6-C5-C38=359.18           
H43-C6-C5-C3=358.77           H43-C6-C5-C38=176.99          C8-C7-C6-C5=359.64            C8-C7-C6-H43=181.80           
H44-C7-C6-C5=179.45           H44-C7-C6-H43=  1.61          C9-C8-C7-C6=183.23            C9-C8-C7-H44=  3.42           
C37-C8-C7-C6=  0.71           C37-C8-C7-H44=180.90          C10-C9-C8-C7= 92.94           C10-C9-C8-C37=275.51          
N20-C9-C8-C7=214.24           N20-C9-C8-C37= 36.81          H45-C9-C8-C7=336.64           H45-C9-C8-C37=159.21          
C11-C10-C9-C8=261.63          C11-C10-C9-N20=140.26         C11-C10-C9-H45= 18.07         C19-C10-C9-C8= 79.64          
C19-C10-C9-N20=318.27         C19-C10-C9-H45=196.07         
           -------------------------------------------------
          |                Final Singlepoint                |
           -------------------------------------------------

          ...................................................
          :                      SETUP                      :
          :.................................................:
          :  # basis functions                 180          :
          :  # atomic orbitals                 180          :
          :  # shells                          104          :
          :  # electrons                       198          :
          :  max. iterations                   250          :
          :  Hamiltonian                  GFN2-xTB          :
          :  restarted?                      false          :
          :  GBSA solvation                   true          :
          :  PC potential                    false          :
          :  electronic temp.          300.0000000     K    :
          :  accuracy                    1.0000000          :
          :  -> integral cutoff          0.2500000E+02      :
          :  -> integral neglect         0.1000000E-07      :
          :  -> SCF convergence          0.1000000E-05 Eh   :
          :  -> wf. convergence          0.1000000E-03 e    :
          :  Broyden damping             0.4000000          :
          :  net charge                          0          :
          :  unpaired electrons                  0          :
          ...................................................

 iter      E             dE          RMSdq      gap      omega  full diag
   1   -113.2900619 -0.113290E+03  0.821E-05    0.76       0.0  T
   2   -113.2900619 -0.510170E-10  0.504E-05    0.76     244.1  T
   3   -113.2900619 -0.977707E-11  0.316E-05    0.76     389.0  T

   *** convergence criteria satisfied after 3 iterations ***

         #    Occupation            Energy/Eh            Energy/eV
      -------------------------------------------------------------
         1        2.0000           -0.8014211             -21.8078
       ...           ...                  ...                  ...
        93        2.0000           -0.4081630             -11.1067
        94        2.0000           -0.4054109             -11.0318
        95        2.0000           -0.4005738             -10.9002
        96        2.0000           -0.3990744             -10.8594
        97        2.0000           -0.3963937             -10.7864
        98        2.0000           -0.3927226             -10.6865
        99        2.0000           -0.3658696              -9.9558 (HOMO)
       100        0.0000           -0.3379834              -9.1970 (LUMO)
       101                         -0.2820399              -7.6747
       102                         -0.2615996              -7.1185
       103                         -0.2499622              -6.8018
       104                         -0.2351814              -6.3996
       ...                                ...                  ...
       180                          0.6587754              17.9262
      -------------------------------------------------------------
                  HL-Gap            0.0278862 Eh            0.7588 eV
             Fermi-level           -0.3519265 Eh           -9.5764 eV

 SCC (total)                   0 d,  0 h,  0 min,  0.038 sec
 SCC setup                      ...        0 min,  0.001 sec (  2.867%)
 Dispersion                     ...        0 min,  0.001 sec (  3.370%)
 classical contributions        ...        0 min,  0.000 sec (  0.308%)
 integral evaluation            ...        0 min,  0.005 sec ( 12.152%)
 iterations                     ...        0 min,  0.014 sec ( 37.753%)
 molecular gradient             ...        0 min,  0.016 sec ( 41.550%)
 printout                       ...        0 min,  0.001 sec (  1.927%)

         :::::::::::::::::::::::::::::::::::::::::::::::::::::
         ::                     SUMMARY                     ::
         :::::::::::::::::::::::::::::::::::::::::::::::::::::
         :: total energy            -111.856160375264 Eh    ::
         :: total w/o Gsasa/hb      -111.850904597718 Eh    ::
         :: gradient norm              0.000582603987 Eh/a0 ::
         :: HOMO-LUMO gap              0.758822573542 eV    ::
         ::.................................................::
         :: SCC energy              -113.289737952510 Eh    ::
         :: -> isotropic ES            0.249996148746 Eh    ::
         :: -> anisotropic ES          0.008075114364 Eh    ::
         :: -> anisotropic XC          0.042377806122 Eh    ::
         :: -> dispersion             -0.076415775688 Eh    ::
         :: -> Gsolv                  -0.058229974668 Eh    ::
         ::    -> Gelec               -0.052974197122 Eh    ::
         ::    -> Gsasa                0.003905592225 Eh    ::
         ::    -> Ghb                 -0.010242129469 Eh    ::
         ::    -> Gshift               0.001080759698 Eh    ::
         :: repulsion energy           1.433577577246 Eh    ::
         :: add. restraining           0.000000000000 Eh    ::
         :: total charge              -0.000000000000 e     ::
         :::::::::::::::::::::::::::::::::::::::::::::::::::::

           -------------------------------------------------
          |                Property Printout                |
           -------------------------------------------------

    * Orbital Energies and Occupations

         #    Occupation            Energy/Eh            Energy/eV
      -------------------------------------------------------------
         1        2.0000           -0.8014211             -21.8078
       ...           ...                  ...                  ...
        87        2.0000           -0.4290474             -11.6750
        88        2.0000           -0.4258677             -11.5884
        89        2.0000           -0.4241832             -11.5426
        90        2.0000           -0.4147231             -11.2852
        91        2.0000           -0.4134769             -11.2513
        92        2.0000           -0.4125721             -11.2267
        93        2.0000           -0.4081630             -11.1067
        94        2.0000           -0.4054109             -11.0318
        95        2.0000           -0.4005738             -10.9002
        96        2.0000           -0.3990744             -10.8594
        97        2.0000           -0.3963937             -10.7864
        98        2.0000           -0.3927226             -10.6865
        99        2.0000           -0.3658696              -9.9558 (HOMO)
       100        0.0000           -0.3379834              -9.1970 (LUMO)
       101                         -0.2820399              -7.6747
       102                         -0.2615996              -7.1185
       103                         -0.2499622              -6.8018
       104                         -0.2351814              -6.3996
       105                         -0.2322953              -6.3211
       106                         -0.2293896              -6.2420
       107                         -0.2036766              -5.5423
       108                         -0.1895933              -5.1591
       109                         -0.1791766              -4.8756
       110                         -0.0992191              -2.6999
       ...                                ...                  ...
       180                          0.6587754              17.9262
      -------------------------------------------------------------
                  HL-Gap            0.0278862 Eh            0.7588 eV
             Fermi-level           -0.3519265 Eh           -9.5764 eV

     #   Z          covCN         q      C6AA      α(0)
     1   6 C        3.689    -0.059    21.842     6.689
     2   7 N        2.687    -0.174    24.765     7.391
     3   6 C        2.759     0.271    22.427     7.755
     4   8 O        0.858    -0.539    24.662     6.658
     5   6 C        2.976    -0.027    28.659     8.781
     6   6 C        2.920    -0.038    28.957     8.824
     7   6 C        2.923    -0.040    28.991     8.830
     8   6 C        2.984     0.015    27.670     8.629
     9   6 C        3.820     0.037    19.942     6.355
    10   6 C        2.984     0.015    27.665     8.628
    11   6 C        2.922    -0.039    28.977     8.828
    12   6 C        2.925    -0.024    28.594     8.769
    13   6 C        2.976    -0.027    28.661     8.782
    14   6 C        2.760     0.271    22.430     7.756
    15   8 O        0.858    -0.541    24.722     6.666
    16   7 N        2.687    -0.173    24.755     7.389
    17   6 C        3.690    -0.060    21.845     6.689
    18   6 C        2.920    -0.039    28.961     8.825
    19   6 C        2.923    -0.037    28.931     8.821
    20   7 N        2.734    -0.172    24.709     7.383
    21   6 C        3.772     0.001    20.595     6.467
    22   6 C        3.756    -0.017    20.927     6.523
    23   7 N        2.740    -0.052    22.242     7.004
    24   6 C        2.766     0.274    22.362     7.744
    25   8 O        0.859    -0.513    24.082     6.580
    26   6 C        3.014     0.072    26.361     8.422
    27   7 N        1.948    -0.138    24.751     7.377
    28   8 O        1.821    -0.088    15.650     5.342
    29   6 C        2.987     0.181    24.128     8.058
    30   6 C        3.754    -0.163    23.715     6.944
    31   6 C        2.959    -0.035    28.868     8.813
    32   7 N        2.756     0.571    13.257     5.408
    33   8 O        0.933    -0.441    22.484     6.359
    34   8 O        0.932    -0.428    22.214     6.321
    35   6 C        3.764    -0.015    20.878     6.513
    36   6 C        3.771     0.004    20.539     6.458
    37   6 C        2.922    -0.037    28.921     8.819
    38   6 C        2.925    -0.024    28.600     8.770
    39   1 H        0.925     0.072     2.066     2.248
    40   1 H        0.925     0.077     2.008     2.216
    41   1 H        0.925     0.073     2.054     2.241
    42   1 H        0.860     0.215     1.033     1.592
    43   1 H        0.926     0.052     2.293     2.368
    44   1 H        0.926     0.049     2.338     2.391
    45   1 H        0.922     0.022     2.709     2.574
    46   1 H        0.926     0.046     2.370     2.407
    47   1 H        0.926     0.046     2.365     2.405
    48   1 H        0.860     0.217     1.023     1.584
    49   1 H        0.925     0.073     2.048     2.238
    50   1 H        0.925     0.072     2.060     2.244
    51   1 H        0.925     0.076     2.016     2.221
    52   1 H        0.926     0.056     2.244     2.343
    53   1 H        0.926     0.070     2.080     2.255
    54   1 H        0.923     0.025     2.662     2.552
    55   1 H        0.925     0.066     2.127     2.281
    56   1 H        0.924     0.091     1.866     2.136
    57   1 H        0.925     0.065     2.145     2.290
    58   1 H        0.924     0.145     1.424     1.866
    59   1 H        0.925     0.126     1.566     1.957
    60   1 H        0.925     0.129     1.543     1.943
    61   1 H        0.924     0.086     1.921     2.168
    62   1 H        0.925     0.079     1.994     2.208
    63   1 H        0.925     0.061     2.186     2.312
    64   1 H        0.922     0.018     2.765     2.600
    65   1 H        0.926     0.068     2.106     2.269
    66   1 H        0.926     0.051     2.309     2.376

 Mol. C6AA /au·bohr⁶  :      51318.884818
 Mol. C8AA /au·bohr⁸  :    1207198.798866
 Mol. α(0) /au        :        348.654681


Wiberg/Mayer (AO) data.
largest (>0.10) Wiberg bond orders for each atom

 ---------------------------------------------------------------------------
     #   Z sym  total        # sym  WBO       # sym  WBO       # sym  WBO
 ---------------------------------------------------------------------------
     1   6 C    3.957 --     2 N    1.002    40 H    0.978    39 H    0.974
                            41 H    0.973
     2   7 N    3.474 --     3 C    1.297     1 C    1.002    42 H    0.923
                             4 O    0.197
     3   6 C    3.946 --     4 O    1.587     2 N    1.297     5 C    0.991
     4   8 O    1.911 --     3 C    1.587     2 N    0.197
     5   6 C    3.985 --     6 C    1.395    38 C    1.390     3 C    0.991
                             8 C    0.102
     6   6 C    3.990 --     7 C    1.452     5 C    1.395    43 H    0.964
                            37 C    0.106
     7   6 C    3.989 --     6 C    1.452     8 C    1.407    44 H    0.967
                            38 C    0.105
     8   6 C    3.984 --     7 C    1.407    37 C    1.398     9 C    0.977
                             5 C    0.102
     9   6 C    3.982 --    20 N    0.981     8 C    0.977    10 C    0.976
                            45 H    0.949
    10   6 C    3.984 --    11 C    1.410    19 C    1.395     9 C    0.976
                            13 C    0.102
    11   6 C    3.988 --    12 C    1.450    10 C    1.410    46 H    0.967
                            18 C    0.105
    12   6 C    3.989 --    11 C    1.450    13 C    1.397    47 H    0.968
                            19 C    0.107
    13   6 C    3.984 --    12 C    1.397    18 C    1.387    14 C    0.991
                            10 C    0.102
    14   6 C    3.946 --    15 O    1.585    16 N    1.298    13 C    0.991
    15   8 O    1.909 --    14 C    1.585    16 N    0.197
    16   7 N    3.475 --    14 C    1.298    17 C    1.002    48 H    0.922
                            15 O    0.197
    17   6 C    3.957 --    16 N    1.002    51 H    0.978    50 H    0.974
                            49 H    0.973
    18   6 C    3.989 --    19 C    1.461    13 C    1.387    52 H    0.963
                            11 C    0.105
    19   6 C    3.988 --    18 C    1.461    10 C    1.395    53 H    0.963
                            12 C    0.107
    20   7 N    3.122 --    21 C    1.005    36 C    1.004     9 C    0.981
    21   6 C    3.985 --    20 N    1.005    22 C    0.991    55 H    0.964
                            54 H    0.962
    22   6 C    3.957 --    21 C    0.991    23 N    0.980    57 H    0.965
                            56 H    0.960
    23   7 N    3.573 --    24 C    1.343    22 C    0.980    35 C    0.973
                            25 O    0.211
    24   6 C    3.959 --    25 O    1.574    23 N    1.343    26 C    0.940
    25   8 O    1.944 --    24 C    1.574    23 N    0.211
    26   6 C    3.970 --    27 N    1.613    31 C    1.205    24 C    0.940
    27   7 N    2.950 --    26 C    1.613    28 O    1.060    29 C    0.121
    28   8 O    2.491 --    29 C    1.219    27 N    1.060
    29   6 C    3.916 --    31 C    1.390    28 O    1.219    30 C    1.064
                            27 N    0.121
    30   6 C    3.961 --    29 C    1.064    60 H    0.960    59 H    0.949
                            58 H    0.913
    31   6 C    3.936 --    29 C    1.390    26 C    1.205    32 N    1.039
    32   7 N    3.916 --    33 O    1.418    34 O    1.417    31 C    1.039
    33   8 O    1.894 --    32 N    1.418    34 O    0.327
    34   8 O    1.891 --    32 N    1.417    33 O    0.327
    35   6 C    3.955 --    36 C    0.993    23 N    0.973    62 H    0.966
                            61 H    0.961
    36   6 C    3.985 --    20 N    1.004    35 C    0.993    63 H    0.964
                            64 H    0.963
    37   6 C    3.987 --    38 C    1.458     8 C    1.398    65 H    0.962
                             6 C    0.106
    38   6 C    3.988 --    37 C    1.458     5 C    1.390    66 H    0.967
                             7 C    0.105
    39   1 H    0.994 --     1 C    0.974
    40   1 H    0.994 --     1 C    0.978
    41   1 H    0.993 --     1 C    0.973
    42   1 H    0.954 --     2 N    0.923
    43   1 H    0.997 --     6 C    0.964
    44   1 H    0.997 --     7 C    0.967
    45   1 H    0.999 --     9 C    0.949
    46   1 H    0.997 --    11 C    0.967
    47   1 H    0.997 --    12 C    0.968
    48   1 H    0.953 --    16 N    0.922
    49   1 H    0.993 --    17 C    0.973
    50   1 H    0.994 --    17 C    0.974
    51   1 H    0.994 --    17 C    0.978
    52   1 H    0.996 --    18 C    0.963
    53   1 H    0.994 --    19 C    0.963
    54   1 H    0.999 --    21 C    0.962
    55   1 H    0.995 --    21 C    0.964
    56   1 H    0.992 --    22 C    0.960
    57   1 H    0.995 --    22 C    0.965
    58   1 H    0.979 --    30 C    0.913
    59   1 H    0.984 --    30 C    0.949
    60   1 H    0.982 --    30 C    0.960
    61   1 H    0.992 --    35 C    0.961
    62   1 H    0.993 --    35 C    0.966
    63   1 H    0.996 --    36 C    0.964
    64   1 H    1.000 --    36 C    0.963
    65   1 H    0.995 --    37 C    0.962
    66   1 H    0.997 --    38 C    0.967
 ---------------------------------------------------------------------------

Topologies differ in total number of bonds
Writing topology from bond orders to xtbtopo.mol

molecular dipole:
                 x           y           z       tot (Debye)
 q only:       -2.954       2.064      -0.444
   full:       -2.701       2.127      -0.317       8.775
molecular quadrupole (traceless):
                xx          xy          yy          xz          yz          zz
 q only:        6.268      52.084      38.096     -11.710      25.830     -44.364
  q+dip:        8.785      49.939      32.268     -13.736      33.798     -41.053
   full:       11.949      49.913      32.303     -13.271      31.319     -44.252

           -------------------------------------------------
          |                Geometry Summary                 |
           -------------------------------------------------

      molecular mass/u    :      520.5381232
   center of mass at/Å    :        0.5720995       0.1062237      -0.1517221
  moments of inertia/u·Å² :        0.4782627E+04   0.1110313E+05   0.1466854E+05
rotational constants/cm⁻¹ :        0.3524764E-02   0.1518278E-02   0.1149237E-02

 * 64 selected distances

     #   Z          #   Z                                           value/Å
     1   6 C        2   7 N                                       1.4442375
     2   7 N        3   6 C                                       1.3418647
     3   6 C        4   8 O                                       1.2323433
     5   6 C        6   6 C                                       1.3916531
     6   6 C        7   6 C                                       1.3826938
     7   6 C        8   6 C                                       1.3888581
    10   6 C       11   6 C                                       1.3884636
    11   6 C       12   6 C                                       1.3814984
    12   6 C       13   6 C                                       1.3911959
    14   6 C       15   8 O                                       1.2328745
    14   6 C       16   7 N                                       1.3416008
    16   7 N       17   6 C                                       1.4441718
    13   6 C       18   6 C                                       1.3929543
    10   6 C       19   6 C                                       1.3905239
    18   6 C       19   6 C                                       1.3812109
     9   6 C       20   7 N                                       1.4584637
    20   7 N       21   6 C                                       1.4535595
    21   6 C       22   6 C                                       1.5294449 (max)
    22   6 C       23   7 N                                       1.4444497
    23   7 N       24   6 C                                       1.3243290
    24   6 C       25   8 O                                       1.2304746
    26   6 C       27   7 N                                       1.3006223
    27   7 N       28   8 O                                       1.3672954
    28   8 O       29   6 C                                       1.3238141
    29   6 C       30   6 C                                       1.4656952
    26   6 C       31   6 C                                       1.4303038
    29   6 C       31   6 C                                       1.3920494
    31   6 C       32   7 N                                       1.3973830
    32   7 N       33   8 O                                       1.2213792
    32   7 N       34   8 O                                       1.2200160
    23   7 N       35   6 C                                       1.4481210
    20   7 N       36   6 C                                       1.4537706
    35   6 C       36   6 C                                       1.5269757
     8   6 C       37   6 C                                       1.3903680
     5   6 C       38   6 C                                       1.3924838
    37   6 C       38   6 C                                       1.3802232
     1   6 C       39   1 H                                       1.0900759
     1   6 C       40   1 H                                       1.0889513
     1   6 C       41   1 H                                       1.0900880
     2   7 N       42   1 H                                       1.0078413 (min)
     6   6 C       43   1 H                                       1.0791983
     7   6 C       44   1 H                                       1.0797538
     9   6 C       45   1 H                                       1.1065342
    11   6 C       46   1 H                                       1.0796546
    12   6 C       47   1 H                                       1.0798877
    16   7 N       48   1 H                                       1.0081474
    17   6 C       49   1 H                                       1.0898557
    17   6 C       50   1 H                                       1.0896241
    17   6 C       51   1 H                                       1.0885956
    18   6 C       52   1 H                                       1.0790598
    19   6 C       53   1 H                                       1.0775025
    21   6 C       54   1 H                                       1.1045207
    21   6 C       55   1 H                                       1.0901346
    22   6 C       56   1 H                                       1.0931648
    22   6 C       57   1 H                                       1.0885362
    30   6 C       58   1 H                                       1.0905782
    30   6 C       59   1 H                                       1.0874507
    30   6 C       60   1 H                                       1.0856873
    35   6 C       61   1 H                                       1.0920537
    35   6 C       62   1 H                                       1.0901045
    36   6 C       63   1 H                                       1.0898917
    36   6 C       64   1 H                                       1.1050989
    37   6 C       65   1 H                                       1.0774258
    38   6 C       66   1 H                                       1.0798168

 * 6 distinct bonds (by element types)

   Z      Z             #   av. dist./Å        max./Å        min./Å
   1 H    6 C          26     1.0882017     1.1065342     1.0774258
   6 C    6 C          17     1.4115645     1.5294449     1.3802232
   1 H    7 N           2     1.0079944     1.0081474     1.0078413
   6 C    7 N          12     1.4043811     1.4584637     1.3006223
   6 C    8 O           4     1.2548766     1.3238141     1.2304746
   7 N    8 O           3     1.2695635     1.3672954     1.2200160


optimized geometry written to: xtbopt.xyz


           -------------------------------------------------
          | TOTAL ENERGY             -111.856160375264 Eh   |
          | GRADIENT NORM               0.000582603987 Eh/α |
          | HOMO-LUMO GAP               0.758822573542 eV   |
           -------------------------------------------------

------------------------------------------------------------------------
 * finished run on 2026/08/28 at 18:28:10.611     
------------------------------------------------------------------------
 total:
 * wall-time:     0 d,  0 h,  0 min,  2.504 sec
 *  cpu-time:     0 d,  0 h,  0 min, 16.688 sec
 * ratio c/w:     6.665 speedup
 SCF:
 * wall-time:     0 d,  0 h,  0 min,  0.085 sec
 *  cpu-time:     0 d,  0 h,  0 min,  0.484 sec
 * ratio c/w:     5.693 speedup
 ANC optimizer:
 * wall-time:     0 d,  0 h,  0 min,  2.372 sec
 *  cpu-time:     0 d,  0 h,  0 min, 16.031 sec
 * ratio c/w:     6.760 speedup

