66
 energy: -111.856160375264 gnorm: 0.000582603987 xtb: 6.7.1 (edcfbbe)
C           -7.06780969063412        3.44176886353526       -1.37261431328160
N           -5.86694903886152        2.84579460431039       -0.83542731270099
C           -4.76158546037824        2.62891092775509       -1.56462789126120
O           -4.68320008177447        2.91752431826437       -2.76013107401573
C           -3.62685424153568        1.99393366896735       -0.83639944946377
C           -3.36803935950820        2.23250596798433        0.51000171630476
C           -2.28753150781306        1.62906659712097        1.12660978130828
C           -1.45132410232248        0.77427731086368        0.42019703885776
C           -0.31742707767848        0.06641385938360        1.12967385372876
C           -0.87913033574062       -1.27205473463658        1.55756953955297
C           -1.33330694294515       -1.45912964877807        2.85624477209263
C           -1.88274520625150       -2.66806796966834        3.23719523080803
C           -2.00359668087538       -3.71039266642702        2.32375122230416
C           -2.58996540899710       -4.99462771657292        2.80094322918344
O           -2.46501147722988       -5.36688674230987        3.96961299105288
N           -3.26680068098896       -5.70047248042498        1.88248274858452
C           -3.90730700235244       -6.96284552885668        2.16848576437361
C           -1.53935155688969       -3.52645816808191        1.02337977189564
C           -0.98622956951573       -2.31793873252119        0.64750753129453
N            0.84299427469646       -0.09387283899463        0.26085488783839
C            1.37617314082732        1.18664527053532       -0.17368898861176
C            2.47306320854104        0.95034520128697       -1.21301359190709
N            3.50723243829446        0.12643831573766       -0.63154487297158
C            4.75746717375598        0.49941177965539       -0.40427655982996
O            5.61260922209002       -0.18351681259467        0.15822499468076
C            5.18874571793028        1.84582807364513       -0.90202147372079
N            5.05674405607054        2.95706805672120       -0.23919470335810
O            5.75609285364197        3.92120673593327       -0.91064406524703
C            6.34746843879061        3.41611397665876       -1.98192356410967
C            7.16746946628540        4.27187385402428       -2.84420857782932
C            6.01752829025227        2.06529199499912       -2.04688989177346
N            6.36604542712968        1.11876713821988       -3.01400183162966
O            5.80065130896185        0.03666788043626       -2.97997769348869
O            7.20392409038711        1.42650277725059       -3.84568494441432
C            3.00353483995781       -1.13410193750558       -0.12718290984630
C            1.90319332535837       -0.85987673176458        0.89541345927527
C           -1.70606683133227        0.54220931696263       -0.92678969973640
C           -2.77362573582963        1.15618811131246       -1.54997804344178
H           -7.90267596119587        2.74428501991442       -1.30347728911194
H           -6.88149837256256        3.68066973221731       -2.41857276526370
H           -7.31233035911537        4.35520878387814       -0.83027785324790
H           -5.89103917415865        2.54336315792276        0.12566520764312
H           -3.98310175789044        2.91480251413512        1.07642777340355
H           -2.09131044592032        1.82862163471180        2.16946313197252
H           -0.05070897272055        0.64218731416704        2.03618595051932
H           -1.24977236527665       -0.66073539522383        3.57821603686881
H           -2.22495457520987       -2.82804891670808        4.24885526422182
H           -3.38504143627583       -5.32088825509555        0.95604009010436
H           -3.49135543461113       -7.74984241816192        1.53967311341982
H           -4.98133786002124       -6.89210358149896        1.99897542876001
H           -3.72109638733739       -7.20035735520197        3.21440832148890
H           -1.57646787497051       -4.33357872158066        0.30815348234955
H           -0.61526964246036       -2.18141616352747       -0.35487054166020
H            1.80132005213419        1.75577717444111        0.67206790507143
H            0.57650992579676        1.77566736943907       -0.62311637923192
H            2.05407127600251        0.41724409626906       -2.07048545797114
H            2.88767440249234        1.90107960314374       -1.54333524462269
H            8.21409408343415        4.17485894914125       -2.55347570402669
H            7.09146887420445        3.94244628461332       -3.87777049151099
H            6.86858648263082        5.30928409672387       -2.72946678576298
H            2.59863681744442       -1.70528510120590       -0.96526905189002
H            3.83287324421202       -1.67848728433747        0.32466889755599
H            1.50248052507930       -1.80794638938744        1.25382233253555
H            2.33636863116012       -0.31681476429589        1.75488198140579
H           -1.05226809955884       -0.10758477405972       -1.48460774739842
H           -2.97093087885753        0.99708249713837       -2.59962568613580
