      -----------------------------------------------------------      
     |                   =====================                   |     
     |                           x T B                           |     
     |                   =====================                   |     
     |                         S. Grimme                         |     
     |          Mulliken Center for Theoretical Chemistry        |     
     |                    University of Bonn                     |     
      -----------------------------------------------------------      

   * xtb version 6.7.1 (edcfbbe) compiled by 'VssAdministrator@runnervm171ch' on 2026-06-10

   xtb is free software: you can redistribute it and/or modify it under
   the terms of the GNU Lesser General Public License as published by
   the Free Software Foundation, either version 3 of the License, or
   (at your option) any later version.
   
   xtb is distributed in the hope that it will be useful,
   but WITHOUT ANY WARRANTY; without even the implied warranty of
   MERCHANTABILITY or FITNESS FOR A PARTICULAR PURPOSE.  See the
   GNU Lesser General Public License for more details.
   
   Cite this work as:
   * C. Bannwarth, E. Caldeweyher, S. Ehlert, A. Hansen, P. Pracht,
     J. Seibert, S. Spicher, S. Grimme, WIREs Comput. Mol. Sci., 2020, 11,
     e01493. DOI: 10.1002/wcms.1493
   
   for GFN2-xTB:
   * C. Bannwarth, S. Ehlert and S. Grimme., J. Chem. Theory Comput., 2019,
     15, 1652-1671. DOI: 10.1021/acs.jctc.8b01176
   for GFN1-xTB:
   * S. Grimme, C. Bannwarth, P. Shushkov, J. Chem. Theory Comput., 2017,
     13, 1989-2009. DOI: 10.1021/acs.jctc.7b00118
   for GFN0-xTB:
   * P. Pracht, E. Caldeweyher, S. Ehlert, S. Grimme, ChemRxiv, 2019, preprint.
     DOI: 10.26434/chemrxiv.8326202.v1
   for GFN-FF:
   * S. Spicher and S. Grimme, Angew. Chem. Int. Ed., 2020, 59, 15665-15673.
     DOI: 10.1002/anie.202004239
   
   for ALPB and GBSA implicit solvation:
   * S. Ehlert, M. Stahn, S. Spicher, S. Grimme, J. Chem. Theory Comput.,
     2021, 17, 4250-4261. DOI: 10.1021/acs.jctc.1c00471
   
   for ddCOSMO and CPCM-X implicit solvation:
   * M. Stahn, S. Ehlert, S. Grimme, J. Phys. Chem. A,
     2023, XX, XXXX-XXXX. DOI: 10.1021/acs.jpca.3c04382
   
   for DFT-D4:
   * E. Caldeweyher, C. Bannwarth and S. Grimme, J. Chem. Phys., 2017,
     147, 034112. DOI: 10.1063/1.4993215
   * E. Caldeweyher, S. Ehlert, A. Hansen, H. Neugebauer, S. Spicher,
     C. Bannwarth and S. Grimme, J. Chem. Phys., 2019, 150, 154122.
     DOI: 10.1063/1.5090222
   * E. Caldeweyher, J.-M. Mewes, S. Ehlert and S. Grimme, Phys. Chem. Chem. Phys.
     2020, 22, 8499-8512. DOI: 10.1039/D0CP00502A
   
   for sTDA-xTB:
   * S. Grimme and C. Bannwarth, J. Chem. Phys., 2016, 145, 054103.
     DOI: 10.1063/1.4959605
   
   in the mass-spec context:
   * V. Asgeirsson, C. Bauer and S. Grimme, Chem. Sci., 2017, 8, 4879.
     DOI: 10.1039/c7sc00601b
   * J. Koopman and S. Grimme, ACS Omega 2019, 4, 12, 15120-15133.
     DOI: 10.1021/acsomega.9b02011
   
   for metadynamics refer to:
   * S. Grimme, J. Chem. Theory Comput., 2019, 155, 2847-2862
     DOI: 10.1021/acs.jctc.9b00143
   
   for SPH calculations refer to:
   * S. Spicher and S. Grimme, J. Chem. Theory Comput., 2021, 17, 1701-1714
     DOI: 10.1021/acs.jctc.0c01306
   
   for ONIOM refer to:
   * C. Plett, A. Katbashev, S. Ehlert, S. Grimme, M. Bursch,
     Phys. Chem. Chem. Phys., 2023, 25, 17860-17868. DOI: 10.1039/D3CP02178E
   
   for DIPRO refer to:
   * J. Kohn, N. Gildemeister, S. Grimme, D. Fazzi, A. Hansen,
     J. Chem. Phys., 2023, just accepted.
   
   for PTB refer to:
   * S. Grimme, M. Mueller, A. Hansen, J. Chem. Phys., 2023, 158, 124111.
     DOI: 10.1063/5.0137838
   
   with help from (in alphabetical order)
   P. Atkinson, C. Bannwarth, F. Bohle, G. Brandenburg, E. Caldeweyher
   M. Checinski, S. Dohm, S. Ehlert, S. Ehrlich, I. Gerasimov, C. Hölzer
   A. Katbashev, J. Kohn, J. Koopman, C. Lavigne, S. Lehtola, F. März, M. Müller,
   F. Musil, H. Neugebauer, J. Pisarek, C. Plett, P. Pracht, F. Pultar,
   J. Seibert, P. Shushkov, S. Spicher, M. Stahn, M. Steiner, T. Strunk,
   J. Stückrath, T. Rose, and J. Unsleber
   
 * started run on 2026/08/28 at 18:28:10.695     
   ID    Z sym.   atoms
    1    6 C      1, 2, 4, 6-15, 18-21, 23, 24, 26, 28, 31-33, 37-40
    2    7 N      3, 17, 22, 25, 29, 34
    3    8 O      5, 16, 27, 30, 35, 36
    4    1 H      41-72

           -------------------------------------------------
          |                Calculation Setup                |
           -------------------------------------------------

          program call               : C:\Users\Christian\Miniconda3\Library\bin\xtb.exe S01.xyz --gfn 2 --opt --alpb water
          coordinate file            : S01.xyz
          omp threads                :                    12


           -------------------------------------------------
          |                 G F N 2 - x T B                 |
           -------------------------------------------------

        Reference                      10.1021/acs.jctc.8b01176
      * Hamiltonian:
        H0-scaling (s, p, d)           1.850000    2.230000    2.230000
        zeta-weighting                 0.500000
      * Dispersion:
        s8                             2.700000
        a1                             0.520000
        a2                             5.000000
        s9                             5.000000
      * Repulsion:
        kExp                           1.500000    1.000000
        rExp                           1.000000
      * Coulomb:
        alpha                          2.000000
        third order                    shell-resolved
        anisotropic                    true
        a3                             3.000000
        a5                             4.000000
        cn-shift                       1.200000
        cn-exp                         4.000000
        max-rad                        5.000000

      * Solvation model:               ALPB
        Solvent                        water
        Parameter file                 internal GFN2-xTB/ALPB
        Dielectric constant                8.0200E+01
        Reference state                gsolv [1 M gas/solution]
        Free energy shift                  1.0808E-03 Eh       6.7819E-01 kcal/mol
        Temperature                        2.9815E+02 K
        Density                            1.0000E+00 kg/L
        Solvent mass                       1.8000E+01 g/mol
        Interaction kernel             P16
        Born radius scaling (c1)           1.4744E+00
        Born radii integrator          GBOBC
        Born offset                        0.0000E+00 a0       0.0000E+00 AA
        H-bond correction              true
        Ion screening                  false
        Surface tension                    1.0000E-05 Eh       1.5569E+01 dyn/cm
        Grid points                               230 per atom

          ...................................................
          :                      SETUP                      :
          :.................................................:
          :  # basis functions                 192          :
          :  # atomic orbitals                 192          :
          :  # shells                          112          :
          :  # electrons                       210          :
          :  max. iterations                   250          :
          :  Hamiltonian                  GFN2-xTB          :
          :  restarted?                      false          :
          :  GBSA solvation                   true          :
          :  PC potential                    false          :
          :  electronic temp.          300.0000000     K    :
          :  accuracy                    1.0000000          :
          :  -> integral cutoff          0.2500000E+02      :
          :  -> integral neglect         0.1000000E-07      :
          :  -> SCF convergence          0.1000000E-05 Eh   :
          :  -> wf. convergence          0.1000000E-03 e    :
          :  Broyden damping             0.4000000          :
          :  net charge                          0          :
          :  unpaired electrons                  0          :
          ...................................................

 iter      E             dE          RMSdq      gap      omega  full diag
   1   -119.2850585 -0.119285E+03  0.451E+00    1.82       0.0  T
   2   -119.5612524 -0.276194E+00  0.240E+00    1.15       1.0  T
   3   -119.5696284 -0.837597E-02  0.117E+00    0.70       1.0  T
   4   -119.5764373 -0.680892E-02  0.467E-01    0.51       1.0  T
   5   -119.5846106 -0.817328E-02  0.976E-02    0.41       1.0  T
   6   -119.5847505 -0.139923E-03  0.526E-02    0.42       1.0  T
   7   -119.5847851 -0.346563E-04  0.269E-02    0.43       1.0  T
   8   -119.5847975 -0.123248E-04  0.838E-03    0.44       1.4  T
   9   -119.5847989 -0.141887E-05  0.426E-03    0.45       2.8  T
  10   -119.5847991 -0.208853E-06  0.213E-03    0.45       5.5  T
  11   -119.5847992 -0.686520E-07  0.838E-04    0.45      14.1  T
  12   -119.5847992 -0.154792E-07  0.363E-04    0.45      32.5  T

   *** convergence criteria satisfied after 12 iterations ***

         #    Occupation            Energy/Eh            Energy/eV
      -------------------------------------------------------------
         1        2.0000           -0.7946639             -21.6239
       ...           ...                  ...                  ...
        99        2.0000           -0.4065327             -11.0623
       100        2.0000           -0.4035609             -10.9814
       101        2.0000           -0.4000285             -10.8853
       102        2.0000           -0.3985649             -10.8455
       103        2.0000           -0.3948849             -10.7454
       104        2.0000           -0.3925446             -10.6817
       105        1.9996           -0.3631239              -9.8811 (HOMO)
       106        0.0004           -0.3466989              -9.4342 (LUMO)
       107                         -0.3071111              -8.3569
       108                         -0.2642853              -7.1916
       109                         -0.2555460              -6.9538
       110                         -0.2549616              -6.9379
       ...                                ...                  ...
       192                          0.6454409              17.5633
      -------------------------------------------------------------
                  HL-Gap            0.0164250 Eh            0.4469 eV
             Fermi-level           -0.3549114 Eh           -9.6576 eV

 SCC (total)                   0 d,  0 h,  0 min,  0.084 sec
 SCC setup                      ...        0 min,  0.002 sec (  2.482%)
 Dispersion                     ...        0 min,  0.002 sec (  2.816%)
 classical contributions        ...        0 min,  0.000 sec (  0.585%)
 integral evaluation            ...        0 min,  0.005 sec (  6.332%)
 iterations                     ...        0 min,  0.055 sec ( 65.305%)
 molecular gradient             ...        0 min,  0.018 sec ( 21.688%)
 printout                       ...        0 min,  0.001 sec (  0.754%)

         :::::::::::::::::::::::::::::::::::::::::::::::::::::
         ::                     SUMMARY                     ::
         :::::::::::::::::::::::::::::::::::::::::::::::::::::
         :: total energy            -118.156574816829 Eh    ::
         :: total w/o Gsasa/hb      -118.152257250398 Eh    ::
         :: gradient norm              0.130310832017 Eh/a0 ::
         :: HOMO-LUMO gap              0.446948121788 eV    ::
         ::.................................................::
         :: SCC energy              -119.584682588473 Eh    ::
         :: -> isotropic ES            0.237928022619 Eh    ::
         :: -> anisotropic ES          0.012092396742 Eh    ::
         :: -> anisotropic XC          0.050160404464 Eh    ::
         :: -> dispersion             -0.078821107229 Eh    ::
         :: -> Gsolv                  -0.052485261515 Eh    ::
         ::    -> Gelec               -0.048167695084 Eh    ::
         ::    -> Gsasa                0.003769896276 Eh    ::
         ::    -> Ghb                 -0.009168222406 Eh    ::
         ::    -> Gshift               0.001080759698 Eh    ::
         :: repulsion energy           1.428107771644 Eh    ::
         :: add. restraining           0.000000000000 Eh    ::
         :: total charge               0.000000000000 e     ::
         :::::::::::::::::::::::::::::::::::::::::::::::::::::

      ----------------------------------------------------------- 
     |                   =====================                   |
     |                        A N C O P T                        |
     |                   =====================                   |
     |               Approximate Normal Coordinate               |
     |                Rational Function Optimizer                |
      ----------------------------------------------------------- 
      ----------------------------------------------------------- 
     |                   =====================                   |
     |                        A N C O P T                        |
     |                   =====================                   |
     |               Approximate Normal Coordinate               |
     |                Rational Function Optimizer                |
      ----------------------------------------------------------- 

          ...................................................
          :                      SETUP                      :
          :.................................................:
          :   optimization level            normal          :
          :   max. optcycles                   216          :
          :   ANC micro-cycles                  20          :
          :   degrees of freedom               210          :
          :.................................................:
          :   RF solver                   davidson          :
          :   write xtbopt.log                true          :
          :   linear?                        false          :
          :   energy convergence         0.5000000E-05 Eh   :
          :   grad. convergence          0.1000000E-02 Eh/α :
          :   maxmium RF displ.          1.0000000          :
          :   Hlow (freq-cutoff)         0.1000000E-01      :
          :   Hmax (freq-cutoff)         5.0000000          :
          :   S6 in model hess.         20.0000000          :
          ...................................................

generating ANC from exact Hessian ...
Using Lindh-Hessian (1995)
 Shifting diagonal of input Hessian by    9.9485449972069612E-003
 Lowest  eigenvalues of input Hessian
    0.000000    0.000000    0.000000    0.000000    0.000000    0.000000
    0.010000    0.010024    0.010055    0.010285    0.010473    0.010534
    0.010704    0.010808    0.010919    0.011152    0.011248    0.011901
 Highest eigenvalues
    1.976125    2.177407    2.250439    2.271572    2.274443    2.523045


........................................................................
.............................. CYCLE    1 ..............................
........................................................................

 iter      E             dE          RMSdq      gap      omega  full diag
   1   -119.5847992 -0.119585E+03  0.163E-04    0.45       0.0  T
   2   -119.5847992 -0.460830E-09  0.105E-04    0.45     112.2  T
   3   -119.5847992 -0.164306E-09  0.717E-05    0.45     164.3  T
     SCC iter.                  ...        0 min,  0.014 sec
     gradient                   ...        0 min,  0.019 sec
 * total energy  :  -118.1565748 Eh     change       -0.1559201E-08 Eh
   gradient norm :     0.1303089 Eh/α   predicted     0.0000000E+00 (-100.00%)
   displ. norm   :     0.3486432 α      lambda       -0.2314479E-01
   maximum displ.:     0.1241009 α      in ANC's #17, #68, #113, ...

........................................................................
.............................. CYCLE    2 ..............................
........................................................................

 iter      E             dE          RMSdq      gap      omega  full diag
   1   -119.6520973 -0.119652E+03  0.196E-01    0.68       0.0  T
   2   -119.6526316 -0.534323E-03  0.118E-01    0.73       1.0  T
   3   -119.6526629 -0.312974E-04  0.575E-02    0.73       1.0  T
   4   -119.6526765 -0.136376E-04  0.162E-02    0.74       1.0  T
   5   -119.6526886 -0.120562E-04  0.492E-03    0.74       2.4  T
   6   -119.6526890 -0.395730E-06  0.257E-03    0.74       4.6  T
   7   -119.6526890 -0.401573E-07  0.113E-03    0.74      10.4  T
   8   -119.6526890 -0.245193E-07  0.416E-04    0.74      28.3  T
   9   -119.6526890 -0.414217E-08  0.206E-04    0.74      57.2  T
     SCC iter.                  ...        0 min,  0.044 sec
     gradient                   ...        0 min,  0.019 sec
 * total energy  :  -118.1727719 Eh     change       -0.1619708E-01 Eh
   gradient norm :     0.0570303 Eh/α   predicted    -0.1299550E-01 ( -19.77%)
   displ. norm   :     0.4057507 α      lambda       -0.8835651E-02
   maximum displ.:     0.2312623 α      in ANC's #17, #29, #24, ...

........................................................................
.............................. CYCLE    3 ..............................
........................................................................

 iter      E             dE          RMSdq      gap      omega  full diag
   1   -119.6922723 -0.119692E+03  0.148E-01    0.81       0.0  T
   2   -119.6927415 -0.469168E-03  0.882E-02    0.87       1.0  T
   3   -119.6927801 -0.386015E-04  0.469E-02    0.87       1.0  T
   4   -119.6927797  0.411428E-06  0.152E-02    0.88       1.0  T
   5   -119.6927903 -0.106044E-04  0.378E-03    0.88       3.1  T
   6   -119.6927905 -0.209463E-06  0.198E-03    0.88       5.9  T
   7   -119.6927905 -0.299295E-07  0.945E-04    0.88      12.5  T
   8   -119.6927905 -0.145286E-07  0.341E-04    0.88      34.5  T
     SCC iter.                  ...        0 min,  0.039 sec
     gradient                   ...        0 min,  0.019 sec
 * total energy  :  -118.1778232 Eh     change       -0.5051345E-02 Eh
   gradient norm :     0.0208644 Eh/α   predicted    -0.5145149E-02 (   1.86%)
   displ. norm   :     0.4138619 α      lambda       -0.3642487E-02
   maximum displ.:     0.2725466 α      in ANC's #17, #24, #15, ...

........................................................................
.............................. CYCLE    4 ..............................
........................................................................

 iter      E             dE          RMSdq      gap      omega  full diag
   1   -119.7016571 -0.119702E+03  0.989E-02    0.81       0.0  T
   2   -119.7017555 -0.984212E-04  0.571E-02    0.85       1.0  T
   3   -119.7017591 -0.362645E-05  0.260E-02    0.86       1.0  T
   4   -119.7017637 -0.453051E-05  0.746E-03    0.87       1.6  T
   5   -119.7017663 -0.266479E-05  0.257E-03    0.87       4.6  T
   6   -119.7017664 -0.699334E-07  0.123E-03    0.87       9.6  T
   7   -119.7017664 -0.142465E-07  0.549E-04    0.87      21.4  T
   8   -119.7017664 -0.636773E-08  0.197E-04    0.87      59.8  T
     SCC iter.                  ...        0 min,  0.045 sec
     gradient                   ...        0 min,  0.017 sec
 * total energy  :  -118.1799890 Eh     change       -0.2165773E-02 Eh
   gradient norm :     0.0259597 Eh/α   predicted    -0.2133189E-02 (  -1.50%)
   displ. norm   :     0.4656700 α      lambda       -0.2956514E-02
   maximum displ.:     0.3112790 α      in ANC's #17, #29, #24, ...

........................................................................
.............................. CYCLE    5 ..............................
........................................................................

 iter      E             dE          RMSdq      gap      omega  full diag
   1   -119.7016908 -0.119702E+03  0.884E-02    0.80       0.0  T
   2   -119.7017226 -0.318229E-04  0.512E-02    0.82       1.0  T
   3   -119.7017213  0.132478E-05  0.163E-02    0.84       1.0  T
   4   -119.7017277 -0.636280E-05  0.513E-03    0.84       2.3  T
   5   -119.7017286 -0.869887E-06  0.248E-03    0.84       4.8  T
   6   -119.7017286 -0.528342E-07  0.105E-03    0.84      11.2  T
   7   -119.7017286 -0.136175E-07  0.395E-04    0.84      29.9  T
   8   -119.7017286 -0.405281E-08  0.165E-04    0.84      71.5  T
     SCC iter.                  ...        0 min,  0.036 sec
     gradient                   ...        0 min,  0.020 sec
 * total energy  :  -118.1822941 Eh     change       -0.2305117E-02 Eh
   gradient norm :     0.0199929 Eh/α   predicted    -0.1798820E-02 ( -21.96%)
   displ. norm   :     0.5475316 α      lambda       -0.2474493E-02
   maximum displ.:     0.3522787 α      in ANC's #17, #24, #29, ...

........................................................................
.............................. CYCLE    6 ..............................
........................................................................

 iter      E             dE          RMSdq      gap      omega  full diag
   1   -119.7021226 -0.119702E+03  0.102E-01    0.77       0.0  T
   2   -119.7021558 -0.331699E-04  0.591E-02    0.78       1.0  T
   3   -119.7021538  0.194949E-05  0.183E-02    0.79       1.0  T
   4   -119.7021623 -0.850953E-05  0.488E-03    0.79       2.4  T
   5   -119.7021628 -0.500090E-06  0.262E-03    0.79       4.5  T
   6   -119.7021629 -0.379924E-07  0.814E-04    0.79      14.5  T
   7   -119.7021629 -0.143395E-07  0.319E-04    0.79      36.9  T
     SCC iter.                  ...        0 min,  0.039 sec
     gradient                   ...        0 min,  0.016 sec
 * total energy  :  -118.1841141 Eh     change       -0.1819939E-02 Eh
   gradient norm :     0.0181299 Eh/α   predicted    -0.1608163E-02 ( -11.64%)
   displ. norm   :     0.5086500 α      lambda       -0.1603329E-02
   maximum displ.:     0.3049854 α      in ANC's #17, #24, #16, ...

........................................................................
.............................. CYCLE    7 ..............................
........................................................................

 iter      E             dE          RMSdq      gap      omega  full diag
   1   -119.7050769 -0.119705E+03  0.869E-02    0.80       0.0  T
   2   -119.7050932 -0.163196E-04  0.507E-02    0.79       1.0  T
   3   -119.7050892  0.404433E-05  0.152E-02    0.80       1.0  T
   4   -119.7050973 -0.812129E-05  0.367E-03    0.80       3.2  T
   5   -119.7050975 -0.250005E-06  0.190E-03    0.80       6.2  T
   6   -119.7050976 -0.181846E-07  0.674E-04    0.80      17.5  T
   7   -119.7050976 -0.479173E-08  0.241E-04    0.80      48.9  T
     SCC iter.                  ...        0 min,  0.033 sec
     gradient                   ...        0 min,  0.019 sec
 * total energy  :  -118.1853866 Eh     change       -0.1272517E-02 Eh
   gradient norm :     0.0164303 Eh/α   predicted    -0.1009076E-02 ( -20.70%)
   displ. norm   :     0.5462163 α      lambda       -0.1550046E-02
   maximum displ.:     0.2774656 α      in ANC's #17, #16, #24, ...

........................................................................
.............................. CYCLE    8 ..............................
........................................................................

 iter      E             dE          RMSdq      gap      omega  full diag
   1   -119.7110046 -0.119711E+03  0.888E-02    0.80       0.0  T
   2   -119.7110223 -0.176463E-04  0.523E-02    0.79       1.0  T
   3   -119.7110166  0.566096E-05  0.165E-02    0.80       1.0  T
   4   -119.7110275 -0.109161E-04  0.375E-03    0.80       3.1  T
   5   -119.7110277 -0.167174E-06  0.199E-03    0.80       5.9  T
   6   -119.7110277 -0.311410E-07  0.737E-04    0.80      16.0  T
   7   -119.7110277 -0.669876E-08  0.268E-04    0.80      44.0  T
     SCC iter.                  ...        0 min,  0.037 sec
     gradient                   ...        0 min,  0.019 sec
 * total energy  :  -118.1866153 Eh     change       -0.1228662E-02 Eh
   gradient norm :     0.0118713 Eh/α   predicted    -0.1006253E-02 ( -18.10%)
   displ. norm   :     0.6040713 α      lambda       -0.1383555E-02
   maximum displ.:     0.2607891 α      in ANC's #17, #16, #12, ...

........................................................................
.............................. CYCLE    9 ..............................
........................................................................

 iter      E             dE          RMSdq      gap      omega  full diag
   1   -119.7128797 -0.119713E+03  0.106E-01    0.80       0.0  T
   2   -119.7129252 -0.454634E-04  0.621E-02    0.80       1.0  T
   3   -119.7129239  0.128799E-05  0.216E-02    0.80       1.0  T
   4   -119.7129320 -0.815399E-05  0.474E-03    0.80       2.5  T
   5   -119.7129327 -0.638071E-06  0.241E-03    0.80       4.9  T
   6   -119.7129327 -0.366440E-07  0.861E-04    0.80      13.7  T
   7   -119.7129327 -0.124008E-07  0.325E-04    0.80      36.3  T
     SCC iter.                  ...        0 min,  0.033 sec
     gradient                   ...        0 min,  0.021 sec
 * total energy  :  -118.1875697 Eh     change       -0.9544899E-03 Eh
   gradient norm :     0.0161210 Eh/α   predicted    -0.9442308E-03 (  -1.07%)
   displ. norm   :     0.5132660 α      lambda       -0.1241505E-02
   maximum displ.:     0.2382138 α      in ANC's #16, #4, #12, ...

........................................................................
.............................. CYCLE   10 ..............................
........................................................................

 iter      E             dE          RMSdq      gap      omega  full diag
   1   -119.7189816 -0.119719E+03  0.909E-02    0.81       0.0  T
   2   -119.7190444 -0.627927E-04  0.528E-02    0.80       1.0  T
   3   -119.7190470 -0.263554E-05  0.225E-02    0.80       1.0  T
   4   -119.7190534 -0.635114E-05  0.373E-03    0.80       3.2  T
   5   -119.7190536 -0.209059E-06  0.194E-03    0.80       6.1  T
   6   -119.7190536 -0.271242E-07  0.775E-04    0.80      15.2  T
   7   -119.7190536 -0.752752E-08  0.352E-04    0.80      33.5  T
     SCC iter.                  ...        0 min,  0.032 sec
     gradient                   ...        0 min,  0.019 sec
 * total energy  :  -118.1881949 Eh     change       -0.6251175E-03 Eh
   gradient norm :     0.0136923 Eh/α   predicted    -0.7842856E-03 (  25.46%)
   displ. norm   :     0.4416105 α      lambda       -0.6121748E-03
   maximum displ.:     0.1779411 α      in ANC's #16, #17, #12, ...

........................................................................
.............................. CYCLE   11 ..............................
........................................................................

 iter      E             dE          RMSdq      gap      omega  full diag
   1   -119.7119096 -0.119712E+03  0.818E-02    0.70       0.0  T
   2   -119.7119447 -0.350308E-04  0.479E-02    0.72       1.0  T
   3   -119.7119449 -0.181741E-06  0.163E-02    0.73       1.0  T
   4   -119.7119495 -0.465244E-05  0.453E-03    0.73       2.6  T
   5   -119.7119501 -0.545836E-06  0.225E-03    0.73       5.2  T
   6   -119.7119501 -0.613999E-07  0.113E-03    0.73      10.4  T
   7   -119.7119501 -0.136365E-07  0.370E-04    0.73      31.9  T
   8   -119.7119501 -0.343572E-08  0.157E-04    0.73      74.9  T
     SCC iter.                  ...        0 min,  0.045 sec
     gradient                   ...        0 min,  0.020 sec
 * total energy  :  -118.1884664 Eh     change       -0.2715327E-03 Eh
   gradient norm :     0.0145206 Eh/α   predicted    -0.3657878E-03 (  34.71%)
   displ. norm   :     0.2484595 α      lambda       -0.6149180E-03
   maximum displ.:     0.1071259 α      in ANC's #12, #16, #9, ...

........................................................................
.............................. CYCLE   12 ..............................
........................................................................

 iter      E             dE          RMSdq      gap      omega  full diag
   1   -119.7143423 -0.119714E+03  0.593E-02    0.84       0.0  T
   2   -119.7144127 -0.704357E-04  0.328E-02    0.83       1.0  T
   3   -119.7144172 -0.447822E-05  0.176E-02    0.82       1.0  T
   4   -119.7144180 -0.797022E-06  0.550E-03    0.82       2.1  T
   5   -119.7144185 -0.525524E-06  0.198E-03    0.82       6.0  T
   6   -119.7144186 -0.816990E-07  0.100E-03    0.82      11.7  T
   7   -119.7144186 -0.617158E-08  0.416E-04    0.82      28.3  T
   8   -119.7144186 -0.315940E-08  0.181E-04    0.82      65.1  T
     SCC iter.                  ...        0 min,  0.037 sec
     gradient                   ...        0 min,  0.020 sec
 * total energy  :  -118.1886064 Eh     change       -0.1400454E-03 Eh
   gradient norm :     0.0181067 Eh/α   predicted    -0.3264556E-03 ( 133.11%)
   displ. norm   :     0.1103974 α      lambda       -0.4340600E-03
   maximum displ.:     0.0398656 α      in ANC's #12, #9, #34, ...

........................................................................
.............................. CYCLE   13 ..............................
........................................................................

 iter      E             dE          RMSdq      gap      omega  full diag
   1   -119.7171309 -0.119717E+03  0.312E-02    0.76       0.0  T
   2   -119.7171497 -0.188511E-04  0.175E-02    0.77       1.0  T
   3   -119.7171514 -0.169562E-05  0.935E-03    0.77       1.3  T
   4   -119.7171518 -0.414295E-06  0.265E-03    0.77       4.4  T
   5   -119.7171519 -0.936235E-07  0.989E-04    0.77      11.9  T
   6   -119.7171519 -0.916442E-08  0.480E-04    0.77      24.6  T
     SCC iter.                  ...        0 min,  0.036 sec
     gradient                   ...        0 min,  0.018 sec
 * total energy  :  -118.1888752 Eh     change       -0.2687474E-03 Eh
   gradient norm :     0.0062092 Eh/α   predicted    -0.2196753E-03 ( -18.26%)
   displ. norm   :     0.2993507 α      lambda       -0.2533571E-03
   maximum displ.:     0.1202454 α      in ANC's #9, #12, #16, ...

........................................................................
.............................. CYCLE   14 ..............................
........................................................................

 iter      E             dE          RMSdq      gap      omega  full diag
   1   -119.7149295 -0.119715E+03  0.551E-02    0.75       0.0  T
   2   -119.7149594 -0.298353E-04  0.305E-02    0.75       1.0  T
   3   -119.7149609 -0.151390E-05  0.138E-02    0.75       1.0  T
   4   -119.7149617 -0.813829E-06  0.218E-03    0.75       5.4  T
   5   -119.7149618 -0.103663E-06  0.116E-03    0.75      10.2  T
   6   -119.7149618 -0.113583E-07  0.437E-04    0.75      27.0  T
   7   -119.7149618 -0.295836E-08  0.214E-04    0.75      55.0  T
     SCC iter.                  ...        0 min,  0.035 sec
     gradient                   ...        0 min,  0.022 sec
 * total energy  :  -118.1890080 Eh     change       -0.1327754E-03 Eh
   gradient norm :     0.0084491 Eh/α   predicted    -0.1380307E-03 (   3.96%)
   displ. norm   :     0.2466858 α      lambda       -0.1893145E-03
   maximum displ.:     0.1102284 α      in ANC's #12, #9, #7, ...

........................................................................
.............................. CYCLE   15 ..............................
........................................................................

 iter      E             dE          RMSdq      gap      omega  full diag
   1   -119.7161370 -0.119716E+03  0.400E-02    0.74       0.0  T
   2   -119.7161431 -0.602795E-05  0.233E-02    0.74       1.0  T
   3   -119.7161432 -0.165680E-06  0.651E-03    0.74       1.8  T
   4   -119.7161436 -0.366580E-06  0.125E-03    0.74       9.4  T
   5   -119.7161436 -0.288714E-07  0.746E-04    0.74      15.8  T
   6   -119.7161436 -0.760818E-08  0.240E-04    0.74      49.2  T
     SCC iter.                  ...        0 min,  0.031 sec
     gradient                   ...        0 min,  0.020 sec
 * total energy  :  -118.1891375 Eh     change       -0.1295434E-03 Eh
   gradient norm :     0.0067649 Eh/α   predicted    -0.1004187E-03 ( -22.48%)
   displ. norm   :     0.2773670 α      lambda       -0.1805157E-03
   maximum displ.:     0.1229702 α      in ANC's #12, #9, #7, ...

........................................................................
.............................. CYCLE   16 ..............................
........................................................................

 iter      E             dE          RMSdq      gap      omega  full diag
   1   -119.7178638 -0.119718E+03  0.433E-02    0.77       0.0  T
   2   -119.7178692 -0.539863E-05  0.252E-02    0.76       1.0  T
   3   -119.7178692  0.501735E-07  0.626E-03    0.76       1.9  T
   4   -119.7178697 -0.580687E-06  0.161E-03    0.76       7.3  T
   5   -119.7178698 -0.843532E-07  0.783E-04    0.76      15.1  T
   6   -119.7178698 -0.586628E-08  0.347E-04    0.76      33.9  T
     SCC iter.                  ...        0 min,  0.032 sec
     gradient                   ...        0 min,  0.021 sec
 * total energy  :  -118.1892545 Eh     change       -0.1169658E-03 Eh
   gradient norm :     0.0045682 Eh/α   predicted    -0.9720957E-04 ( -16.89%)
   displ. norm   :     0.2343135 α      lambda       -0.1025508E-03
   maximum displ.:     0.1027733 α      in ANC's #12, #9, #8, ...

........................................................................
.............................. CYCLE   17 ..............................
........................................................................

 iter      E             dE          RMSdq      gap      omega  full diag
   1   -119.7177508 -0.119718E+03  0.366E-02    0.77       0.0  T
   2   -119.7177553 -0.449384E-05  0.211E-02    0.77       1.0  T
   3   -119.7177552  0.407574E-07  0.608E-03    0.77       1.9  T
   4   -119.7177556 -0.349070E-06  0.135E-03    0.77       8.7  T
   5   -119.7177557 -0.762304E-07  0.601E-04    0.77      19.6  T
   6   -119.7177557 -0.183930E-08  0.205E-04    0.77      57.5  T
     SCC iter.                  ...        0 min,  0.029 sec
     gradient                   ...        0 min,  0.019 sec
 * total energy  :  -118.1893236 Eh     change       -0.6917167E-04 Eh
   gradient norm :     0.0039884 Eh/α   predicted    -0.5409523E-04 ( -21.80%)
   displ. norm   :     0.2573810 α      lambda       -0.9914996E-04
   maximum displ.:     0.1074375 α      in ANC's #12, #8, #11, ...

........................................................................
.............................. CYCLE   18 ..............................
........................................................................

 iter      E             dE          RMSdq      gap      omega  full diag
   1   -119.7172578 -0.119717E+03  0.395E-02    0.77       0.0  T
   2   -119.7172602 -0.237209E-05  0.232E-02    0.77       1.0  T
   3   -119.7172597  0.477852E-06  0.515E-03    0.77       2.3  T
   4   -119.7172606 -0.888593E-06  0.134E-03    0.77       8.8  T
   5   -119.7172607 -0.538743E-07  0.651E-04    0.77      18.1  T
   6   -119.7172607 -0.155853E-08  0.222E-04    0.77      53.1  T
     SCC iter.                  ...        0 min,  0.029 sec
     gradient                   ...        0 min,  0.022 sec
 * total energy  :  -118.1893920 Eh     change       -0.6832076E-04 Eh
   gradient norm :     0.0044275 Eh/α   predicted    -0.5285941E-04 ( -22.63%)
   displ. norm   :     0.2579968 α      lambda       -0.1174966E-03
   maximum displ.:     0.1124362 α      in ANC's #8, #11, #15, ...

........................................................................
.............................. CYCLE   19 ..............................
........................................................................

 iter      E             dE          RMSdq      gap      omega  full diag
   1   -119.7195477 -0.119720E+03  0.428E-02    0.78       0.0  T
   2   -119.7195499 -0.221674E-05  0.250E-02    0.78       1.0  T
   3   -119.7195496  0.302653E-06  0.428E-03    0.78       2.8  T
   4   -119.7195503 -0.644745E-06  0.113E-03    0.78      10.4  T
   5   -119.7195503 -0.332206E-07  0.577E-04    0.78      20.4  T
   6   -119.7195503 -0.293768E-08  0.227E-04    0.78      51.9  T
     SCC iter.                  ...        0 min,  0.026 sec
     gradient                   ...        0 min,  0.019 sec
 * total energy  :  -118.1894633 Eh     change       -0.7130014E-04 Eh
   gradient norm :     0.0047770 Eh/α   predicted    -0.6265971E-04 ( -12.12%)
   displ. norm   :     0.2149609 α      lambda       -0.8473251E-04
   maximum displ.:     0.0938674 α      in ANC's #8, #11, #12, ...

........................................................................
.............................. CYCLE   20 ..............................
........................................................................

 iter      E             dE          RMSdq      gap      omega  full diag
   1   -119.7175923 -0.119718E+03  0.344E-02    0.77       0.0  T
   2   -119.7175932 -0.917404E-06  0.202E-02    0.77       1.0  T
   3   -119.7175931  0.976956E-07  0.264E-03    0.77       4.5  T
   4   -119.7175934 -0.298836E-06  0.979E-04    0.77      12.0  T
   5   -119.7175934 -0.225553E-07  0.445E-04    0.77      26.5  T
     SCC iter.                  ...        0 min,  0.027 sec
     gradient                   ...        0 min,  0.023 sec
 * total energy  :  -118.1895211 Eh     change       -0.5787750E-04 Eh
   gradient norm :     0.0033179 Eh/α   predicted    -0.4432789E-04 ( -23.41%)
   displ. norm   :     0.1682873 α      lambda       -0.7469243E-04
   maximum displ.:     0.0666586 α      in ANC's #8, #2, #11, ...
 * RMSD in coord.:     0.6343735 α      energy gain  -0.3294632E-01 Eh

generating ANC from exact Hessian ...
Using Lindh-Hessian (1995)
 Shifting diagonal of input Hessian by    9.9412448167331691E-003
 Lowest  eigenvalues of input Hessian
    0.000000    0.000000    0.000000    0.000000    0.000000    0.000000
    0.010000    0.010031    0.010055    0.010291    0.010438    0.010567
    0.010780    0.010851    0.010998    0.011375    0.011435    0.012071
 Highest eigenvalues
    2.077633    2.308978    2.317367    2.320656    2.350098    2.638601


........................................................................
.............................. CYCLE   21 ..............................
........................................................................

 iter      E             dE          RMSdq      gap      omega  full diag
   1   -119.7182229 -0.119718E+03  0.284E-02    0.76       0.0  T
   2   -119.7182239 -0.101709E-05  0.166E-02    0.77       1.0  T
   3   -119.7182238  0.994119E-07  0.257E-03    0.77       4.6  T
   4   -119.7182241 -0.264009E-06  0.821E-04    0.77      14.4  T
   5   -119.7182241 -0.179483E-07  0.398E-04    0.77      29.6  T
     SCC iter.                  ...        0 min,  0.024 sec
     gradient                   ...        0 min,  0.018 sec
 * total energy  :  -118.1895734 Eh     change       -0.5228962E-04 Eh
   gradient norm :     0.0035292 Eh/α   predicted     0.0000000E+00 (-100.00%)
   displ. norm   :     0.0395563 α      lambda       -0.3910583E-04
   maximum displ.:     0.0190361 α      in ANC's #9, #14, #6, ...

........................................................................
.............................. CYCLE   22 ..............................
........................................................................

 iter      E             dE          RMSdq      gap      omega  full diag
   1   -119.7185047 -0.119719E+03  0.897E-03    0.77       0.0  T
   2   -119.7185050 -0.350402E-06  0.527E-03    0.77       2.2  T
   3   -119.7185050  0.104277E-07  0.160E-03    0.77       7.4  T
   4   -119.7185051 -0.429432E-07  0.418E-04    0.77      28.2  T
   5   -119.7185051 -0.634893E-08  0.186E-04    0.77      63.3  T
     SCC iter.                  ...        0 min,  0.029 sec
     gradient                   ...        0 min,  0.019 sec
 * total energy  :  -118.1896072 Eh     change       -0.3374099E-04 Eh
   gradient norm :     0.0015324 Eh/α   predicted    -0.2056902E-04 ( -39.04%)
   displ. norm   :     0.1830578 α      lambda       -0.7445924E-04
   maximum displ.:     0.0937822 α      in ANC's #9, #14, #6, ...

........................................................................
.............................. CYCLE   23 ..............................
........................................................................

 iter      E             dE          RMSdq      gap      omega  full diag
   1   -119.7187367 -0.119719E+03  0.358E-02    0.78       0.0  T
   2   -119.7187388 -0.212747E-05  0.210E-02    0.77       1.0  T
   3   -119.7187385  0.299436E-06  0.432E-03    0.77       2.7  T
   4   -119.7187392 -0.661811E-06  0.131E-03    0.77       9.0  T
   5   -119.7187392 -0.474078E-07  0.665E-04    0.77      17.7  T
   6   -119.7187392 -0.269006E-08  0.270E-04    0.77      43.6  T
     SCC iter.                  ...        0 min,  0.028 sec
     gradient                   ...        0 min,  0.022 sec
 * total energy  :  -118.1896599 Eh     change       -0.5268867E-04 Eh
   gradient norm :     0.0040522 Eh/α   predicted    -0.3778436E-04 ( -28.29%)
   displ. norm   :     0.0463393 α      lambda       -0.2329512E-04
   maximum displ.:     0.0246132 α      in ANC's #9, #6, #14, ...

........................................................................
.............................. CYCLE   24 ..............................
........................................................................

 iter      E             dE          RMSdq      gap      omega  full diag
   1   -119.7186106 -0.119719E+03  0.751E-03    0.77       0.0  T
   2   -119.7186107 -0.133120E-06  0.439E-03    0.77       2.7  T
   3   -119.7186107  0.496797E-08  0.932E-04    0.77      12.6  T
   4   -119.7186107 -0.217145E-07  0.282E-04    0.77      41.7  T
     SCC iter.                  ...        0 min,  0.021 sec
     gradient                   ...        0 min,  0.017 sec
 * total energy  :  -118.1896806 Eh     change       -0.2074924E-04 Eh
   gradient norm :     0.0029103 Eh/α   predicted    -0.1167271E-04 ( -43.74%)
   displ. norm   :     0.2086610 α      lambda       -0.9160321E-04
   maximum displ.:     0.1062570 α      in ANC's #9, #6, #14, ...

........................................................................
.............................. CYCLE   25 ..............................
........................................................................

 iter      E             dE          RMSdq      gap      omega  full diag
   1   -119.7177899 -0.119718E+03  0.322E-02    0.75       0.0  T
   2   -119.7177924 -0.254086E-05  0.189E-02    0.76       1.0  T
   3   -119.7177923  0.826562E-07  0.414E-03    0.76       2.8  T
   4   -119.7177927 -0.406459E-06  0.125E-03    0.76       9.4  T
   5   -119.7177928 -0.471670E-07  0.624E-04    0.76      18.9  T
   6   -119.7177928 -0.328144E-08  0.239E-04    0.76      49.4  T
     SCC iter.                  ...        0 min,  0.027 sec
     gradient                   ...        0 min,  0.019 sec
 * total energy  :  -118.1897346 Eh     change       -0.5401365E-04 Eh
   gradient norm :     0.0032035 Eh/α   predicted    -0.4779609E-04 ( -11.51%)
   displ. norm   :     0.1710795 α      lambda       -0.4660893E-04
   maximum displ.:     0.0874188 α      in ANC's #9, #6, #2, ...

........................................................................
.............................. CYCLE   26 ..............................
........................................................................

 iter      E             dE          RMSdq      gap      omega  full diag
   1   -119.7172693 -0.119717E+03  0.261E-02    0.75       0.0  T
   2   -119.7172696 -0.329132E-06  0.152E-02    0.76       1.0  T
   3   -119.7172696 -0.127664E-07  0.162E-03    0.76       7.3  T
   4   -119.7172697 -0.111586E-06  0.691E-04    0.76      17.1  T
   5   -119.7172697 -0.489021E-08  0.298E-04    0.76      39.6  T
     SCC iter.                  ...        0 min,  0.030 sec
     gradient                   ...        0 min,  0.020 sec
 * total energy  :  -118.1897679 Eh     change       -0.3327614E-04 Eh
   gradient norm :     0.0038719 Eh/α   predicted    -0.2399415E-04 ( -27.89%)
   displ. norm   :     0.2024305 α      lambda       -0.4882169E-04
   maximum displ.:     0.1022779 α      in ANC's #9, #6, #2, ...

........................................................................
.............................. CYCLE   27 ..............................
........................................................................

 iter      E             dE          RMSdq      gap      omega  full diag
   1   -119.7171156 -0.119717E+03  0.300E-02    0.76       0.0  T
   2   -119.7171159 -0.374382E-06  0.175E-02    0.76       1.0  T
   3   -119.7171160 -0.573282E-07  0.161E-03    0.76       7.3  T
   4   -119.7171161 -0.945522E-07  0.761E-04    0.76      15.5  T
   5   -119.7171161 -0.492443E-08  0.300E-04    0.76      39.2  T
     SCC iter.                  ...        0 min,  0.024 sec
     gradient                   ...        0 min,  0.019 sec
 * total energy  :  -118.1898107 Eh     change       -0.4281550E-04 Eh
   gradient norm :     0.0035367 Eh/α   predicted    -0.2541190E-04 ( -40.65%)
   displ. norm   :     0.3906557 α      lambda       -0.1033171E-03
   maximum displ.:     0.1947889 α      in ANC's #9, #6, #2, ...

........................................................................
.............................. CYCLE   28 ..............................
........................................................................

 iter      E             dE          RMSdq      gap      omega  full diag
   1   -119.7168756 -0.119717E+03  0.574E-02    0.76       0.0  T
   2   -119.7168775 -0.182245E-05  0.336E-02    0.76       1.0  T
   3   -119.7168777 -0.264545E-06  0.311E-03    0.76       3.8  T
   4   -119.7168780 -0.291369E-06  0.148E-03    0.76       7.9  T
   5   -119.7168780 -0.260256E-07  0.739E-04    0.76      16.0  T
   6   -119.7168780 -0.731551E-08  0.211E-04    0.76      55.9  T
     SCC iter.                  ...        0 min,  0.037 sec
     gradient                   ...        0 min,  0.020 sec
 * total energy  :  -118.1898918 Eh     change       -0.8106155E-04 Eh
   gradient norm :     0.0026710 Eh/α   predicted    -0.5954454E-04 ( -26.54%)
   displ. norm   :     0.4097321 α      lambda       -0.9235281E-04
   maximum displ.:     0.1999304 α      in ANC's #9, #6, #2, ...

........................................................................
.............................. CYCLE   29 ..............................
........................................................................

 iter      E             dE          RMSdq      gap      omega  full diag
   1   -119.7166833 -0.119717E+03  0.594E-02    0.77       0.0  T
   2   -119.7166853 -0.200306E-05  0.347E-02    0.77       1.0  T
   3   -119.7166857 -0.371709E-06  0.314E-03    0.77       3.8  T
   4   -119.7166859 -0.253497E-06  0.157E-03    0.77       7.5  T
   5   -119.7166860 -0.255098E-07  0.786E-04    0.77      15.0  T
   6   -119.7166860 -0.977583E-08  0.199E-04    0.77      59.2  T
     SCC iter.                  ...        0 min,  0.027 sec
     gradient                   ...        0 min,  0.020 sec
 * total energy  :  -118.1899624 Eh     change       -0.7065052E-04 Eh
   gradient norm :     0.0034555 Eh/α   predicted    -0.5393736E-04 ( -23.66%)
   displ. norm   :     0.3760766 α      lambda       -0.9299305E-04
   maximum displ.:     0.1744418 α      in ANC's #6, #9, #2, ...

........................................................................
.............................. CYCLE   30 ..............................
........................................................................

 iter      E             dE          RMSdq      gap      omega  full diag
   1   -119.7178747 -0.119718E+03  0.540E-02    0.77       0.0  T
   2   -119.7178765 -0.183112E-05  0.315E-02    0.77       1.0  T
   3   -119.7178769 -0.412363E-06  0.283E-03    0.77       4.2  T
   4   -119.7178771 -0.158531E-06  0.147E-03    0.77       8.0  T
   5   -119.7178771 -0.152547E-07  0.733E-04    0.77      16.1  T
   6   -119.7178771 -0.105868E-07  0.170E-04    0.77      69.3  T
     SCC iter.                  ...        0 min,  0.037 sec
     gradient                   ...        0 min,  0.020 sec
 * total energy  :  -118.1900339 Eh     change       -0.7145295E-04 Eh
   gradient norm :     0.0037021 Eh/α   predicted    -0.5307290E-04 ( -25.72%)
   displ. norm   :     0.5536590 α      lambda       -0.1036758E-03
   maximum displ.:     0.2579608 α      in ANC's #9, #6, #2, ...

........................................................................
.............................. CYCLE   31 ..............................
........................................................................

 iter      E             dE          RMSdq      gap      omega  full diag
   1   -119.7152301 -0.119715E+03  0.797E-02    0.76       0.0  T
   2   -119.7152333 -0.325575E-05  0.466E-02    0.76       1.0  T
   3   -119.7152344 -0.105569E-05  0.368E-03    0.76       3.2  T
   4   -119.7152345 -0.182839E-06  0.209E-03    0.76       5.6  T
   5   -119.7152346 -0.473365E-07  0.808E-04    0.76      14.6  T
   6   -119.7152346 -0.107802E-07  0.243E-04    0.76      48.5  T
     SCC iter.                  ...        0 min,  0.028 sec
     gradient                   ...        0 min,  0.020 sec
 * total energy  :  -118.1900945 Eh     change       -0.6059942E-04 Eh
   gradient norm :     0.0051264 Eh/α   predicted    -0.6772928E-04 (  11.77%)
   displ. norm   :     0.3073589 α      lambda       -0.1640047E-03
   maximum displ.:     0.1145357 α      in ANC's #6, #2, #9, ...

........................................................................
.............................. CYCLE   32 ..............................
........................................................................

 iter      E             dE          RMSdq      gap      omega  full diag
   1   -119.7198191 -0.119720E+03  0.459E-02    0.76       0.0  T
   2   -119.7198213 -0.212456E-05  0.266E-02    0.76       1.0  T
   3   -119.7198216 -0.298213E-06  0.316E-03    0.76       3.7  T
   4   -119.7198218 -0.242221E-06  0.140E-03    0.76       8.4  T
   5   -119.7198218 -0.129086E-07  0.679E-04    0.76      17.4  T
   6   -119.7198218 -0.674952E-08  0.201E-04    0.76      58.7  T
     SCC iter.                  ...        0 min,  0.028 sec
     gradient                   ...        0 min,  0.019 sec
 * total energy  :  -118.1901752 Eh     change       -0.8069697E-04 Eh
   gradient norm :     0.0035683 Eh/α   predicted    -0.8975854E-04 (  11.23%)
   displ. norm   :     0.4046074 α      lambda       -0.6719743E-04
   maximum displ.:     0.1808356 α      in ANC's #9, #6, #2, ...

........................................................................
.............................. CYCLE   33 ..............................
........................................................................

 iter      E             dE          RMSdq      gap      omega  full diag
   1   -119.7168566 -0.119717E+03  0.581E-02    0.76       0.0  T
   2   -119.7168585 -0.185021E-05  0.339E-02    0.76       1.0  T
   3   -119.7168590 -0.510971E-06  0.282E-03    0.76       4.2  T
   4   -119.7168591 -0.154322E-06  0.152E-03    0.76       7.7  T
   5   -119.7168591 -0.177894E-07  0.618E-04    0.76      19.1  T
   6   -119.7168591 -0.808188E-08  0.186E-04    0.76      63.5  T
     SCC iter.                  ...        0 min,  0.029 sec
     gradient                   ...        0 min,  0.020 sec
 * total energy  :  -118.1902159 Eh     change       -0.4075673E-04 Eh
   gradient norm :     0.0037240 Eh/α   predicted    -0.3910069E-04 (  -4.06%)
   displ. norm   :     0.1491752 α      lambda       -0.5374564E-04
   maximum displ.:     0.0555708 α      in ANC's #9, #2, #6, ...

........................................................................
.............................. CYCLE   34 ..............................
........................................................................

 iter      E             dE          RMSdq      gap      omega  full diag
   1   -119.7175776 -0.119718E+03  0.222E-02    0.77       0.0  T
   2   -119.7175782 -0.544391E-06  0.129E-02    0.77       1.0  T
   3   -119.7175782  0.407707E-08  0.182E-03    0.77       6.5  T
   4   -119.7175783 -0.118536E-06  0.715E-04    0.77      16.5  T
   5   -119.7175783 -0.122988E-07  0.335E-04    0.77      35.2  T
     SCC iter.                  ...        0 min,  0.029 sec
     gradient                   ...        0 min,  0.020 sec
 * total energy  :  -118.1902562 Eh     change       -0.4022708E-04 Eh
   gradient norm :     0.0028481 Eh/α   predicted    -0.2747199E-04 ( -31.71%)
   displ. norm   :     0.3089612 α      lambda       -0.6756040E-04
   maximum displ.:     0.1150518 α      in ANC's #2, #9, #6, ...

........................................................................
.............................. CYCLE   35 ..............................
........................................................................

 iter      E             dE          RMSdq      gap      omega  full diag
   1   -119.7180627 -0.119718E+03  0.442E-02    0.76       0.0  T
   2   -119.7180642 -0.156435E-05  0.256E-02    0.76       1.0  T
   3   -119.7180646 -0.347521E-06  0.251E-03    0.76       4.7  T
   4   -119.7180647 -0.122197E-06  0.126E-03    0.76       9.4  T
   5   -119.7180647 -0.121793E-07  0.569E-04    0.76      20.7  T
   6   -119.7180647 -0.696068E-08  0.142E-04    0.76      83.1  T
     SCC iter.                  ...        0 min,  0.031 sec
     gradient                   ...        0 min,  0.022 sec
 * total energy  :  -118.1903069 Eh     change       -0.5071286E-04 Eh
   gradient norm :     0.0033282 Eh/α   predicted    -0.3700572E-04 ( -27.03%)
   displ. norm   :     0.3084403 α      lambda       -0.6242251E-04
   maximum displ.:     0.1108075 α      in ANC's #2, #4, #9, ...

........................................................................
.............................. CYCLE   36 ..............................
........................................................................

 iter      E             dE          RMSdq      gap      omega  full diag
   1   -119.7188154 -0.119719E+03  0.441E-02    0.76       0.0  T
   2   -119.7188168 -0.134918E-05  0.256E-02    0.76       1.0  T
   3   -119.7188171 -0.362911E-06  0.252E-03    0.76       4.7  T
   4   -119.7188172 -0.131872E-06  0.134E-03    0.76       8.8  T
   5   -119.7188173 -0.199750E-07  0.439E-04    0.76      26.9  T
   6   -119.7188173 -0.317540E-08  0.130E-04    0.76      91.0  T
     SCC iter.                  ...        0 min,  0.029 sec
     gradient                   ...        0 min,  0.020 sec
 * total energy  :  -118.1903513 Eh     change       -0.4443556E-04 Eh
   gradient norm :     0.0033453 Eh/α   predicted    -0.3418698E-04 ( -23.06%)
   displ. norm   :     0.3214938 α      lambda       -0.4270663E-04
   maximum displ.:     0.1187598 α      in ANC's #2, #9, #6, ...

........................................................................
.............................. CYCLE   37 ..............................
........................................................................

 iter      E             dE          RMSdq      gap      omega  full diag
   1   -119.7177252 -0.119718E+03  0.449E-02    0.76       0.0  T
   2   -119.7177267 -0.143103E-05  0.261E-02    0.76       1.0  T
   3   -119.7177271 -0.410953E-06  0.251E-03    0.76       4.7  T
   4   -119.7177272 -0.108157E-06  0.136E-03    0.76       8.6  T
   5   -119.7177272 -0.196641E-07  0.484E-04    0.76      24.4  T
   6   -119.7177272 -0.379785E-08  0.147E-04    0.76      80.4  T
     SCC iter.                  ...        0 min,  0.030 sec
     gradient                   ...        0 min,  0.021 sec
 * total energy  :  -118.1903790 Eh     change       -0.2766466E-04 Eh
   gradient norm :     0.0032069 Eh/α   predicted    -0.2356495E-04 ( -14.82%)
   displ. norm   :     0.1907909 α      lambda       -0.7610331E-04
   maximum displ.:     0.0777953 α      in ANC's #4, #11, #8, ...

........................................................................
.............................. CYCLE   38 ..............................
........................................................................

 iter      E             dE          RMSdq      gap      omega  full diag
   1   -119.7227101 -0.119723E+03  0.349E-02    0.77       0.0  T
   2   -119.7227124 -0.228328E-05  0.202E-02    0.77       1.0  T
   3   -119.7227117  0.733190E-06  0.581E-03    0.77       2.0  T
   4   -119.7227131 -0.136309E-05  0.145E-03    0.77       8.1  T
   5   -119.7227131 -0.281133E-07  0.693E-04    0.77      17.0  T
   6   -119.7227131 -0.161067E-08  0.215E-04    0.77      54.8  T
     SCC iter.                  ...        0 min,  0.026 sec
     gradient                   ...        0 min,  0.019 sec
 * total energy  :  -118.1903605 Eh     change        0.1846314E-04 Eh
   gradient norm :     0.0056076 Eh/α   predicted    -0.3943823E-04 (-313.61%)
   displ. norm   :     0.1336363 α      lambda       -0.9119629E-04
   maximum displ.:     0.0637342 α      in ANC's #6, #9, #2, ...

........................................................................
.............................. CYCLE   39 ..............................
........................................................................

 iter      E             dE          RMSdq      gap      omega  full diag
   1   -119.7187830 -0.119719E+03  0.231E-02    0.76       0.0  T
   2   -119.7187840 -0.100231E-05  0.134E-02    0.76       1.0  T
   3   -119.7187838  0.250270E-06  0.334E-03    0.76       3.5  T
   4   -119.7187842 -0.443669E-06  0.862E-04    0.76      13.7  T
   5   -119.7187842 -0.162967E-07  0.413E-04    0.76      28.5  T
     SCC iter.                  ...        0 min,  0.025 sec
     gradient                   ...        0 min,  0.020 sec
 * total energy  :  -118.1904101 Eh     change       -0.4958357E-04 Eh
   gradient norm :     0.0019579 Eh/α   predicted    -0.4641641E-04 (  -6.39%)
   displ. norm   :     0.0426288 α      lambda       -0.1162554E-04
   maximum displ.:     0.0214851 α      in ANC's #11, #14, #17, ...

........................................................................
.............................. CYCLE   40 ..............................
........................................................................

 iter      E             dE          RMSdq      gap      omega  full diag
   1   -119.7187949 -0.119719E+03  0.812E-03    0.76       0.0  T
   2   -119.7187950 -0.144206E-06  0.467E-03    0.76       2.5  T
   3   -119.7187950 -0.343066E-08  0.915E-04    0.76      12.9  T
   4   -119.7187951 -0.148660E-07  0.315E-04    0.76      37.4  T
     SCC iter.                  ...        0 min,  0.021 sec
     gradient                   ...        0 min,  0.019 sec
 * total energy  :  -118.1904201 Eh     change       -0.9997661E-05 Eh
   gradient norm :     0.0016090 Eh/α   predicted    -0.5819688E-05 ( -41.79%)
   displ. norm   :     0.1596215 α      lambda       -0.1710874E-04
   maximum displ.:     0.0726304 α      in ANC's #4, #2, #1, ...

........................................................................
.............................. CYCLE   41 ..............................
........................................................................

 iter      E             dE          RMSdq      gap      omega  full diag
   1   -119.7185627 -0.119719E+03  0.224E-02    0.76       0.0  T
   2   -119.7185633 -0.639784E-06  0.130E-02    0.76       1.0  T
   3   -119.7185635 -0.140955E-06  0.162E-03    0.76       7.3  T
   4   -119.7185635 -0.538956E-07  0.844E-04    0.76      14.0  T
   5   -119.7185635 -0.705825E-08  0.401E-04    0.76      29.4  T
     SCC iter.                  ...        0 min,  0.024 sec
     gradient                   ...        0 min,  0.019 sec
 * total energy  :  -118.1904347 Eh     change       -0.1463224E-04 Eh
   gradient norm :     0.0020895 Eh/α   predicted    -0.8652349E-05 ( -40.87%)
   displ. norm   :     0.0951734 α      lambda       -0.1307324E-04
   maximum displ.:     0.0471472 α      in ANC's #4, #5, #1, ...

........................................................................
.............................. CYCLE   42 ..............................
........................................................................

 iter      E             dE          RMSdq      gap      omega  full diag
   1   -119.7191385 -0.119719E+03  0.136E-02    0.76       0.0  T
   2   -119.7191387 -0.233428E-06  0.786E-03    0.76       1.5  T
   3   -119.7191388 -0.386269E-07  0.118E-03    0.76      10.0  T
   4   -119.7191388 -0.406751E-07  0.570E-04    0.76      20.7  T
   5   -119.7191388 -0.381532E-08  0.253E-04    0.76      46.6  T
     SCC iter.                  ...        0 min,  0.027 sec
     gradient                   ...        0 min,  0.018 sec
 * total energy  :  -118.1904449 Eh     change       -0.1013292E-04 Eh
   gradient norm :     0.0016744 Eh/α   predicted    -0.6597527E-05 ( -34.89%)
   displ. norm   :     0.3075718 α      lambda       -0.2098382E-04
   maximum displ.:     0.1494400 α      in ANC's #4, #1, #5, ...
 * RMSD in coord.:     0.5677428 α      energy gain  -0.9237154E-03 Eh

generating ANC from exact Hessian ...
Using Lindh-Hessian (1995)
 Shifting diagonal of input Hessian by    9.9407471075030306E-003
 Lowest  eigenvalues of input Hessian
    0.000000    0.000000    0.000000    0.000000    0.000000    0.000000
    0.010000    0.010031    0.010053    0.010288    0.010417    0.010561
    0.010812    0.010830    0.010980    0.011398    0.011514    0.012075
 Highest eigenvalues
    2.077654    2.315027    2.319499    2.320423    2.350299    2.641225


........................................................................
.............................. CYCLE   43 ..............................
........................................................................

 iter      E             dE          RMSdq      gap      omega  full diag
   1   -119.7198607 -0.119720E+03  0.431E-02    0.75       0.0  T
   2   -119.7198626 -0.186320E-05  0.250E-02    0.76       1.0  T
   3   -119.7198629 -0.368916E-06  0.346E-03    0.76       3.4  T
   4   -119.7198633 -0.388587E-06  0.171E-03    0.76       6.9  T
   5   -119.7198633 -0.232704E-07  0.545E-04    0.76      21.6  T
   6   -119.7198633 -0.459771E-08  0.177E-04    0.76      66.6  T
     SCC iter.                  ...        0 min,  0.033 sec
     gradient                   ...        0 min,  0.018 sec
 * total energy  :  -118.1904614 Eh     change       -0.1654945E-04 Eh
   gradient norm :     0.0016193 Eh/α   predicted     0.0000000E+00 (-100.00%)
   displ. norm   :     0.0220060 α      lambda       -0.2589620E-05
   maximum displ.:     0.0128278 α      in ANC's #17, #4, #27, ...

........................................................................
.............................. CYCLE   44 ..............................
........................................................................

 iter      E             dE          RMSdq      gap      omega  full diag
   1   -119.7197733 -0.119720E+03  0.551E-03    0.76       0.0  T
   2   -119.7197734 -0.786558E-07  0.319E-03    0.76       3.7  T
   3   -119.7197734  0.105937E-07  0.816E-04    0.76      14.4  T
   4   -119.7197734 -0.220439E-07  0.212E-04    0.76      55.5  T
     SCC iter.                  ...        0 min,  0.021 sec
     gradient                   ...        0 min,  0.020 sec
 * total energy  :  -118.1904689 Eh     change       -0.7506480E-05 Eh
   gradient norm :     0.0006210 Eh/α   predicted    -0.3980925E-05 ( -46.97%)
   displ. norm   :     0.0370874 α      lambda       -0.6205929E-05
   maximum displ.:     0.0193137 α      in ANC's #17, #4, #10, ...

........................................................................
.............................. CYCLE   45 ..............................
........................................................................

 iter      E             dE          RMSdq      gap      omega  full diag
   1   -119.7196354 -0.119720E+03  0.802E-03    0.76       0.0  T
   2   -119.7196355 -0.111585E-06  0.468E-03    0.76       2.5  T
   3   -119.7196355  0.115696E-07  0.968E-04    0.76      12.2  T
   4   -119.7196355 -0.353163E-07  0.316E-04    0.76      37.3  T
     SCC iter.                  ...        0 min,  0.026 sec
     gradient                   ...        0 min,  0.018 sec
 * total energy  :  -118.1904714 Eh     change       -0.2486868E-05 Eh
   gradient norm :     0.0013642 Eh/α   predicted    -0.3105594E-05 (  24.88%)
   displ. norm   :     0.0288919 α      lambda       -0.5617206E-05
   maximum displ.:     0.0121687 α      in ANC's #17, #4, #10, ...

........................................................................
.............................. CYCLE   46 ..............................
........................................................................

 iter      E             dE          RMSdq      gap      omega  full diag
   1   -119.7195892 -0.119720E+03  0.590E-03    0.76       0.0  T
   2   -119.7195893 -0.301645E-07  0.344E-03    0.76       3.4  T
   3   -119.7195892  0.814612E-08  0.583E-04    0.76      20.2  T
   4   -119.7195893 -0.179664E-07  0.180E-04    0.76      65.4  T
     SCC iter.                  ...        0 min,  0.018 sec
     gradient                   ...        0 min,  0.018 sec
 * total energy  :  -118.1904754 Eh     change       -0.4026490E-05 Eh
   gradient norm :     0.0007950 Eh/α   predicted    -0.2814450E-05 ( -30.10%)
   displ. norm   :     0.0156339 α      lambda       -0.1742635E-05
   maximum displ.:     0.0062314 α      in ANC's #10, #4, #1, ...

   *** GEOMETRY OPTIMIZATION CONVERGED AFTER 46 ITERATIONS ***

------------------------------------------------------------------------
 total energy gain   :        -0.0339006 Eh      -21.2730 kcal/mol
 total RMSD          :         0.9651016 a0        0.5107 Å
 total power (kW/mol):        -1.9349138 (step)  -30.5304 (real)
------------------------------------------------------------------------

 ANCopt (total)                0 d,  0 h,  0 min,  2.915 sec
 optimizer setup                ...        0 min,  0.001 sec (  0.023%)
 model hessian                  ...        0 min,  0.132 sec (  4.519%)
 ANC generation                 ...        0 min,  0.012 sec (  0.414%)
 coordinate transformation      ...        0 min,  0.002 sec (  0.082%)
 single point calculation       ...        0 min,  2.722 sec ( 93.365%)
 optimization log               ...        0 min,  0.025 sec (  0.874%)
 hessian update                 ...        0 min,  0.006 sec (  0.197%)
 rational function              ...        0 min,  0.010 sec (  0.360%)

================
 final structure:
================
72
 xtb: 6.7.1 (edcfbbe)
C           -7.06047903925007       -5.15575146648348       -1.02082526664649
C           -5.74811976579090       -5.88567623086158       -0.75684203834807
N           -4.71028031252480       -4.97453846853195       -0.32297625938865
C           -3.63008950911432       -4.67626171911659       -1.06290023427813
O           -3.40503485097404       -5.19713447022983       -2.15638536472311
C           -2.70548689983079       -3.66833027343005       -0.47170470430700
C           -2.50235466713537       -3.54971258691312        0.89966696333902
C           -1.61060161922175       -2.61389096700213        1.39101505258456
C           -0.91274001257023       -1.77685555218197        0.53055076271205
C            0.01806012408571       -0.71963874245940        1.08361316314562
C           -0.77610971798630        0.56871489171448        1.07888238769808
C           -1.47153977158795        0.96459758398620        2.21402807074509
C           -2.23227694618877        2.11773104136100        2.20148478208495
C           -2.32551877200097        2.89136588427725        1.04901988968488
C           -3.14161784137982        4.13758618586515        1.09856683858373
O           -3.25621859389704        4.79478360719339        2.13494270621119
N           -3.75107667032883        4.47401967333312       -0.04791082837243
C           -4.52301477035217        5.68540738468593       -0.22419011362339
C           -3.91883188843321        6.56905468396420       -1.30982361942789
C           -1.62085312183414        2.50009765164608       -0.08682179916196
C           -0.85778312938535        1.34872017788101       -0.06914375958008
N            1.23055224698236       -0.60128058772923        0.28130262068774
C            2.11848967314902        0.43298448537863        0.78592112967097
C            3.26895074324329        0.63084077034039       -0.20180598560410
N            3.97477577330917       -0.61918932567830       -0.36144982623441
C            5.23695917992858       -0.84254294643687       -0.02834388626314
O            5.81269740801056       -1.92705141639211       -0.10623831509719
C            6.04959651158610        0.32426087980235        0.44622708449057
N            6.11801344792234        0.72759199382115        1.68057369978693
O            7.10816261338316        1.66833817473892        1.75101787060341
C            7.67907968777782        1.84238073714426        0.56917636918020
C            8.77630816706113        2.80152909280479        0.41395284825474
C            7.03715345478689        1.00210697719982       -0.33590328881255
N            7.25377336498408        0.85740666234660       -1.70859216568118
O            8.23606006521448        1.39215498090482       -2.19559771672268
O            6.43834652612807        0.21081734218765       -2.34792411800894
C            3.11355547772705       -1.70122990560038       -0.79139230765518
C            1.96175968346038       -1.85498274643003        0.19925436633187
C           -1.11392225785000       -1.89824114990912       -0.84008109562242
C           -1.99000283908330       -2.84255460739110       -1.33514807717179
H           -6.92439489524371       -4.40710747663536       -1.79722781798643
H           -7.81345935412438       -5.86532455581233       -1.34953601986712
H           -7.41426785797813       -4.66519079761047       -0.11738795842758
H           -5.88995497188316       -6.64999334961756        0.01232042061202
H           -5.38427501709973       -6.36297669557978       -1.66952035722077
H           -4.89025452019195       -4.44583668494154        0.51687525651465
H           -3.00731074332417       -4.20953599572379        1.58827325011163
H           -1.45205575375687       -2.54063049857110        2.45662145407345
H            0.26520324878829       -0.97955154467073        2.13029069669013
H           -1.41352583758128        0.37381116740642        3.11576578390914
H           -2.76504267292967        2.44098259319209        3.08346777593380
H           -3.64288803591360        3.88000430839113       -0.85568846819239
H           -4.52341385281267        6.20025074538496        0.73953314334718
H           -5.55285460722700        5.42100641567409       -0.48324676155379
H           -3.91536028120580        6.05016436443236       -2.26500310781946
H           -4.50478338092882        7.47734268824723       -1.41005792044452
H           -2.89823930652005        6.83926166105266       -1.05131750325128
H           -1.63726069318573        3.10767784782632       -0.97869391343046
H           -0.30305675315049        1.05345420749365       -0.94458580751647
H            2.53516695683316        0.16338765572221        1.77253038467825
H            1.56482300116744        1.36652449060852        0.88615790453942
H            2.86676051743898        0.92223528431141       -1.17580355118029
H            3.94498722085140        1.40379004301076        0.15941759775220
H            8.72443226354056        3.55384985894670        1.19508491356259
H            8.74407863575532        3.24691099264246       -0.57760302452839
H            9.72786373034055        2.27564520306746        0.49761151646461
H            2.72152479191875       -1.45936452070810       -1.78185634961487
H            3.70949746290327       -2.61257034655069       -0.84456226750833
H            1.29441762982850       -2.64287730674579       -0.15018435975043
H            2.36813410987102       -2.15115698450749        1.18334146671783
H           -0.56390567141294       -1.26267028896188       -1.51394444921081
H           -2.13893051482443       -2.95914118056115       -2.39826576249570

 Bond Distances (Angstroems)
 ---------------------------
C1-C2=1.5247         C1-H41=1.0871        C1-H42=1.0856        C1-H43=1.0872        C2-C1=1.5247         C2-N3=1.4476         
C2-H44=1.0936        C2-H45=1.0923        N3-C2=1.4476         N3-C4=1.3429         N3-H46=1.0086        C4-N3=1.3429         
C4-O5=1.2319         C4-C6=1.4901         O5-C4=1.2319         C6-C4=1.4901         C6-C7=1.3914         C6-C40=1.3926        
C7-C6=1.3914         C7-C8=1.3829         C7-H47=1.0791        C8-C7=1.3829         C8-C9=1.3885         C8-H48=1.0798        
C9-C8=1.3885         C9-C10=1.5133        C9-C39=1.3906        C10-C9=1.5133        C10-C11=1.5135       C10-N22=1.4587       
C10-H49=1.1064       C11-C10=1.5135       C11-C12=1.3888       C11-C21=1.3903       C12-C11=1.3888       C12-C13=1.3815       
C12-H50=1.0796       C13-C12=1.3815       C13-C14=1.3912       C13-H51=1.0799       C14-C13=1.3912       C14-C15=1.4905       
C14-C20=1.3928       C15-C14=1.4905       C15-O16=1.2325       C15-N17=1.3413       O16-C15=1.2325       N17-C15=1.3413       
N17-C18=1.4472       N17-H52=1.0085       C18-N17=1.4472       C18-C19=1.5246       C18-H53=1.0926       C18-H54=1.0943       
C19-C18=1.5246       C19-H55=1.0870       C19-H56=1.0855       C19-H57=1.0869       C20-C14=1.3928       C20-C21=1.3814       
C20-H58=1.0793       C21-C11=1.3903       C21-C20=1.3814       C21-H59=1.0776       N22-C10=1.4587       N22-C23=1.4535       
N22-C38=1.4537       C23-N22=1.4535       C23-C24=1.5292       C23-H60=1.1044       C23-H61=1.0900       C24-C23=1.5292       
C24-N25=1.4444       C24-H62=1.0933       C24-H63=1.0886       N25-C24=1.4444       N25-C26=1.3244       N25-C37=1.4482       
C26-N25=1.3244       C26-O27=1.2303       C26-C28=1.4990       O27-C26=1.2303       C28-C26=1.4990       C28-N29=1.3004       
C28-C33=1.4305       N29-C28=1.3004       N29-O30=1.3676       O30-N29=1.3676       O30-C31=1.3240       C31-O30=1.3240       
C31-C32=1.4656       C31-C33=1.3919       C32-C31=1.4656       C32-H64=1.0857       C32-H65=1.0875       C32-H66=1.0904       
C33-C28=1.4305       C33-C31=1.3919       C33-N34=1.3972       N34-C33=1.3972       N34-O35=1.2198       N34-O36=1.2214       
O35-N34=1.2198       O36-N34=1.2214       C37-N25=1.4482       C37-C38=1.5270       C37-H67=1.0923       C37-H68=1.0902       
C38-N22=1.4537       C38-C37=1.5270       C38-H69=1.0901       C38-H70=1.1051       C39-C9=1.3906        C39-C40=1.3800       
C39-H71=1.0773       C40-C6=1.3926        C40-C39=1.3800       C40-H72=1.0798       H41-C1=1.0871        H42-C1=1.0856        
H43-C1=1.0872        H44-C2=1.0936        H45-C2=1.0923        H46-N3=1.0086        H47-C7=1.0791        H48-C8=1.0798        
H49-C10=1.1064       H50-C12=1.0796       H51-C13=1.0799       H52-N17=1.0085       H53-C18=1.0926       H54-C18=1.0943       
H55-C19=1.0870       H56-C19=1.0855       H57-C19=1.0869       H58-C20=1.0793       H59-C21=1.0776       H60-C23=1.1044       
H61-C23=1.0900       H62-C24=1.0933       H63-C24=1.0886       H64-C32=1.0857       H65-C32=1.0875       H66-C32=1.0904       
H67-C37=1.0923       H68-C37=1.0902       H69-C38=1.0901       H70-C38=1.1051       H71-C39=1.0773       H72-C40=1.0798       
 C  H  Rav=1.0883 sigma=0.0076  Rmin=1.0773  Rmax=1.1064    30
 C  C  Rav=1.4397 sigma=0.0596  Rmin=1.3800  Rmax=1.5292    24
 N  H  Rav=1.0085 sigma=0.0001  Rmin=1.0085  Rmax=1.0086     2
 N  C  Rav=1.4050 sigma=0.0578  Rmin=1.3004  Rmax=1.4587    12
 O  C  Rav=1.2547 sigma=0.0400  Rmin=1.2303  Rmax=1.3240     4
 O  N  Rav=1.2696 sigma=0.0693  Rmin=1.2198  Rmax=1.3676     3

 selected bond angles (degree)
 --------------------
H41-C1-C2=110.22               H42-C1-C2=109.67               H42-C1-H41=108.71              H43-C1-C2=110.62               
H43-C1-H41=108.87              H43-C1-H42=108.71              N3-C2-C1=111.57                H44-C2-C1=110.17               
H44-C2-N3=108.79               H45-C2-C1=110.56               H45-C2-N3=106.66               H45-C2-H44=108.99              
C4-N3-C2=123.46                H46-N3-C2=116.84               H46-N3-C4=119.07               O5-C4-N3=122.83                
C6-C4-N3=115.52                C6-C4-O5=121.66                C7-C6-C4=122.64                C40-C6-C4=118.29               
C40-C6-C7=119.05               C8-C7-C6=120.13                H47-C7-C6=120.56               H47-C7-C8=119.26               
C9-C8-C7=120.79                H48-C8-C7=119.42               H48-C8-C9=119.79               C10-C9-C8=120.25               
C39-C9-C8=119.04               C39-C9-C10=120.68              C11-C10-C9=105.71              N22-C10-C9=111.53              
N22-C10-C11=111.43             H49-C10-C9=108.60              H49-C10-C11=108.67             H49-C10-N22=110.71             

 selected dihedral angles (degree)
 ---------------------------------
N3-C2-C1-H41= 60.01           N3-C2-C1-H42=179.65           N3-C2-C1-H43=299.55           H44-C2-C1-H41=180.95          
H44-C2-C1-H42=300.59          H44-C2-C1-H43= 60.49          H45-C2-C1-H41=301.49          H45-C2-C1-H42= 61.13          
H45-C2-C1-H43=181.03          C4-N3-C2-C1=248.22            C4-N3-C2-H44=126.48           C4-N3-C2-H45=  9.05           
H46-N3-C2-C1= 59.08           H46-N3-C2-H44=297.34          H46-N3-C2-H45=179.91          O5-C4-N3-C2=357.02            
O5-C4-N3-H46=186.35           C6-C4-N3-C2=177.25            C6-C4-N3-H46=  6.58           C7-C6-C4-N3= 32.77            
C7-C6-C4-O5=213.00            C40-C6-C4-N3=210.82           C40-C6-C4-O5= 31.05           C8-C7-C6-C4=178.65            
C8-C7-C6-C40=  0.62           H47-C7-C6-C4=  1.04           H47-C7-C6-C40=183.01          C9-C8-C7-C6=  0.36            
C9-C8-C7-H47=178.01           H48-C8-C7-C6=180.81           H48-C8-C7-H47=358.45          C10-C9-C8-C7=177.53           
C10-C9-C8-H48=357.08          C39-C9-C8-C7=359.49           C39-C9-C8-H48=179.04          C11-C10-C9-C8=262.06          
C11-C10-C9-C39= 80.06         N22-C10-C9-C8=140.79          N22-C10-C9-C39=318.80         H49-C10-C9-C8= 18.52          
H49-C10-C9-C39=196.53         
           -------------------------------------------------
          |                Final Singlepoint                |
           -------------------------------------------------

          ...................................................
          :                      SETUP                      :
          :.................................................:
          :  # basis functions                 192          :
          :  # atomic orbitals                 192          :
          :  # shells                          112          :
          :  # electrons                       210          :
          :  max. iterations                   250          :
          :  Hamiltonian                  GFN2-xTB          :
          :  restarted?                      false          :
          :  GBSA solvation                   true          :
          :  PC potential                    false          :
          :  electronic temp.          300.0000000     K    :
          :  accuracy                    1.0000000          :
          :  -> integral cutoff          0.2500000E+02      :
          :  -> integral neglect         0.1000000E-07      :
          :  -> SCF convergence          0.1000000E-05 Eh   :
          :  -> wf. convergence          0.1000000E-03 e    :
          :  Broyden damping             0.4000000          :
          :  net charge                          0          :
          :  unpaired electrons                  0          :
          ...................................................

 iter      E             dE          RMSdq      gap      omega  full diag
   1   -119.7195893 -0.119720E+03  0.924E-05    0.76       0.0  T
   2   -119.7195893 -0.491553E-10  0.577E-05    0.76     204.2  T
   3   -119.7195893 -0.297007E-11  0.363E-05    0.76     324.8  T

   *** convergence criteria satisfied after 3 iterations ***

         #    Occupation            Energy/Eh            Energy/eV
      -------------------------------------------------------------
         1        2.0000           -0.8014354             -21.8082
       ...           ...                  ...                  ...
        99        2.0000           -0.4083242             -11.1111
       100        2.0000           -0.4056895             -11.0394
       101        2.0000           -0.4014863             -10.9250
       102        2.0000           -0.3996255             -10.8744
       103        2.0000           -0.3958646             -10.7720
       104        2.0000           -0.3925378             -10.6815
       105        2.0000           -0.3658526              -9.9554 (HOMO)
       106        0.0000           -0.3380460              -9.1987 (LUMO)
       107                         -0.2820643              -7.6754
       108                         -0.2616900              -7.1209
       109                         -0.2502948              -6.8109
       110                         -0.2349814              -6.3942
       ...                                ...                  ...
       192                          0.6591059              17.9352
      -------------------------------------------------------------
                  HL-Gap            0.0278066 Eh            0.7567 eV
             Fermi-level           -0.3519493 Eh           -9.5770 eV

 SCC (total)                   0 d,  0 h,  0 min,  0.044 sec
 SCC setup                      ...        0 min,  0.001 sec (  2.756%)
 Dispersion                     ...        0 min,  0.002 sec (  3.988%)
 classical contributions        ...        0 min,  0.000 sec (  0.442%)
 integral evaluation            ...        0 min,  0.006 sec ( 12.449%)
 iterations                     ...        0 min,  0.016 sec ( 37.301%)
 molecular gradient             ...        0 min,  0.018 sec ( 41.507%)
 printout                       ...        0 min,  0.001 sec (  1.486%)

         :::::::::::::::::::::::::::::::::::::::::::::::::::::
         ::                     SUMMARY                     ::
         :::::::::::::::::::::::::::::::::::::::::::::::::::::
         :: total energy            -118.190475425907 Eh    ::
         :: total w/o Gsasa/hb      -118.185814750666 Eh    ::
         :: gradient norm              0.000794563397 Eh/a0 ::
         :: HOMO-LUMO gap              0.756656627613 eV    ::
         ::.................................................::
         :: SCC energy              -119.719257792869 Eh    ::
         :: -> isotropic ES            0.250973524092 Eh    ::
         :: -> anisotropic ES          0.008956672865 Eh    ::
         :: -> anisotropic XC          0.046083237579 Eh    ::
         :: -> dispersion             -0.081166344084 Eh    ::
         :: -> Gsolv                  -0.057202501263 Eh    ::
         ::    -> Gelec               -0.052541826022 Eh    ::
         ::    -> Gsasa                0.003870401023 Eh    ::
         ::    -> Ghb                 -0.009611835961 Eh    ::
         ::    -> Gshift               0.001080759698 Eh    ::
         :: repulsion energy           1.528782366963 Eh    ::
         :: add. restraining           0.000000000000 Eh    ::
         :: total charge              -0.000000000000 e     ::
         :::::::::::::::::::::::::::::::::::::::::::::::::::::

           -------------------------------------------------
          |                Property Printout                |
           -------------------------------------------------

    * Orbital Energies and Occupations

         #    Occupation            Energy/Eh            Energy/eV
      -------------------------------------------------------------
         1        2.0000           -0.8014354             -21.8082
       ...           ...                  ...                  ...
        93        2.0000           -0.4290946             -11.6763
        94        2.0000           -0.4258723             -11.5886
        95        2.0000           -0.4241276             -11.5411
        96        2.0000           -0.4147301             -11.2854
        97        2.0000           -0.4135472             -11.2532
        98        2.0000           -0.4125423             -11.2258
        99        2.0000           -0.4083242             -11.1111
       100        2.0000           -0.4056895             -11.0394
       101        2.0000           -0.4014863             -10.9250
       102        2.0000           -0.3996255             -10.8744
       103        2.0000           -0.3958646             -10.7720
       104        2.0000           -0.3925378             -10.6815
       105        2.0000           -0.3658526              -9.9554 (HOMO)
       106        0.0000           -0.3380460              -9.1987 (LUMO)
       107                         -0.2820643              -7.6754
       108                         -0.2616900              -7.1209
       109                         -0.2502948              -6.8109
       110                         -0.2349814              -6.3942
       111                         -0.2322573              -6.3200
       112                         -0.2295110              -6.2453
       113                         -0.2039451              -5.5496
       114                         -0.1902071              -5.1758
       115                         -0.1798961              -4.8952
       116                         -0.0994220              -2.7054
       ...                                ...                  ...
       192                          0.6591059              17.9352
      -------------------------------------------------------------
                  HL-Gap            0.0278066 Eh            0.7567 eV
             Fermi-level           -0.3519493 Eh           -9.5770 eV

     #   Z          covCN         q      C6AA      α(0)
     1   6 C        3.752    -0.127    22.996     6.838
     2   6 C        3.738     0.002    20.626     6.481
     3   7 N        2.689    -0.180    24.893     7.410
     4   6 C        2.759     0.272    22.404     7.751
     5   8 O        0.858    -0.537    24.626     6.653
     6   6 C        2.976    -0.026    28.654     8.781
     7   6 C        2.920    -0.038    28.954     8.824
     8   6 C        2.923    -0.040    28.992     8.830
     9   6 C        2.984     0.015    27.666     8.628
    10   6 C        3.819     0.037    19.944     6.356
    11   6 C        2.984     0.015    27.667     8.628
    12   6 C        2.922    -0.039    28.973     8.827
    13   6 C        2.925    -0.023    28.590     8.769
    14   6 C        2.976    -0.026    28.651     8.780
    15   6 C        2.758     0.272    22.410     7.752
    16   8 O        0.858    -0.541    24.705     6.664
    17   7 N        2.689    -0.178    24.864     7.406
    18   6 C        3.738     0.003    20.616     6.479
    19   6 C        3.753    -0.128    23.012     6.841
    20   6 C        2.920    -0.038    28.948     8.823
    21   6 C        2.922    -0.038    28.938     8.822
    22   7 N        2.734    -0.171    24.708     7.382
    23   6 C        3.772     0.001    20.598     6.467
    24   6 C        3.756    -0.017    20.928     6.523
    25   7 N        2.740    -0.052    22.241     7.004
    26   6 C        2.765     0.274    22.363     7.745
    27   8 O        0.859    -0.514    24.087     6.580
    28   6 C        3.014     0.073    26.358     8.422
    29   7 N        1.947    -0.138    24.748     7.377
    30   8 O        1.821    -0.088    15.653     5.343
    31   6 C        2.987     0.181    24.126     8.057
    32   6 C        3.754    -0.163    23.717     6.944
    33   6 C        2.959    -0.035    28.870     8.813
    34   7 N        2.756     0.571    13.255     5.407
    35   8 O        0.932    -0.428    22.209     6.320
    36   8 O        0.933    -0.441    22.485     6.359
    37   6 C        3.763    -0.014    20.869     6.512
    38   6 C        3.771     0.004    20.540     6.458
    39   6 C        2.922    -0.037    28.916     8.818
    40   6 C        2.925    -0.024    28.599     8.770
    41   1 H        0.925     0.049     2.332     2.388
    42   1 H        0.925     0.060     2.195     2.317
    43   1 H        0.925     0.057     2.235     2.338
    44   1 H        0.924     0.060     2.194     2.316
    45   1 H        0.924     0.067     2.123     2.279
    46   1 H        0.860     0.211     1.051     1.606
    47   1 H        0.926     0.052     2.292     2.368
    48   1 H        0.926     0.049     2.335     2.390
    49   1 H        0.922     0.022     2.707     2.573
    50   1 H        0.926     0.046     2.368     2.406
    51   1 H        0.926     0.046     2.370     2.407
    52   1 H        0.860     0.213     1.042     1.599
    53   1 H        0.924     0.066     2.132     2.283
    54   1 H        0.924     0.058     2.219     2.330
    55   1 H        0.925     0.058     2.219     2.330
    56   1 H        0.925     0.060     2.198     2.318
    57   1 H        0.925     0.051     2.307     2.375
    58   1 H        0.926     0.057     2.237     2.339
    59   1 H        0.926     0.071     2.077     2.254
    60   1 H        0.923     0.025     2.664     2.552
    61   1 H        0.925     0.067     2.123     2.278
    62   1 H        0.924     0.092     1.862     2.134
    63   1 H        0.925     0.065     2.141     2.288
    64   1 H        0.925     0.129     1.542     1.942
    65   1 H        0.925     0.126     1.565     1.956
    66   1 H        0.924     0.145     1.423     1.866
    67   1 H        0.924     0.084     1.934     2.175
    68   1 H        0.925     0.078     2.001     2.212
    69   1 H        0.925     0.061     2.192     2.315
    70   1 H        0.922     0.019     2.753     2.595
    71   1 H        0.926     0.068     2.106     2.269
    72   1 H        0.926     0.050     2.316     2.380

 Mol. C6AA /au·bohr⁶  :      58646.467572
 Mol. C8AA /au·bohr⁸  :    1370751.538922
 Mol. α(0) /au        :        371.822382


Wiberg/Mayer (AO) data.
largest (>0.10) Wiberg bond orders for each atom

 ---------------------------------------------------------------------------
     #   Z sym  total        # sym  WBO       # sym  WBO       # sym  WBO
 ---------------------------------------------------------------------------
     1   6 C    3.991 --     2 C    1.009    41 H    0.987    43 H    0.985
                            42 H    0.982
     2   6 C    3.962 --     1 C    1.009     3 N    0.988    45 H    0.969
                            44 H    0.966
     3   7 N    3.470 --     4 C    1.293     2 C    0.988    46 H    0.923
                             5 O    0.195
     4   6 C    3.945 --     5 O    1.591     3 N    1.293     6 C    0.991
     5   8 O    1.913 --     4 C    1.591     3 N    0.195
     6   6 C    3.984 --     7 C    1.395    40 C    1.389     4 C    0.991
                             9 C    0.102
     7   6 C    3.990 --     8 C    1.451     6 C    1.395    47 H    0.964
                            39 C    0.107
     8   6 C    3.989 --     7 C    1.451     9 C    1.408    48 H    0.967
                            40 C    0.105
     9   6 C    3.985 --     8 C    1.408    39 C    1.397    10 C    0.976
                             6 C    0.102
    10   6 C    3.982 --    22 N    0.981    11 C    0.976     9 C    0.976
                            49 H    0.949
    11   6 C    3.984 --    12 C    1.409    21 C    1.396    10 C    0.976
                            14 C    0.102
    12   6 C    3.989 --    13 C    1.451    11 C    1.409    50 H    0.967
                            20 C    0.105
    13   6 C    3.989 --    12 C    1.451    14 C    1.396    51 H    0.968
                            21 C    0.106
    14   6 C    3.985 --    13 C    1.396    20 C    1.388    15 C    0.990
                            11 C    0.102
    15   6 C    3.945 --    16 O    1.587    17 N    1.297    14 C    0.990
    16   8 O    1.910 --    15 C    1.587    17 N    0.196
    17   7 N    3.473 --    15 C    1.297    18 C    0.988    52 H    0.921
                            16 O    0.196
    18   6 C    3.962 --    19 C    1.010    17 N    0.988    53 H    0.969
                            54 H    0.966
    19   6 C    3.990 --    18 C    1.010    57 H    0.987    55 H    0.985
                            56 H    0.982
    20   6 C    3.989 --    21 C    1.459    14 C    1.388    58 H    0.963
                            12 C    0.105
    21   6 C    3.987 --    20 C    1.459    11 C    1.396    59 H    0.962
                            13 C    0.106
    22   7 N    3.122 --    23 C    1.005    38 C    1.004    10 C    0.981
    23   6 C    3.984 --    22 N    1.005    24 C    0.991    61 H    0.964
                            60 H    0.962
    24   6 C    3.957 --    23 C    0.991    25 N    0.980    63 H    0.965
                            62 H    0.959
    25   7 N    3.573 --    26 C    1.343    24 C    0.980    37 C    0.974
                            27 O    0.211
    26   6 C    3.959 --    27 O    1.575    25 N    1.343    28 C    0.940
    27   8 O    1.943 --    26 C    1.575    25 N    0.211
    28   6 C    3.970 --    29 N    1.614    33 C    1.205    26 C    0.940
    29   7 N    2.950 --    28 C    1.614    30 O    1.060    31 C    0.121
    30   8 O    2.490 --    31 C    1.218    29 N    1.060
    31   6 C    3.916 --    33 C    1.390    30 O    1.218    32 C    1.065
                            29 N    0.121
    32   6 C    3.961 --    31 C    1.065    64 H    0.960    65 H    0.949
                            66 H    0.913
    33   6 C    3.936 --    31 C    1.390    28 C    1.205    34 N    1.039
    34   7 N    3.916 --    36 O    1.418    35 O    1.417    33 C    1.039
    35   8 O    1.891 --    34 N    1.417    36 O    0.327
    36   8 O    1.894 --    34 N    1.418    35 O    0.327
    37   6 C    3.955 --    38 C    0.993    25 N    0.974    68 H    0.966
                            67 H    0.961
    38   6 C    3.985 --    22 N    1.004    37 C    0.993    69 H    0.965
                            70 H    0.963
    39   6 C    3.988 --    40 C    1.460     9 C    1.397    71 H    0.963
                             7 C    0.107
    40   6 C    3.989 --    39 C    1.460     6 C    1.389    72 H    0.967
                             8 C    0.105
    41   1 H    0.998 --     1 C    0.987
    42   1 H    0.996 --     1 C    0.982
    43   1 H    0.997 --     1 C    0.985
    44   1 H    0.995 --     2 C    0.966
    45   1 H    0.995 --     2 C    0.969
    46   1 H    0.955 --     3 N    0.923
    47   1 H    0.997 --     7 C    0.964
    48   1 H    0.997 --     8 C    0.967
    49   1 H    0.999 --    10 C    0.949
    50   1 H    0.997 --    12 C    0.967
    51   1 H    0.997 --    13 C    0.968
    52   1 H    0.955 --    17 N    0.921
    53   1 H    0.996 --    18 C    0.969
    54   1 H    0.996 --    18 C    0.966
    55   1 H    0.997 --    19 C    0.985
    56   1 H    0.996 --    19 C    0.982
    57   1 H    0.997 --    19 C    0.987
    58   1 H    0.996 --    20 C    0.963
    59   1 H    0.994 --    21 C    0.962
    60   1 H    0.999 --    23 C    0.962
    61   1 H    0.995 --    23 C    0.964
    62   1 H    0.992 --    24 C    0.959
    63   1 H    0.995 --    24 C    0.965
    64   1 H    0.982 --    32 C    0.960
    65   1 H    0.984 --    32 C    0.949
    66   1 H    0.979 --    32 C    0.913
    67   1 H    0.993 --    37 C    0.961
    68   1 H    0.993 --    37 C    0.966
    69   1 H    0.996 --    38 C    0.965
    70   1 H    1.000 --    38 C    0.963
    71   1 H    0.995 --    39 C    0.963
    72   1 H    0.997 --    40 C    0.967
 ---------------------------------------------------------------------------

Topologies differ in total number of bonds
Writing topology from bond orders to xtbtopo.mol

molecular dipole:
                 x           y           z       tot (Debye)
 q only:       -2.129       2.325       0.994
   full:       -1.874       2.179       1.120       7.841
molecular quadrupole (traceless):
                xx          xy          yy          xz          yz          zz
 q only:       27.839      63.561      -5.005      38.480     -49.645     -22.834
  q+dip:       28.551      61.095     -10.937      35.133     -56.028     -17.614
   full:       31.641      60.328      -9.202      35.461     -55.948     -22.439

           -------------------------------------------------
          |                Geometry Summary                 |
           -------------------------------------------------

      molecular mass/u    :      548.5913580
   center of mass at/Å    :        0.7539676      -0.0450385       0.0176835
  moments of inertia/u·Å² :        0.5792090E+04   0.1246067E+05   0.1675541E+05
rotational constants/cm⁻¹ :        0.2910458E-02   0.1352868E-02   0.1006101E-02

 * 70 selected distances

     #   Z          #   Z                                           value/Å
     1   6 C        2   6 C                                       1.5247179
     2   6 C        3   7 N                                       1.4475920
     3   7 N        4   6 C                                       1.3428585
     4   6 C        5   8 O                                       1.2319367
     6   6 C        7   6 C                                       1.3913998
     7   6 C        8   6 C                                       1.3828987
     8   6 C        9   6 C                                       1.3885382
    11   6 C       12   6 C                                       1.3888492
    12   6 C       13   6 C                                       1.3815193
    13   6 C       14   6 C                                       1.3911796
    15   6 C       16   8 O                                       1.2325246
    15   6 C       17   7 N                                       1.3412826
    17   7 N       18   6 C                                       1.4472123
    18   6 C       19   6 C                                       1.5246213
    14   6 C       20   6 C                                       1.3927603
    11   6 C       21   6 C                                       1.3903392
    20   6 C       21   6 C                                       1.3813974
    10   6 C       22   7 N                                       1.4587146
    22   7 N       23   6 C                                       1.4535396
    23   6 C       24   6 C                                       1.5291544 (max)
    24   6 C       25   7 N                                       1.4443859
    25   7 N       26   6 C                                       1.3243692
    26   6 C       27   8 O                                       1.2303255
    28   6 C       29   7 N                                       1.3003725
    29   7 N       30   8 O                                       1.3676116
    30   8 O       31   6 C                                       1.3240041
    31   6 C       32   6 C                                       1.4655957
    28   6 C       33   6 C                                       1.4305497
    31   6 C       33   6 C                                       1.3918688
    33   6 C       34   7 N                                       1.3971891
    34   7 N       35   8 O                                       1.2198433
    34   7 N       36   8 O                                       1.2213698
    25   7 N       37   6 C                                       1.4482276
    22   7 N       38   6 C                                       1.4536732
    37   6 C       38   6 C                                       1.5269757
     9   6 C       39   6 C                                       1.3906260
     6   6 C       40   6 C                                       1.3926082
    39   6 C       40   6 C                                       1.3799771
     1   6 C       41   1 H                                       1.0871007
     1   6 C       42   1 H                                       1.0855986
     1   6 C       43   1 H                                       1.0872054
     2   6 C       44   1 H                                       1.0935762
     2   6 C       45   1 H                                       1.0923281
     3   7 N       46   1 H                                       1.0085966
     7   6 C       47   1 H                                       1.0791322
     8   6 C       48   1 H                                       1.0798246
    10   6 C       49   1 H                                       1.1064215
    12   6 C       50   1 H                                       1.0795950
    13   6 C       51   1 H                                       1.0799190
    17   7 N       52   1 H                                       1.0084959 (min)
    18   6 C       53   1 H                                       1.0926237
    18   6 C       54   1 H                                       1.0943439
    19   6 C       55   1 H                                       1.0870268
    19   6 C       56   1 H                                       1.0855291
    19   6 C       57   1 H                                       1.0869437
    20   6 C       58   1 H                                       1.0792863
    21   6 C       59   1 H                                       1.0776374
    23   6 C       60   1 H                                       1.1044005
    23   6 C       61   1 H                                       1.0899960
    24   6 C       62   1 H                                       1.0933157
    24   6 C       63   1 H                                       1.0885580
    32   6 C       64   1 H                                       1.0857464
    32   6 C       65   1 H                                       1.0874682
    32   6 C       66   1 H                                       1.0904177
    37   6 C       67   1 H                                       1.0923398
    37   6 C       68   1 H                                       1.0901906
    38   6 C       69   1 H                                       1.0900600
    38   6 C       70   1 H                                       1.1051185
    39   6 C       71   1 H                                       1.0772932
    40   6 C       72   1 H                                       1.0798108

 * 6 distinct bonds (by element types)

   Z      Z             #   av. dist./Å        max./Å        min./Å
   1 H    6 C          30     1.0882936     1.1064215     1.0772932
   6 C    6 C          19     1.4234514     1.5291544     1.3799771
   1 H    7 N           2     1.0085462     1.0085966     1.0084959
   6 C    7 N          12     1.4049514     1.4587146     1.3003725
   6 C    8 O           4     1.2546977     1.3240041     1.2303255
   7 N    8 O           3     1.2696082     1.3676116     1.2198433


optimized geometry written to: xtbopt.xyz


           -------------------------------------------------
          | TOTAL ENERGY             -118.190475425907 Eh   |
          | GRADIENT NORM               0.000794563397 Eh/α |
          | HOMO-LUMO GAP               0.756656627613 eV   |
           -------------------------------------------------
########################################################################
[WARNING] Runtime exception occurred
-2- restart_readRestart: Dimension missmatch in restart file.
-1- restart_readRestart: Number of electron missmatch in restart file.
########################################################################

------------------------------------------------------------------------
 * finished run on 2026/08/28 at 18:28:13.808     
------------------------------------------------------------------------
 total:
 * wall-time:     0 d,  0 h,  0 min,  3.113 sec
 *  cpu-time:     0 d,  0 h,  0 min, 22.156 sec
 * ratio c/w:     7.118 speedup
 SCF:
 * wall-time:     0 d,  0 h,  0 min,  0.086 sec
 *  cpu-time:     0 d,  0 h,  0 min,  0.500 sec
 * ratio c/w:     5.839 speedup
 ANC optimizer:
 * wall-time:     0 d,  0 h,  0 min,  2.966 sec
 *  cpu-time:     0 d,  0 h,  0 min, 21.547 sec
 * ratio c/w:     7.265 speedup

