72

C     -6.822117   -5.573086   -1.445902
C     -5.780138   -6.197829   -0.535248
N     -4.787499   -5.231622   -0.112845
C     -3.713338   -4.908432   -0.917667
O     -3.495721   -5.435947   -2.002309
C     -2.817958   -3.828222   -0.419135
C     -2.629444   -3.591669    0.947253
C     -1.777080   -2.566384    1.370400
C     -1.089947   -1.769567    0.437971
C     -0.181037   -0.632246    0.929855
C     -0.973912    0.683400    0.906689
C     -1.507224    1.199464    2.099481
C     -2.243504    2.387129    2.094861
C     -2.473115    3.072162    0.896489
C     -3.262371    4.333496    0.944772
O     -3.266209    5.015570    1.963287
N     -3.984920    4.648416   -0.187327
C     -4.800457    5.842483   -0.259907
C     -3.978796    7.058586   -0.647479
C     -1.937756    2.575043   -0.296369
C     -1.199908    1.387492   -0.289696
N      1.123942   -0.549898    0.204522
C      1.976835    0.533398    0.761796
C      3.338408    0.636885    0.049709
N      4.058739   -0.639059    0.041720
C      5.439707   -0.732120   -0.173647
O      5.954820   -1.739376   -0.657580
C      6.294744    0.385369    0.225204
N      6.151590    1.024113    1.402243
O      7.200750    1.922310    1.483250
C      7.977154    1.822293    0.369986
C      9.148934    2.715766    0.300965
C      7.434064    0.867165   -0.454607
N      7.915678    0.488052   -1.733307
O      9.142773    0.470033   -1.886931
O      7.065828    0.270776   -2.603893
C      3.245441   -1.774618   -0.386418
C      1.882715   -1.824067    0.327992
C     -1.282905   -2.023661   -0.931156
C     -2.131326   -3.049031   -1.355641
H     -6.365948   -5.181593   -2.360969
H     -7.574851   -6.315003   -1.729246
H     -7.329830   -4.741864   -0.945362
H     -6.256052   -6.588982    0.369401
H     -5.281589   -7.027333   -1.047848
H     -5.028599   -4.616638    0.651840
H     -3.116530   -4.210468    1.695341
H     -1.648558   -2.396549    2.437608
H      0.062928   -0.847454    1.981188
H     -1.352439    0.682851    3.044280
H     -2.643447    2.777095    3.029245
H     -4.041208    3.987506   -0.949350
H     -5.286712    6.007976    0.707326
H     -5.578634    5.660237   -1.007827
H     -3.488364    6.906205   -1.614702
H     -4.618527    7.943181   -0.722053
H     -3.198223    7.261953    0.092875
H     -2.058206    3.109361   -1.233918
H     -0.782370    1.017592   -1.224189
H      2.146867    0.367123    1.834178
H      1.490694    1.508432    0.654545
H      3.193425    0.927933   -0.998714
H      3.922782    1.431043    0.515585
H      9.100691    3.494051    1.069115
H      9.201907    3.210298   -0.673834
H     10.071431    2.146899    0.451524
H      3.104609   -1.689664   -1.471363
H      3.784046   -2.710039   -0.196610
H      1.325401   -2.658118   -0.110114
H      2.046396   -2.061795    1.387948
H     -0.758825   -1.429632   -1.677076
H     -2.257709   -3.237172   -2.420203
