72
 energy: -118.190475425907 gnorm: 0.000794563397 xtb: 6.7.1 (edcfbbe)
C           -7.06047903925007       -5.15575146648348       -1.02082526664649
C           -5.74811976579090       -5.88567623086158       -0.75684203834807
N           -4.71028031252480       -4.97453846853195       -0.32297625938865
C           -3.63008950911432       -4.67626171911659       -1.06290023427813
O           -3.40503485097404       -5.19713447022983       -2.15638536472311
C           -2.70548689983079       -3.66833027343005       -0.47170470430700
C           -2.50235466713537       -3.54971258691312        0.89966696333902
C           -1.61060161922175       -2.61389096700213        1.39101505258456
C           -0.91274001257023       -1.77685555218197        0.53055076271205
C            0.01806012408571       -0.71963874245940        1.08361316314562
C           -0.77610971798630        0.56871489171448        1.07888238769808
C           -1.47153977158795        0.96459758398620        2.21402807074509
C           -2.23227694618877        2.11773104136100        2.20148478208495
C           -2.32551877200097        2.89136588427725        1.04901988968488
C           -3.14161784137982        4.13758618586515        1.09856683858373
O           -3.25621859389704        4.79478360719339        2.13494270621119
N           -3.75107667032883        4.47401967333312       -0.04791082837243
C           -4.52301477035217        5.68540738468593       -0.22419011362339
C           -3.91883188843321        6.56905468396420       -1.30982361942789
C           -1.62085312183414        2.50009765164608       -0.08682179916196
C           -0.85778312938535        1.34872017788101       -0.06914375958008
N            1.23055224698236       -0.60128058772923        0.28130262068774
C            2.11848967314902        0.43298448537863        0.78592112967097
C            3.26895074324329        0.63084077034039       -0.20180598560410
N            3.97477577330917       -0.61918932567830       -0.36144982623441
C            5.23695917992858       -0.84254294643687       -0.02834388626314
O            5.81269740801056       -1.92705141639211       -0.10623831509719
C            6.04959651158610        0.32426087980235        0.44622708449057
N            6.11801344792234        0.72759199382115        1.68057369978693
O            7.10816261338316        1.66833817473892        1.75101787060341
C            7.67907968777782        1.84238073714426        0.56917636918020
C            8.77630816706113        2.80152909280479        0.41395284825474
C            7.03715345478689        1.00210697719982       -0.33590328881255
N            7.25377336498408        0.85740666234660       -1.70859216568118
O            8.23606006521448        1.39215498090482       -2.19559771672268
O            6.43834652612807        0.21081734218765       -2.34792411800894
C            3.11355547772705       -1.70122990560038       -0.79139230765518
C            1.96175968346038       -1.85498274643003        0.19925436633187
C           -1.11392225785000       -1.89824114990912       -0.84008109562242
C           -1.99000283908330       -2.84255460739110       -1.33514807717179
H           -6.92439489524371       -4.40710747663536       -1.79722781798643
H           -7.81345935412438       -5.86532455581233       -1.34953601986712
H           -7.41426785797813       -4.66519079761047       -0.11738795842758
H           -5.88995497188316       -6.64999334961756        0.01232042061202
H           -5.38427501709973       -6.36297669557978       -1.66952035722077
H           -4.89025452019195       -4.44583668494154        0.51687525651465
H           -3.00731074332417       -4.20953599572379        1.58827325011163
H           -1.45205575375687       -2.54063049857110        2.45662145407345
H            0.26520324878829       -0.97955154467073        2.13029069669013
H           -1.41352583758128        0.37381116740642        3.11576578390914
H           -2.76504267292967        2.44098259319209        3.08346777593380
H           -3.64288803591360        3.88000430839113       -0.85568846819239
H           -4.52341385281267        6.20025074538496        0.73953314334718
H           -5.55285460722700        5.42100641567409       -0.48324676155379
H           -3.91536028120580        6.05016436443236       -2.26500310781946
H           -4.50478338092882        7.47734268824723       -1.41005792044452
H           -2.89823930652005        6.83926166105266       -1.05131750325128
H           -1.63726069318573        3.10767784782632       -0.97869391343046
H           -0.30305675315049        1.05345420749365       -0.94458580751647
H            2.53516695683316        0.16338765572221        1.77253038467825
H            1.56482300116744        1.36652449060852        0.88615790453942
H            2.86676051743898        0.92223528431141       -1.17580355118029
H            3.94498722085140        1.40379004301076        0.15941759775220
H            8.72443226354056        3.55384985894670        1.19508491356259
H            8.74407863575532        3.24691099264246       -0.57760302452839
H            9.72786373034055        2.27564520306746        0.49761151646461
H            2.72152479191875       -1.45936452070810       -1.78185634961487
H            3.70949746290327       -2.61257034655069       -0.84456226750833
H            1.29441762982850       -2.64287730674579       -0.15018435975043
H            2.36813410987102       -2.15115698450749        1.18334146671783
H           -0.56390567141294       -1.26267028896188       -1.51394444921081
H           -2.13893051482443       -2.95914118056115       -2.39826576249570
