74

C      9.306776   -2.588145   -0.305343
C      8.091964   -1.775189   -0.504294
O      7.254569   -2.167369   -1.502917
N      6.170743   -1.309783   -1.566417
C      6.354932   -0.400056   -0.590617
C      5.472604    0.752381   -0.411979
O      5.966174    1.864670   -0.228564
N      4.086453    0.563728   -0.489976
C      3.249134    1.741574   -0.278093
C      1.834349    1.573467   -0.861089
N      1.156704    0.342972   -0.372810
C     -0.204600    0.201872   -0.975238
C     -1.115174    1.411514   -0.715972
C     -1.285818    1.943989    0.574414
C     -2.138078    3.029951    0.797221
C     -2.831387    3.606141   -0.272777
C     -3.754834    4.760155   -0.089768
O     -4.695673    4.918500   -0.860823
N     -3.455721    5.621727    0.949684
C     -4.235874    6.789942    1.209812
C     -4.046078    7.570700    2.481446
C     -5.298635    6.771777    2.272765
C     -2.684342    3.071720   -1.557788
C     -1.832424    1.986267   -1.778362
C     -0.938956   -1.076827   -0.541484
C     -1.653832   -1.827241   -1.491525
C     -2.349376   -2.981465   -1.117120
C     -2.349239   -3.396757    0.219403
C     -3.069684   -4.620813    0.662371
O     -2.640237   -5.276115    1.605759
N     -4.230493   -4.921209   -0.026236
C     -5.048481   -6.038299    0.325563
C     -4.932758   -7.332247   -0.430714
C     -6.163086   -6.486749   -0.579501
C     -1.633734   -2.664706    1.171742
C     -0.944194   -1.509598    0.796360
C      2.019798   -0.813633   -0.733713
C      3.434590   -0.700353   -0.136189
C      7.555686   -0.665403    0.102365
N      8.096372    0.029532    1.214041
O      9.328557    0.117178    1.274629
O      7.291604    0.434463    2.060107
H     10.190544   -2.044115   -0.652134
H      9.441850   -2.829789    0.753410
H      9.249109   -3.530498   -0.859200
H      3.721778    2.619904   -0.732355
H      3.196614    1.918548    0.803665
H      1.270053    2.469363   -0.582777
H      1.901099    1.555846   -1.957424
H     -0.054992    0.133960   -2.063435
H     -0.752439    1.507472    1.416694
H     -2.269698    3.388099    1.814090
H     -2.567668    5.531894    1.425321
H     -4.453952    7.365807    0.312035
H     -3.337546    7.211741    3.217715
H     -4.119701    8.650793    2.425532
H     -5.431855    5.863499    2.848252
H     -6.220146    7.303704    2.066219
H     -3.236951    3.500629   -2.392088
H     -1.739993    1.589962   -2.787319
H     -1.670288   -1.518548   -2.535005
H     -2.862335   -3.556521   -1.883010
H     -4.619409   -4.230079   -0.654693
H     -5.229712   -6.113723    1.396406
H     -4.237535   -7.380088   -1.260252
H     -5.005625   -8.251349    0.139146
H     -6.311446   -5.975672   -1.522752
H     -7.077895   -6.838225   -0.116081
H     -1.615394   -2.990181    2.210203
H     -0.396544   -0.952433    1.553746
H      2.099806   -0.899251   -1.825921
H      1.594672   -1.751954   -0.363613
H      3.384792   -0.738400    0.959677
H      4.022508   -1.562659   -0.452419
