      -----------------------------------------------------------      
     |                   =====================                   |     
     |                           x T B                           |     
     |                   =====================                   |     
     |                         S. Grimme                         |     
     |          Mulliken Center for Theoretical Chemistry        |     
     |                    University of Bonn                     |     
      -----------------------------------------------------------      

   * xtb version 6.7.1 (edcfbbe) compiled by 'VssAdministrator@runnervm171ch' on 2026-06-10

   xtb is free software: you can redistribute it and/or modify it under
   the terms of the GNU Lesser General Public License as published by
   the Free Software Foundation, either version 3 of the License, or
   (at your option) any later version.
   
   xtb is distributed in the hope that it will be useful,
   but WITHOUT ANY WARRANTY; without even the implied warranty of
   MERCHANTABILITY or FITNESS FOR A PARTICULAR PURPOSE.  See the
   GNU Lesser General Public License for more details.
   
   Cite this work as:
   * C. Bannwarth, E. Caldeweyher, S. Ehlert, A. Hansen, P. Pracht,
     J. Seibert, S. Spicher, S. Grimme, WIREs Comput. Mol. Sci., 2020, 11,
     e01493. DOI: 10.1002/wcms.1493
   
   for GFN2-xTB:
   * C. Bannwarth, S. Ehlert and S. Grimme., J. Chem. Theory Comput., 2019,
     15, 1652-1671. DOI: 10.1021/acs.jctc.8b01176
   for GFN1-xTB:
   * S. Grimme, C. Bannwarth, P. Shushkov, J. Chem. Theory Comput., 2017,
     13, 1989-2009. DOI: 10.1021/acs.jctc.7b00118
   for GFN0-xTB:
   * P. Pracht, E. Caldeweyher, S. Ehlert, S. Grimme, ChemRxiv, 2019, preprint.
     DOI: 10.26434/chemrxiv.8326202.v1
   for GFN-FF:
   * S. Spicher and S. Grimme, Angew. Chem. Int. Ed., 2020, 59, 15665-15673.
     DOI: 10.1002/anie.202004239
   
   for ALPB and GBSA implicit solvation:
   * S. Ehlert, M. Stahn, S. Spicher, S. Grimme, J. Chem. Theory Comput.,
     2021, 17, 4250-4261. DOI: 10.1021/acs.jctc.1c00471
   
   for ddCOSMO and CPCM-X implicit solvation:
   * M. Stahn, S. Ehlert, S. Grimme, J. Phys. Chem. A,
     2023, XX, XXXX-XXXX. DOI: 10.1021/acs.jpca.3c04382
   
   for DFT-D4:
   * E. Caldeweyher, C. Bannwarth and S. Grimme, J. Chem. Phys., 2017,
     147, 034112. DOI: 10.1063/1.4993215
   * E. Caldeweyher, S. Ehlert, A. Hansen, H. Neugebauer, S. Spicher,
     C. Bannwarth and S. Grimme, J. Chem. Phys., 2019, 150, 154122.
     DOI: 10.1063/1.5090222
   * E. Caldeweyher, J.-M. Mewes, S. Ehlert and S. Grimme, Phys. Chem. Chem. Phys.
     2020, 22, 8499-8512. DOI: 10.1039/D0CP00502A
   
   for sTDA-xTB:
   * S. Grimme and C. Bannwarth, J. Chem. Phys., 2016, 145, 054103.
     DOI: 10.1063/1.4959605
   
   in the mass-spec context:
   * V. Asgeirsson, C. Bauer and S. Grimme, Chem. Sci., 2017, 8, 4879.
     DOI: 10.1039/c7sc00601b
   * J. Koopman and S. Grimme, ACS Omega 2019, 4, 12, 15120-15133.
     DOI: 10.1021/acsomega.9b02011
   
   for metadynamics refer to:
   * S. Grimme, J. Chem. Theory Comput., 2019, 155, 2847-2862
     DOI: 10.1021/acs.jctc.9b00143
   
   for SPH calculations refer to:
   * S. Spicher and S. Grimme, J. Chem. Theory Comput., 2021, 17, 1701-1714
     DOI: 10.1021/acs.jctc.0c01306
   
   for ONIOM refer to:
   * C. Plett, A. Katbashev, S. Ehlert, S. Grimme, M. Bursch,
     Phys. Chem. Chem. Phys., 2023, 25, 17860-17868. DOI: 10.1039/D3CP02178E
   
   for DIPRO refer to:
   * J. Kohn, N. Gildemeister, S. Grimme, D. Fazzi, A. Hansen,
     J. Chem. Phys., 2023, just accepted.
   
   for PTB refer to:
   * S. Grimme, M. Mueller, A. Hansen, J. Chem. Phys., 2023, 158, 124111.
     DOI: 10.1063/5.0137838
   
   with help from (in alphabetical order)
   P. Atkinson, C. Bannwarth, F. Bohle, G. Brandenburg, E. Caldeweyher
   M. Checinski, S. Dohm, S. Ehlert, S. Ehrlich, I. Gerasimov, C. Hölzer
   A. Katbashev, J. Kohn, J. Koopman, C. Lavigne, S. Lehtola, F. März, M. Müller,
   F. Musil, H. Neugebauer, J. Pisarek, C. Plett, P. Pracht, F. Pultar,
   J. Seibert, P. Shushkov, S. Spicher, M. Stahn, M. Steiner, T. Strunk,
   J. Stückrath, T. Rose, and J. Unsleber
   
 * started run on 2026/08/28 at 18:28:13.892     
   ID    Z sym.   atoms
    1    6 C      1, 2, 5, 6, 9, 10, 12-17, 20-29, 32-39
    2    8 O      3, 7, 18, 30, 41, 42
    3    7 N      4, 8, 11, 19, 31, 40
    4    1 H      43-74

           -------------------------------------------------
          |                Calculation Setup                |
           -------------------------------------------------

          program call               : C:\Users\Christian\Miniconda3\Library\bin\xtb.exe S02.xyz --gfn 2 --opt --alpb water
          coordinate file            : S02.xyz
          omp threads                :                    12


           -------------------------------------------------
          |                 G F N 2 - x T B                 |
           -------------------------------------------------

        Reference                      10.1021/acs.jctc.8b01176
      * Hamiltonian:
        H0-scaling (s, p, d)           1.850000    2.230000    2.230000
        zeta-weighting                 0.500000
      * Dispersion:
        s8                             2.700000
        a1                             0.520000
        a2                             5.000000
        s9                             5.000000
      * Repulsion:
        kExp                           1.500000    1.000000
        rExp                           1.000000
      * Coulomb:
        alpha                          2.000000
        third order                    shell-resolved
        anisotropic                    true
        a3                             3.000000
        a5                             4.000000
        cn-shift                       1.200000
        cn-exp                         4.000000
        max-rad                        5.000000

      * Solvation model:               ALPB
        Solvent                        water
        Parameter file                 internal GFN2-xTB/ALPB
        Dielectric constant                8.0200E+01
        Reference state                gsolv [1 M gas/solution]
        Free energy shift                  1.0808E-03 Eh       6.7819E-01 kcal/mol
        Temperature                        2.9815E+02 K
        Density                            1.0000E+00 kg/L
        Solvent mass                       1.8000E+01 g/mol
        Interaction kernel             P16
        Born radius scaling (c1)           1.4744E+00
        Born radii integrator          GBOBC
        Born offset                        0.0000E+00 a0       0.0000E+00 AA
        H-bond correction              true
        Ion screening                  false
        Surface tension                    1.0000E-05 Eh       1.5569E+01 dyn/cm
        Grid points                               230 per atom

          ...................................................
          :                      SETUP                      :
          :.................................................:
          :  # basis functions                 200          :
          :  # atomic orbitals                 200          :
          :  # shells                          116          :
          :  # electrons                       218          :
          :  max. iterations                   250          :
          :  Hamiltonian                  GFN2-xTB          :
          :  restarted?                      false          :
          :  GBSA solvation                   true          :
          :  PC potential                    false          :
          :  electronic temp.          300.0000000     K    :
          :  accuracy                    1.0000000          :
          :  -> integral cutoff          0.2500000E+02      :
          :  -> integral neglect         0.1000000E-07      :
          :  -> SCF convergence          0.1000000E-05 Eh   :
          :  -> wf. convergence          0.1000000E-03 e    :
          :  Broyden damping             0.4000000          :
          :  net charge                          0          :
          :  unpaired electrons                  0          :
          ...................................................

 iter      E             dE          RMSdq      gap      omega  full diag
   1   -123.5966824 -0.123597E+03  0.446E+00    1.81       0.0  T
   2   -123.8718042 -0.275122E+00  0.238E+00    1.15       1.0  T
   3   -123.8798599 -0.805571E-02  0.115E+00    0.70       1.0  T
   4   -123.8867200 -0.686007E-02  0.460E-01    0.51       1.0  T
   5   -123.8948516 -0.813167E-02  0.943E-02    0.41       1.0  T
   6   -123.8949898 -0.138193E-03  0.508E-02    0.42       1.0  T
   7   -123.8950234 -0.335580E-04  0.262E-02    0.43       1.0  T
   8   -123.8950352 -0.117848E-04  0.812E-03    0.44       1.4  T
   9   -123.8950366 -0.137271E-05  0.411E-03    0.45       2.8  T
  10   -123.8950368 -0.196285E-06  0.205E-03    0.45       5.7  T
  11   -123.8950368 -0.689598E-07  0.816E-04    0.45      14.2  T
  12   -123.8950368 -0.144694E-07  0.358E-04    0.45      32.5  T

   *** convergence criteria satisfied after 12 iterations ***

         #    Occupation            Energy/Eh            Energy/eV
      -------------------------------------------------------------
         1        2.0000           -0.7946186             -21.6227
       ...           ...                  ...                  ...
       103        2.0000           -0.4040532             -10.9948
       104        2.0000           -0.4034121             -10.9774
       105        2.0000           -0.3977743             -10.8240
       106        2.0000           -0.3962725             -10.7831
       107        2.0000           -0.3924271             -10.6785
       108        2.0000           -0.3912513             -10.6465
       109        1.9996           -0.3630909              -9.8802 (HOMO)
       110        0.0004           -0.3466942              -9.4340 (LUMO)
       111                         -0.3069833              -8.3534
       112                         -0.2656777              -7.2295
       113                         -0.2570056              -6.9935
       114                         -0.2548921              -6.9360
       ...                                ...                  ...
       200                          0.6431072              17.4998
      -------------------------------------------------------------
                  HL-Gap            0.0163967 Eh            0.4462 eV
             Fermi-level           -0.3548926 Eh           -9.6571 eV

 SCC (total)                   0 d,  0 h,  0 min,  0.133 sec
 SCC setup                      ...        0 min,  0.002 sec (  1.244%)
 Dispersion                     ...        0 min,  0.003 sec (  1.885%)
 classical contributions        ...        0 min,  0.000 sec (  0.164%)
 integral evaluation            ...        0 min,  0.005 sec (  3.995%)
 iterations                     ...        0 min,  0.069 sec ( 51.718%)
 molecular gradient             ...        0 min,  0.054 sec ( 40.392%)
 printout                       ...        0 min,  0.001 sec (  0.575%)

         :::::::::::::::::::::::::::::::::::::::::::::::::::::
         ::                     SUMMARY                     ::
         :::::::::::::::::::::::::::::::::::::::::::::::::::::
         :: total energy            -122.385433202087 Eh    ::
         :: total w/o Gsasa/hb      -122.381357262105 Eh    ::
         :: gradient norm              0.126895812795 Eh/a0 ::
         :: HOMO-LUMO gap              0.446176786798 eV    ::
         ::.................................................::
         :: SCC energy              -123.895037152348 Eh    ::
         :: -> isotropic ES            0.236934059868 Eh    ::
         :: -> anisotropic ES          0.011337923539 Eh    ::
         :: -> anisotropic XC          0.052961968895 Eh    ::
         :: -> dispersion             -0.081145243836 Eh    ::
         :: -> Gsolv                  -0.051964741144 Eh    ::
         ::    -> Gelec               -0.047888801162 Eh    ::
         ::    -> Gsasa                0.003971351961 Eh    ::
         ::    -> Ghb                 -0.009128051641 Eh    ::
         ::    -> Gshift               0.001080759698 Eh    ::
         :: repulsion energy           1.509603950261 Eh    ::
         :: add. restraining           0.000000000000 Eh    ::
         :: total charge              -0.000000000000 e     ::
         :::::::::::::::::::::::::::::::::::::::::::::::::::::

      ----------------------------------------------------------- 
     |                   =====================                   |
     |                        A N C O P T                        |
     |                   =====================                   |
     |               Approximate Normal Coordinate               |
     |                Rational Function Optimizer                |
      ----------------------------------------------------------- 
      ----------------------------------------------------------- 
     |                   =====================                   |
     |                        A N C O P T                        |
     |                   =====================                   |
     |               Approximate Normal Coordinate               |
     |                Rational Function Optimizer                |
      ----------------------------------------------------------- 

          ...................................................
          :                      SETUP                      :
          :.................................................:
          :   optimization level            normal          :
          :   max. optcycles                   222          :
          :   ANC micro-cycles                  20          :
          :   degrees of freedom               216          :
          :.................................................:
          :   RF solver                   davidson          :
          :   write xtbopt.log                true          :
          :   linear?                        false          :
          :   energy convergence         0.5000000E-05 Eh   :
          :   grad. convergence          0.1000000E-02 Eh/α :
          :   maxmium RF displ.          1.0000000          :
          :   Hlow (freq-cutoff)         0.1000000E-01      :
          :   Hmax (freq-cutoff)         5.0000000          :
          :   S6 in model hess.         20.0000000          :
          ...................................................

generating ANC from exact Hessian ...
Using Lindh-Hessian (1995)
 Shifting diagonal of input Hessian by    9.9529983272641995E-003
 Lowest  eigenvalues of input Hessian
    0.000000    0.000000    0.000000    0.000000    0.000000    0.000000
    0.010000    0.010027    0.010055    0.010274    0.010397    0.010556
    0.010629    0.010845    0.010949    0.011161    0.011189    0.011481
 Highest eigenvalues
    2.004761    2.176845    2.249404    2.270945    2.272833    2.523276


........................................................................
.............................. CYCLE    1 ..............................
........................................................................

 iter      E             dE          RMSdq      gap      omega  full diag
   1   -123.8950368 -0.123895E+03  0.162E-04    0.45       0.0  T
   2   -123.8950368 -0.457234E-09  0.105E-04    0.45     110.7  T
   3   -123.8950368 -0.162530E-09  0.721E-05    0.45     161.2  T
     SCC iter.                  ...        0 min,  0.018 sec
     gradient                   ...        0 min,  0.020 sec
 * total energy  :  -122.3854332 Eh     change       -0.1620180E-08 Eh
   gradient norm :     0.1268934 Eh/α   predicted     0.0000000E+00 (-100.00%)
   displ. norm   :     0.3550992 α      lambda       -0.2278037E-01
   maximum displ.:     0.1263722 α      in ANC's #72, #16, #20, ...

........................................................................
.............................. CYCLE    2 ..............................
........................................................................

 iter      E             dE          RMSdq      gap      omega  full diag
   1   -123.9635151 -0.123964E+03  0.190E-01    0.68       0.0  T
   2   -123.9640272 -0.512094E-03  0.115E-01    0.73       1.0  T
   3   -123.9640582 -0.309689E-04  0.563E-02    0.73       1.0  T
   4   -123.9640724 -0.142599E-04  0.159E-02    0.74       1.0  T
   5   -123.9640844 -0.120180E-04  0.486E-03    0.74       2.4  T
   6   -123.9640849 -0.422934E-06  0.252E-03    0.74       4.6  T
   7   -123.9640849 -0.396389E-07  0.113E-03    0.74      10.3  T
   8   -123.9640849 -0.254523E-07  0.413E-04    0.74      28.1  T
   9   -123.9640849 -0.407709E-08  0.205E-04    0.74      56.7  T
     SCC iter.                  ...        0 min,  0.044 sec
     gradient                   ...        0 min,  0.018 sec
 * total energy  :  -122.4014931 Eh     change       -0.1605991E-01 Eh
   gradient norm :     0.0562514 Eh/α   predicted    -0.1284371E-01 ( -20.03%)
   displ. norm   :     0.4219078 α      lambda       -0.9113799E-02
   maximum displ.:     0.1960563 α      in ANC's #16, #20, #18, ...

........................................................................
.............................. CYCLE    3 ..............................
........................................................................

 iter      E             dE          RMSdq      gap      omega  full diag
   1   -124.0049669 -0.124005E+03  0.145E-01    0.81       0.0  T
   2   -124.0054421 -0.475230E-03  0.861E-02    0.87       1.0  T
   3   -124.0054820 -0.399283E-04  0.461E-02    0.87       1.0  T
   4   -124.0054812  0.814981E-06  0.151E-02    0.88       1.0  T
   5   -124.0054919 -0.107056E-04  0.375E-03    0.88       3.1  T
   6   -124.0054921 -0.224306E-06  0.196E-03    0.88       5.9  T
   7   -124.0054922 -0.309218E-07  0.941E-04    0.87      12.4  T
   8   -124.0054922 -0.145225E-07  0.343E-04    0.87      33.9  T
     SCC iter.                  ...        0 min,  0.048 sec
     gradient                   ...        0 min,  0.019 sec
 * total energy  :  -122.4068276 Eh     change       -0.5334438E-02 Eh
   gradient norm :     0.0209663 Eh/α   predicted    -0.5368056E-02 (   0.63%)
   displ. norm   :     0.4320348 α      lambda       -0.3873035E-02
   maximum displ.:     0.2413228 α      in ANC's #16, #18, #20, ...

........................................................................
.............................. CYCLE    4 ..............................
........................................................................

 iter      E             dE          RMSdq      gap      omega  full diag
   1   -124.0152278 -0.124015E+03  0.101E-01    0.81       0.0  T
   2   -124.0153349 -0.107076E-03  0.577E-02    0.85       1.0  T
   3   -124.0153387 -0.382681E-05  0.266E-02    0.86       1.0  T
   4   -124.0153435 -0.474421E-05  0.755E-03    0.87       1.5  T
   5   -124.0153463 -0.284500E-05  0.262E-03    0.87       4.4  T
   6   -124.0153464 -0.761987E-07  0.127E-03    0.87       9.2  T
   7   -124.0153464 -0.158559E-07  0.559E-04    0.87      20.8  T
   8   -124.0153464 -0.674913E-08  0.206E-04    0.87      56.4  T
     SCC iter.                  ...        0 min,  0.047 sec
     gradient                   ...        0 min,  0.020 sec
 * total energy  :  -122.4091875 Eh     change       -0.2359927E-02 Eh
   gradient norm :     0.0262685 Eh/α   predicted    -0.2297978E-02 (  -2.63%)
   displ. norm   :     0.4923761 α      lambda       -0.3258810E-02
   maximum displ.:     0.2878169 α      in ANC's #16, #32, #18, ...

........................................................................
.............................. CYCLE    5 ..............................
........................................................................

 iter      E             dE          RMSdq      gap      omega  full diag
   1   -124.0158475 -0.124016E+03  0.896E-02    0.80       0.0  T
   2   -124.0158852 -0.376477E-04  0.515E-02    0.82       1.0  T
   3   -124.0158842  0.973449E-06  0.174E-02    0.83       1.0  T
   4   -124.0158907 -0.647332E-05  0.544E-03    0.84       2.1  T
   5   -124.0158917 -0.106334E-05  0.259E-03    0.84       4.5  T
   6   -124.0158918 -0.569479E-07  0.111E-03    0.84      10.5  T
   7   -124.0158918 -0.161320E-07  0.416E-04    0.84      27.9  T
   8   -124.0158918 -0.448451E-08  0.176E-04    0.84      66.1  T
     SCC iter.                  ...        0 min,  0.043 sec
     gradient                   ...        0 min,  0.021 sec
 * total energy  :  -122.4117128 Eh     change       -0.2525329E-02 Eh
   gradient norm :     0.0203755 Eh/α   predicted    -0.2024434E-02 ( -19.83%)
   displ. norm   :     0.5547000 α      lambda       -0.2594409E-02
   maximum displ.:     0.3363908 α      in ANC's #16, #22, #32, ...

........................................................................
.............................. CYCLE    6 ..............................
........................................................................

 iter      E             dE          RMSdq      gap      omega  full diag
   1   -124.0162873 -0.124016E+03  0.101E-01    0.77       0.0  T
   2   -124.0163186 -0.312152E-04  0.589E-02    0.78       1.0  T
   3   -124.0163158  0.273428E-05  0.176E-02    0.79       1.0  T
   4   -124.0163252 -0.934840E-05  0.470E-03    0.79       2.5  T
   5   -124.0163256 -0.428461E-06  0.257E-03    0.79       4.5  T
   6   -124.0163256 -0.421809E-07  0.859E-04    0.79      13.5  T
   7   -124.0163257 -0.161913E-07  0.336E-04    0.79      34.5  T
     SCC iter.                  ...        0 min,  0.042 sec
     gradient                   ...        0 min,  0.020 sec
 * total energy  :  -122.4136447 Eh     change       -0.1931889E-02 Eh
   gradient norm :     0.0183202 Eh/α   predicted    -0.1696351E-02 ( -12.19%)
   displ. norm   :     0.5264643 α      lambda       -0.1755032E-02
   maximum displ.:     0.3185922 α      in ANC's #16, #22, #29, ...

........................................................................
.............................. CYCLE    7 ..............................
........................................................................

 iter      E             dE          RMSdq      gap      omega  full diag
   1   -124.0195012 -0.124020E+03  0.900E-02    0.80       0.0  T
   2   -124.0195194 -0.182057E-04  0.525E-02    0.79       1.0  T
   3   -124.0195151  0.428824E-05  0.155E-02    0.80       1.0  T
   4   -124.0195237 -0.863891E-05  0.375E-03    0.80       3.1  T
   5   -124.0195240 -0.272227E-06  0.193E-03    0.80       6.0  T
   6   -124.0195240 -0.204347E-07  0.714E-04    0.80      16.3  T
   7   -124.0195240 -0.570451E-08  0.273E-04    0.80      42.5  T
     SCC iter.                  ...        0 min,  0.036 sec
     gradient                   ...        0 min,  0.021 sec
 * total energy  :  -122.4150433 Eh     change       -0.1398588E-02 Eh
   gradient norm :     0.0164578 Eh/α   predicted    -0.1120740E-02 ( -19.87%)
   displ. norm   :     0.5634927 α      lambda       -0.1691723E-02
   maximum displ.:     0.3244403 α      in ANC's #16, #22, #24, ...

........................................................................
.............................. CYCLE    8 ..............................
........................................................................

 iter      E             dE          RMSdq      gap      omega  full diag
   1   -124.0254965 -0.124025E+03  0.932E-02    0.80       0.0  T
   2   -124.0255150 -0.185391E-04  0.550E-02    0.79       1.0  T
   3   -124.0255089  0.615505E-05  0.163E-02    0.80       1.0  T
   4   -124.0255204 -0.115124E-04  0.378E-03    0.80       3.1  T
   5   -124.0255206 -0.174317E-06  0.200E-03    0.80       5.8  T
   6   -124.0255206 -0.310710E-07  0.737E-04    0.80      15.8  T
   7   -124.0255206 -0.706758E-08  0.268E-04    0.80      43.4  T
     SCC iter.                  ...        0 min,  0.043 sec
     gradient                   ...        0 min,  0.018 sec
 * total energy  :  -122.4164017 Eh     change       -0.1358412E-02 Eh
   gradient norm :     0.0122494 Eh/α   predicted    -0.1114451E-02 ( -17.96%)
   displ. norm   :     0.6179587 α      lambda       -0.1543412E-02
   maximum displ.:     0.3311406 α      in ANC's #16, #22, #20, ...

........................................................................
.............................. CYCLE    9 ..............................
........................................................................

 iter      E             dE          RMSdq      gap      omega  full diag
   1   -124.0276376 -0.124028E+03  0.111E-01    0.80       0.0  T
   2   -124.0276853 -0.476890E-04  0.642E-02    0.80       1.0  T
   3   -124.0276835  0.183302E-05  0.219E-02    0.80       1.0  T
   4   -124.0276922 -0.871443E-05  0.480E-03    0.80       2.4  T
   5   -124.0276929 -0.729680E-06  0.240E-03    0.80       4.9  T
   6   -124.0276930 -0.369315E-07  0.919E-04    0.80      12.7  T
   7   -124.0276930 -0.157981E-07  0.359E-04    0.80      32.4  T
     SCC iter.                  ...        0 min,  0.036 sec
     gradient                   ...        0 min,  0.021 sec
 * total energy  :  -122.4175074 Eh     change       -0.1105660E-02 Eh
   gradient norm :     0.0160752 Eh/α   predicted    -0.1066406E-02 (  -3.55%)
   displ. norm   :     0.5512208 α      lambda       -0.1397983E-02
   maximum displ.:     0.2505313 α      in ANC's #16, #22, #20, ...

........................................................................
.............................. CYCLE   10 ..............................
........................................................................

 iter      E             dE          RMSdq      gap      omega  full diag
   1   -124.0334775 -0.124033E+03  0.996E-02    0.80       0.0  T
   2   -124.0335415 -0.639774E-04  0.582E-02    0.79       1.0  T
   3   -124.0335427 -0.122765E-05  0.230E-02    0.79       1.0  T
   4   -124.0335511 -0.834669E-05  0.392E-03    0.79       3.0  T
   5   -124.0335513 -0.220164E-06  0.212E-03    0.79       5.5  T
   6   -124.0335513 -0.400793E-07  0.940E-04    0.79      12.4  T
   7   -124.0335513 -0.176027E-07  0.392E-04    0.79      29.6  T
     SCC iter.                  ...        0 min,  0.036 sec
     gradient                   ...        0 min,  0.020 sec
 * total energy  :  -122.4182372 Eh     change       -0.7298525E-03 Eh
   gradient norm :     0.0146372 Eh/α   predicted    -0.9113847E-03 (  24.87%)
   displ. norm   :     0.4707120 α      lambda       -0.7072602E-03
   maximum displ.:     0.2371306 α      in ANC's #16, #22, #9, ...

........................................................................
.............................. CYCLE   11 ..............................
........................................................................

 iter      E             dE          RMSdq      gap      omega  full diag
   1   -124.0256273 -0.124026E+03  0.883E-02    0.71       0.0  T
   2   -124.0256608 -0.335661E-04  0.515E-02    0.72       1.0  T
   3   -124.0256592  0.162415E-05  0.170E-02    0.73       1.0  T
   4   -124.0256662 -0.702865E-05  0.432E-03    0.73       2.7  T
   5   -124.0256667 -0.479849E-06  0.228E-03    0.73       5.1  T
   6   -124.0256668 -0.725592E-07  0.115E-03    0.73      10.2  T
   7   -124.0256668 -0.162966E-07  0.385E-04    0.73      30.2  T
   8   -124.0256668 -0.345479E-08  0.161E-04    0.73      72.0  T
     SCC iter.                  ...        0 min,  0.047 sec
     gradient                   ...        0 min,  0.022 sec
 * total energy  :  -122.4185744 Eh     change       -0.3372253E-03 Eh
   gradient norm :     0.0149800 Eh/α   predicted    -0.4319899E-03 (  28.10%)
   displ. norm   :     0.2667804 α      lambda       -0.6857271E-03
   maximum displ.:     0.1092194 α      in ANC's #9, #22, #8, ...

........................................................................
.............................. CYCLE   12 ..............................
........................................................................

 iter      E             dE          RMSdq      gap      omega  full diag
   1   -124.0298120 -0.124030E+03  0.642E-02    0.85       0.0  T
   2   -124.0298895 -0.775306E-04  0.350E-02    0.84       1.0  T
   3   -124.0298941 -0.457707E-05  0.186E-02    0.83       1.0  T
   4   -124.0298951 -0.962657E-06  0.574E-03    0.83       2.0  T
   5   -124.0298957 -0.659220E-06  0.211E-03    0.83       5.5  T
   6   -124.0298958 -0.104710E-06  0.107E-03    0.83      10.8  T
   7   -124.0298958 -0.711010E-08  0.456E-04    0.83      25.5  T
   8   -124.0298958 -0.438918E-08  0.194E-04    0.83      59.9  T
     SCC iter.                  ...        0 min,  0.039 sec
     gradient                   ...        0 min,  0.019 sec
 * total energy  :  -122.4187266 Eh     change       -0.1522047E-03 Eh
   gradient norm :     0.0202324 Eh/α   predicted    -0.3672698E-03 ( 141.30%)
   displ. norm   :     0.1486283 α      lambda       -0.5559004E-03
   maximum displ.:     0.0585699 α      in ANC's #9, #7, #22, ...

........................................................................
.............................. CYCLE   13 ..............................
........................................................................

 iter      E             dE          RMSdq      gap      omega  full diag
   1   -124.0328316 -0.124033E+03  0.348E-02    0.75       0.0  T
   2   -124.0328512 -0.196152E-04  0.195E-02    0.76       1.0  T
   3   -124.0328528 -0.161377E-05  0.992E-03    0.77       1.2  T
   4   -124.0328535 -0.651330E-06  0.302E-03    0.77       3.9  T
   5   -124.0328536 -0.125148E-06  0.111E-03    0.77      10.4  T
   6   -124.0328536 -0.811021E-08  0.584E-04    0.77      19.9  T
   7   -124.0328536 -0.459887E-08  0.233E-04    0.77      50.0  T
     SCC iter.                  ...        0 min,  0.042 sec
     gradient                   ...        0 min,  0.020 sec
 * total energy  :  -122.4190898 Eh     change       -0.3631257E-03 Eh
   gradient norm :     0.0079005 Eh/α   predicted    -0.2840905E-03 ( -21.77%)
   displ. norm   :     0.3877116 α      lambda       -0.4498514E-03
   maximum displ.:     0.1603334 α      in ANC's #22, #9, #7, ...

........................................................................
.............................. CYCLE   14 ..............................
........................................................................

 iter      E             dE          RMSdq      gap      omega  full diag
   1   -124.0296913 -0.124030E+03  0.712E-02    0.73       0.0  T
   2   -124.0297455 -0.541514E-04  0.396E-02    0.73       1.0  T
   3   -124.0297482 -0.274285E-05  0.181E-02    0.74       1.0  T
   4   -124.0297497 -0.144120E-05  0.297E-03    0.74       3.9  T
   5   -124.0297499 -0.220896E-06  0.153E-03    0.74       7.6  T
   6   -124.0297499 -0.225854E-07  0.666E-04    0.74      17.4  T
   7   -124.0297499 -0.934405E-08  0.292E-04    0.74      39.8  T
     SCC iter.                  ...        0 min,  0.038 sec
     gradient                   ...        0 min,  0.023 sec
 * total energy  :  -122.4193360 Eh     change       -0.2462566E-03 Eh
   gradient norm :     0.0117912 Eh/α   predicted    -0.2587365E-03 (   5.07%)
   displ. norm   :     0.3454053 α      lambda       -0.3682701E-03
   maximum displ.:     0.1490530 α      in ANC's #9, #7, #22, ...

........................................................................
.............................. CYCLE   15 ..............................
........................................................................

 iter      E             dE          RMSdq      gap      omega  full diag
   1   -124.0311559 -0.124031E+03  0.528E-02    0.72       0.0  T
   2   -124.0311635 -0.757037E-05  0.309E-02    0.72       1.0  T
   3   -124.0311637 -0.167883E-06  0.695E-03    0.72       1.7  T
   4   -124.0311643 -0.633575E-06  0.168E-03    0.72       6.9  T
   5   -124.0311644 -0.619544E-07  0.995E-04    0.72      11.7  T
   6   -124.0311644 -0.154416E-07  0.338E-04    0.72      34.4  T
     SCC iter.                  ...        0 min,  0.031 sec
     gradient                   ...        0 min,  0.021 sec
 * total energy  :  -122.4196157 Eh     change       -0.2797150E-03 Eh
   gradient norm :     0.0111046 Eh/α   predicted    -0.2061043E-03 ( -26.32%)
   displ. norm   :     0.4460478 α      lambda       -0.4888942E-03
   maximum displ.:     0.1750003 α      in ANC's #9, #7, #13, ...

........................................................................
.............................. CYCLE   16 ..............................
........................................................................

 iter      E             dE          RMSdq      gap      omega  full diag
   1   -124.0343651 -0.124034E+03  0.647E-02    0.76       0.0  T
   2   -124.0343771 -0.119464E-04  0.378E-02    0.76       1.0  T
   3   -124.0343769  0.223710E-06  0.883E-03    0.75       1.3  T
   4   -124.0343783 -0.141316E-05  0.233E-03    0.75       5.0  T
   5   -124.0343784 -0.178411E-06  0.113E-03    0.75      10.3  T
   6   -124.0343785 -0.152854E-07  0.508E-04    0.75      22.9  T
   7   -124.0343785 -0.182952E-08  0.190E-04    0.75      61.1  T
     SCC iter.                  ...        0 min,  0.044 sec
     gradient                   ...        0 min,  0.021 sec
 * total energy  :  -122.4199573 Eh     change       -0.3415455E-03 Eh
   gradient norm :     0.0081693 Eh/α   predicted    -0.2930828E-03 ( -14.19%)
   displ. norm   :     0.4818937 α      lambda       -0.3290703E-03
   maximum displ.:     0.1939032 α      in ANC's #9, #7, #13, ...

........................................................................
.............................. CYCLE   17 ..............................
........................................................................

 iter      E             dE          RMSdq      gap      omega  full diag
   1   -124.0313698 -0.124031E+03  0.683E-02    0.76       0.0  T
   2   -124.0313765 -0.673412E-05  0.400E-02    0.76       1.0  T
   3   -124.0313759  0.631580E-06  0.751E-03    0.76       1.5  T
   4   -124.0313776 -0.178277E-05  0.215E-03    0.76       5.4  T
   5   -124.0313777 -0.111935E-06  0.115E-03    0.76      10.1  T
   6   -124.0313778 -0.664900E-08  0.350E-04    0.76      33.3  T
   7   -124.0313778 -0.336937E-08  0.154E-04    0.76      75.3  T
     SCC iter.                  ...        0 min,  0.034 sec
     gradient                   ...        0 min,  0.019 sec
 * total energy  :  -122.4201851 Eh     change       -0.2278176E-03 Eh
   gradient norm :     0.0078092 Eh/α   predicted    -0.2027448E-03 ( -11.01%)
   displ. norm   :     0.3861149 α      lambda       -0.3061059E-03
   maximum displ.:     0.1554741 α      in ANC's #13, #7, #6, ...

........................................................................
.............................. CYCLE   18 ..............................
........................................................................

 iter      E             dE          RMSdq      gap      omega  full diag
   1   -124.0342255 -0.124034E+03  0.536E-02    0.78       0.0  T
   2   -124.0342292 -0.362076E-05  0.314E-02    0.77       1.0  T
   3   -124.0342282  0.970527E-06  0.627E-03    0.77       1.9  T
   4   -124.0342299 -0.168513E-05  0.168E-03    0.77       6.9  T
   5   -124.0342299 -0.736771E-07  0.803E-04    0.77      14.5  T
   6   -124.0342299 -0.244695E-08  0.233E-04    0.77      50.0  T
     SCC iter.                  ...        0 min,  0.039 sec
     gradient                   ...        0 min,  0.018 sec
 * total energy  :  -122.4203932 Eh     change       -0.2081165E-03 Eh
   gradient norm :     0.0071546 Eh/α   predicted    -0.1758714E-03 ( -15.49%)
   displ. norm   :     0.4997544 α      lambda       -0.2923119E-03
   maximum displ.:     0.2087456 α      in ANC's #13, #9, #7, ...

........................................................................
.............................. CYCLE   19 ..............................
........................................................................

 iter      E             dE          RMSdq      gap      omega  full diag
   1   -124.0303074 -0.124030E+03  0.712E-02    0.75       0.0  T
   2   -124.0303287 -0.212862E-04  0.413E-02    0.75       1.0  T
   3   -124.0303290 -0.286371E-06  0.127E-02    0.76       1.0  T
   4   -124.0303305 -0.148172E-05  0.293E-03    0.76       4.0  T
   5   -124.0303308 -0.292075E-06  0.143E-03    0.76       8.2  T
   6   -124.0303308 -0.137417E-07  0.476E-04    0.76      24.4  T
   7   -124.0303308 -0.197083E-08  0.201E-04    0.76      57.9  T
     SCC iter.                  ...        0 min,  0.035 sec
     gradient                   ...        0 min,  0.020 sec
 * total energy  :  -122.4205436 Eh     change       -0.1503746E-03 Eh
   gradient norm :     0.0094516 Eh/α   predicted    -0.1826609E-03 (  21.47%)
   displ. norm   :     0.2706510 α      lambda       -0.2794506E-03
   maximum displ.:     0.1248506 α      in ANC's #13, #6, #5, ...

........................................................................
.............................. CYCLE   20 ..............................
........................................................................

 iter      E             dE          RMSdq      gap      omega  full diag
   1   -124.0353748 -0.124035E+03  0.483E-02    0.78       0.0  T
   2   -124.0353859 -0.110393E-04  0.278E-02    0.78       1.0  T
   3   -124.0353857  0.173382E-06  0.932E-03    0.77       1.2  T
   4   -124.0353866 -0.921245E-06  0.188E-03    0.77       6.2  T
   5   -124.0353868 -0.183179E-06  0.752E-04    0.77      15.5  T
   6   -124.0353868 -0.492874E-08  0.344E-04    0.77      33.8  T
     SCC iter.                  ...        0 min,  0.036 sec
     gradient                   ...        0 min,  0.021 sec
 * total energy  :  -122.4207103 Eh     change       -0.1667095E-03 Eh
   gradient norm :     0.0070839 Eh/α   predicted    -0.1499638E-03 ( -10.04%)
   displ. norm   :     0.3109096 α      lambda       -0.2428038E-03
   maximum displ.:     0.1486931 α      in ANC's #13, #6, #5, ...
 * RMSD in coord.:     0.7438037 α      energy gain  -0.3527710E-01 Eh

generating ANC from exact Hessian ...
Using Lindh-Hessian (1995)
 Shifting diagonal of input Hessian by    9.9535098553157949E-003
 Lowest  eigenvalues of input Hessian
    0.000000    0.000000    0.000000    0.000000    0.000000    0.000000
    0.010000    0.010027    0.010074    0.010296    0.010380    0.010508
    0.010654    0.011036    0.011071    0.011231    0.011372    0.011579
 Highest eigenvalues
    2.106844    2.314019    2.314818    2.330411    2.351692    2.644890


........................................................................
.............................. CYCLE   21 ..............................
........................................................................

 iter      E             dE          RMSdq      gap      omega  full diag
   1   -124.0322718 -0.124032E+03  0.538E-02    0.77       0.0  T
   2   -124.0322872 -0.154543E-04  0.309E-02    0.78       1.0  T
   3   -124.0322872  0.717785E-08  0.106E-02    0.78       1.1  T
   4   -124.0322883 -0.106127E-05  0.207E-03    0.78       5.6  T
   5   -124.0322885 -0.199990E-06  0.907E-04    0.78      12.8  T
   6   -124.0322885 -0.933228E-08  0.399E-04    0.78      29.1  T
     SCC iter.                  ...        0 min,  0.030 sec
     gradient                   ...        0 min,  0.020 sec
 * total energy  :  -122.4207971 Eh     change       -0.8681012E-04 Eh
   gradient norm :     0.0102900 Eh/α   predicted     0.0000000E+00 (-100.00%)
   displ. norm   :     0.0599016 α      lambda       -0.1782855E-03
   maximum displ.:     0.0272899 α      in ANC's #6, #5, #15, ...

........................................................................
.............................. CYCLE   22 ..............................
........................................................................

 iter      E             dE          RMSdq      gap      omega  full diag
   1   -124.0343269 -0.124034E+03  0.168E-02    0.77       0.0  T
   2   -124.0343301 -0.326716E-05  0.960E-03    0.77       1.2  T
   3   -124.0343303 -0.141529E-06  0.465E-03    0.77       2.5  T
   4   -124.0343304 -0.969285E-07  0.118E-03    0.77       9.9  T
   5   -124.0343305 -0.720501E-07  0.395E-04    0.77      29.4  T
   6   -124.0343305 -0.101416E-08  0.201E-04    0.77      57.9  T
     SCC iter.                  ...        0 min,  0.031 sec
     gradient                   ...        0 min,  0.021 sec
 * total energy  :  -122.4209203 Eh     change       -0.1231960E-03 Eh
   gradient norm :     0.0040137 Eh/α   predicted    -0.8946302E-04 ( -27.38%)
   displ. norm   :     0.1208555 α      lambda       -0.1531604E-03
   maximum displ.:     0.0576612 α      in ANC's #6, #5, #15, ...

........................................................................
.............................. CYCLE   23 ..............................
........................................................................

 iter      E             dE          RMSdq      gap      omega  full diag
   1   -124.0361891 -0.124036E+03  0.247E-02    0.77       0.0  T
   2   -124.0361939 -0.476797E-05  0.142E-02    0.77       1.0  T
   3   -124.0361939 -0.418273E-07  0.617E-03    0.77       1.9  T
   4   -124.0361942 -0.311542E-06  0.153E-03    0.77       7.6  T
   5   -124.0361944 -0.129884E-06  0.491E-04    0.77      23.7  T
   6   -124.0361944 -0.868113E-09  0.230E-04    0.77      50.6  T
     SCC iter.                  ...        0 min,  0.031 sec
     gradient                   ...        0 min,  0.019 sec
 * total energy  :  -122.4209943 Eh     change       -0.7397970E-04 Eh
   gradient norm :     0.0051435 Eh/α   predicted    -0.7772079E-04 (   5.06%)
   displ. norm   :     0.1087773 α      lambda       -0.8967967E-04
   maximum displ.:     0.0528222 α      in ANC's #6, #5, #15, ...

........................................................................
.............................. CYCLE   24 ..............................
........................................................................

 iter      E             dE          RMSdq      gap      omega  full diag
   1   -124.0361068 -0.124036E+03  0.184E-02    0.77       0.0  T
   2   -124.0361072 -0.485119E-06  0.108E-02    0.77       1.1  T
   3   -124.0361072  0.675779E-07  0.213E-03    0.77       5.5  T
   4   -124.0361073 -0.145860E-06  0.658E-04    0.77      17.7  T
   5   -124.0361073 -0.143835E-07  0.322E-04    0.77      36.1  T
     SCC iter.                  ...        0 min,  0.030 sec
     gradient                   ...        0 min,  0.022 sec
 * total energy  :  -122.4210598 Eh     change       -0.6553294E-04 Eh
   gradient norm :     0.0054750 Eh/α   predicted    -0.4537593E-04 ( -30.76%)
   displ. norm   :     0.1909007 α      lambda       -0.1144279E-03
   maximum displ.:     0.0921769 α      in ANC's #6, #5, #15, ...

........................................................................
.............................. CYCLE   25 ..............................
........................................................................

 iter      E             dE          RMSdq      gap      omega  full diag
   1   -124.0350785 -0.124035E+03  0.298E-02    0.76       0.0  T
   2   -124.0350790 -0.467354E-06  0.175E-02    0.76       1.0  T
   3   -124.0350789  0.986102E-07  0.222E-03    0.76       5.2  T
   4   -124.0350791 -0.257136E-06  0.744E-04    0.76      15.6  T
   5   -124.0350791 -0.421973E-08  0.386E-04    0.76      30.1  T
     SCC iter.                  ...        0 min,  0.024 sec
     gradient                   ...        0 min,  0.020 sec
 * total energy  :  -122.4211498 Eh     change       -0.8994009E-04 Eh
   gradient norm :     0.0042778 Eh/α   predicted    -0.5929928E-04 ( -34.07%)
   displ. norm   :     0.2837424 α      lambda       -0.1284989E-03
   maximum displ.:     0.1361510 α      in ANC's #6, #5, #14, ...

........................................................................
.............................. CYCLE   26 ..............................
........................................................................

 iter      E             dE          RMSdq      gap      omega  full diag
   1   -124.0337003 -0.124034E+03  0.431E-02    0.76       0.0  T
   2   -124.0337014 -0.118554E-05  0.254E-02    0.76       1.0  T
   3   -124.0337012  0.208433E-06  0.317E-03    0.76       3.7  T
   4   -124.0337017 -0.480187E-06  0.106E-03    0.76      11.0  T
   5   -124.0337017 -0.263129E-07  0.583E-04    0.76      20.0  T
   6   -124.0337017 -0.234694E-08  0.181E-04    0.76      64.3  T
     SCC iter.                  ...        0 min,  0.036 sec
     gradient                   ...        0 min,  0.022 sec
 * total energy  :  -122.4212445 Eh     change       -0.9477628E-04 Eh
   gradient norm :     0.0038160 Eh/α   predicted    -0.6942328E-04 ( -26.75%)
   displ. norm   :     0.2710520 α      lambda       -0.9606552E-04
   maximum displ.:     0.1300263 α      in ANC's #6, #5, #14, ...

........................................................................
.............................. CYCLE   27 ..............................
........................................................................

 iter      E             dE          RMSdq      gap      omega  full diag
   1   -124.0331132 -0.124033E+03  0.407E-02    0.76       0.0  T
   2   -124.0331142 -0.990111E-06  0.239E-02    0.76       1.0  T
   3   -124.0331139  0.247574E-06  0.303E-03    0.76       3.8  T
   4   -124.0331144 -0.446466E-06  0.998E-04    0.76      11.7  T
   5   -124.0331144 -0.336169E-07  0.506E-04    0.76      23.0  T
     SCC iter.                  ...        0 min,  0.025 sec
     gradient                   ...        0 min,  0.020 sec
 * total energy  :  -122.4213190 Eh     change       -0.7448423E-04 Eh
   gradient norm :     0.0044122 Eh/α   predicted    -0.5156325E-04 ( -30.77%)
   displ. norm   :     0.3012939 α      lambda       -0.1115409E-03
   maximum displ.:     0.1437459 α      in ANC's #6, #5, #14, ...

........................................................................
.............................. CYCLE   28 ..............................
........................................................................

 iter      E             dE          RMSdq      gap      omega  full diag
   1   -124.0333584 -0.124033E+03  0.451E-02    0.76       0.0  T
   2   -124.0333594 -0.100510E-05  0.265E-02    0.76       1.0  T
   3   -124.0333590  0.427049E-06  0.351E-03    0.77       3.3  T
   4   -124.0333596 -0.678810E-06  0.104E-03    0.76      11.1  T
   5   -124.0333597 -0.328546E-07  0.526E-04    0.76      22.1  T
   6   -124.0333597 -0.905573E-09  0.177E-04    0.76      65.7  T
     SCC iter.                  ...        0 min,  0.038 sec
     gradient                   ...        0 min,  0.020 sec
 * total energy  :  -122.4214057 Eh     change       -0.8669201E-04 Eh
   gradient norm :     0.0047032 Eh/α   predicted    -0.6084023E-04 ( -29.82%)
   displ. norm   :     0.3232150 α      lambda       -0.1246415E-03
   maximum displ.:     0.1516947 α      in ANC's #6, #5, #14, ...

........................................................................
.............................. CYCLE   29 ..............................
........................................................................

 iter      E             dE          RMSdq      gap      omega  full diag
   1   -124.0340872 -0.124034E+03  0.487E-02    0.77       0.0  T
   2   -124.0340880 -0.852462E-06  0.286E-02    0.77       1.0  T
   3   -124.0340874  0.626596E-06  0.403E-03    0.77       2.9  T
   4   -124.0340884 -0.983818E-06  0.105E-03    0.77      11.0  T
   5   -124.0340884 -0.117376E-07  0.548E-04    0.77      21.2  T
   6   -124.0340884 -0.261562E-08  0.174E-04    0.77      66.6  T
     SCC iter.                  ...        0 min,  0.029 sec
     gradient                   ...        0 min,  0.021 sec
 * total energy  :  -122.4215020 Eh     change       -0.9625341E-04 Eh
   gradient norm :     0.0043193 Eh/α   predicted    -0.6883181E-04 ( -28.49%)
   displ. norm   :     0.3552603 α      lambda       -0.1259445E-03
   maximum displ.:     0.1689342 α      in ANC's #5, #14, #6, ...

........................................................................
.............................. CYCLE   30 ..............................
........................................................................

 iter      E             dE          RMSdq      gap      omega  full diag
   1   -124.0341727 -0.124034E+03  0.535E-02    0.77       0.0  T
   2   -124.0341738 -0.108722E-05  0.314E-02    0.77       1.0  T
   3   -124.0341732  0.594182E-06  0.423E-03    0.77       2.7  T
   4   -124.0341743 -0.105859E-05  0.127E-03    0.77       9.1  T
   5   -124.0341743 -0.157392E-07  0.643E-04    0.77      18.1  T
   6   -124.0341743 -0.432645E-08  0.182E-04    0.77      63.8  T
     SCC iter.                  ...        0 min,  0.046 sec
     gradient                   ...        0 min,  0.020 sec
 * total energy  :  -122.4216029 Eh     change       -0.1009521E-03 Eh
   gradient norm :     0.0037978 Eh/α   predicted    -0.7092302E-04 ( -29.75%)
   displ. norm   :     0.4103454 α      lambda       -0.1548320E-03
   maximum displ.:     0.2009534 α      in ANC's #14, #5, #6, ...

........................................................................
.............................. CYCLE   31 ..............................
........................................................................

 iter      E             dE          RMSdq      gap      omega  full diag
   1   -124.0343307 -0.124034E+03  0.624E-02    0.78       0.0  T
   2   -124.0343323 -0.169857E-05  0.366E-02    0.77       1.0  T
   3   -124.0343319  0.400841E-06  0.446E-03    0.77       2.6  T
   4   -124.0343330 -0.106765E-05  0.166E-03    0.77       7.0  T
   5   -124.0343331 -0.360426E-07  0.821E-04    0.77      14.2  T
   6   -124.0343331 -0.618621E-08  0.208E-04    0.77      55.8  T
     SCC iter.                  ...        0 min,  0.034 sec
     gradient                   ...        0 min,  0.023 sec
 * total energy  :  -122.4217220 Eh     change       -0.1190852E-03 Eh
   gradient norm :     0.0038882 Eh/α   predicted    -0.9045233E-04 ( -24.04%)
   displ. norm   :     0.4494551 α      lambda       -0.1376550E-03
   maximum displ.:     0.2217297 α      in ANC's #5, #14, #6, ...

........................................................................
.............................. CYCLE   32 ..............................
........................................................................

 iter      E             dE          RMSdq      gap      omega  full diag
   1   -124.0315489 -0.124032E+03  0.682E-02    0.78       0.0  T
   2   -124.0315507 -0.179056E-05  0.400E-02    0.77       1.0  T
   3   -124.0315505  0.187551E-06  0.418E-03    0.77       2.8  T
   4   -124.0315514 -0.863656E-06  0.170E-03    0.77       6.8  T
   5   -124.0315514 -0.446079E-07  0.850E-04    0.77      13.7  T
   6   -124.0315514 -0.597146E-08  0.201E-04    0.77      57.8  T
     SCC iter.                  ...        0 min,  0.035 sec
     gradient                   ...        0 min,  0.020 sec
 * total energy  :  -122.4218133 Eh     change       -0.9132478E-04 Eh
   gradient norm :     0.0055240 Eh/α   predicted    -0.8273189E-04 (  -9.41%)
   displ. norm   :     0.3609968 α      lambda       -0.2499535E-03
   maximum displ.:     0.1406038 α      in ANC's #5, #14, #11, ...

........................................................................
.............................. CYCLE   33 ..............................
........................................................................

 iter      E             dE          RMSdq      gap      omega  full diag
   1   -124.0396845 -0.124040E+03  0.624E-02    0.77       0.0  T
   2   -124.0396888 -0.430734E-05  0.364E-02    0.77       1.0  T
   3   -124.0396882  0.598319E-06  0.597E-03    0.77       1.9  T
   4   -124.0396897 -0.152672E-05  0.195E-03    0.77       6.0  T
   5   -124.0396898 -0.747925E-07  0.102E-03    0.77      11.4  T
   6   -124.0396898 -0.609019E-08  0.285E-04    0.77      40.8  T
   7   -124.0396898 -0.191453E-08  0.121E-04    0.77      95.8  T
     SCC iter.                  ...        0 min,  0.041 sec
     gradient                   ...        0 min,  0.020 sec
 * total energy  :  -122.4217975 Eh     change        0.1578217E-04 Eh
   gradient norm :     0.0091939 Eh/α   predicted    -0.1412636E-03 (-995.08%)
   displ. norm   :     0.2229678 α      lambda       -0.2539866E-03
   maximum displ.:     0.1086473 α      in ANC's #5, #6, #14, ...

........................................................................
.............................. CYCLE   34 ..............................
........................................................................

 iter      E             dE          RMSdq      gap      omega  full diag
   1   -124.0336552 -0.124034E+03  0.381E-02    0.77       0.0  T
   2   -124.0336561 -0.892312E-06  0.225E-02    0.77       1.0  T
   3   -124.0336560  0.118120E-06  0.270E-03    0.77       4.3  T
   4   -124.0336564 -0.345878E-06  0.888E-04    0.77      13.1  T
   5   -124.0336564 -0.982249E-08  0.502E-04    0.77      23.2  T
     SCC iter.                  ...        0 min,  0.027 sec
     gradient                   ...        0 min,  0.021 sec
 * total energy  :  -122.4219409 Eh     change       -0.1433804E-03 Eh
   gradient norm :     0.0045000 Eh/α   predicted    -0.1333072E-03 (  -7.03%)
   displ. norm   :     0.0436253 α      lambda       -0.5115963E-04
   maximum displ.:     0.0192553 α      in ANC's #5, #16, #15, ...

........................................................................
.............................. CYCLE   35 ..............................
........................................................................

 iter      E             dE          RMSdq      gap      omega  full diag
   1   -124.0345032 -0.124035E+03  0.994E-03    0.77       0.0  T
   2   -124.0345037 -0.470974E-06  0.585E-03    0.77       2.0  T
   3   -124.0345037  0.166910E-07  0.208E-03    0.77       5.6  T
   4   -124.0345038 -0.820503E-07  0.581E-04    0.77      20.0  T
   5   -124.0345038 -0.124768E-07  0.279E-04    0.77      41.6  T
     SCC iter.                  ...        0 min,  0.034 sec
     gradient                   ...        0 min,  0.020 sec
 * total energy  :  -122.4219810 Eh     change       -0.4005035E-04 Eh
   gradient norm :     0.0034346 Eh/α   predicted    -0.2563226E-04 ( -36.00%)
   displ. norm   :     0.3436453 α      lambda       -0.1189130E-03
   maximum displ.:     0.1970949 α      in ANC's #5, #8, #6, ...

........................................................................
.............................. CYCLE   36 ..............................
........................................................................

 iter      E             dE          RMSdq      gap      omega  full diag
   1   -124.0335281 -0.124034E+03  0.544E-02    0.77       0.0  T
   2   -124.0335309 -0.274834E-05  0.319E-02    0.77       1.0  T
   3   -124.0335307  0.182309E-06  0.428E-03    0.77       2.7  T
   4   -124.0335313 -0.666839E-06  0.136E-03    0.77       8.5  T
   5   -124.0335314 -0.437571E-07  0.758E-04    0.77      15.3  T
   6   -124.0335314 -0.443140E-08  0.193E-04    0.77      60.3  T
     SCC iter.                  ...        0 min,  0.032 sec
     gradient                   ...        0 min,  0.022 sec
 * total energy  :  -122.4220541 Eh     change       -0.7310982E-04 Eh
   gradient norm :     0.0056468 Eh/α   predicted    -0.6647892E-04 (  -9.07%)
   displ. norm   :     0.1642310 α      lambda       -0.9012455E-04
   maximum displ.:     0.0879698 α      in ANC's #5, #16, #8, ...

........................................................................
.............................. CYCLE   37 ..............................
........................................................................

 iter      E             dE          RMSdq      gap      omega  full diag
   1   -124.0368321 -0.124037E+03  0.298E-02    0.77       0.0  T
   2   -124.0368329 -0.819921E-06  0.176E-02    0.77       1.0  T
   3   -124.0368329  0.441248E-07  0.254E-03    0.77       4.6  T
   4   -124.0368332 -0.278207E-06  0.918E-04    0.77      12.7  T
   5   -124.0368332 -0.591136E-08  0.492E-04    0.77      23.6  T
     SCC iter.                  ...        0 min,  0.035 sec
     gradient                   ...        0 min,  0.020 sec
 * total energy  :  -122.4221093 Eh     change       -0.5522400E-04 Eh
   gradient norm :     0.0053214 Eh/α   predicted    -0.4627809E-04 ( -16.20%)
   displ. norm   :     0.3927570 α      lambda       -0.9160534E-04
   maximum displ.:     0.2254336 α      in ANC's #5, #8, #6, ...

........................................................................
.............................. CYCLE   38 ..............................
........................................................................

 iter      E             dE          RMSdq      gap      omega  full diag
   1   -124.0349625 -0.124035E+03  0.603E-02    0.77       0.0  T
   2   -124.0349637 -0.125724E-05  0.354E-02    0.77       1.0  T
   3   -124.0349639 -0.150936E-06  0.293E-03    0.77       4.0  T
   4   -124.0349642 -0.349441E-06  0.139E-03    0.77       8.4  T
   5   -124.0349643 -0.218113E-07  0.679E-04    0.77      17.1  T
   6   -124.0349643 -0.582648E-08  0.187E-04    0.77      62.1  T
     SCC iter.                  ...        0 min,  0.030 sec
     gradient                   ...        0 min,  0.019 sec
 * total energy  :  -122.4221800 Eh     change       -0.7073436E-04 Eh
   gradient norm :     0.0045062 Eh/α   predicted    -0.5286924E-04 ( -25.26%)
   displ. norm   :     0.3779676 α      lambda       -0.1193182E-03
   maximum displ.:     0.2176797 α      in ANC's #5, #8, #6, ...

........................................................................
.............................. CYCLE   39 ..............................
........................................................................

 iter      E             dE          RMSdq      gap      omega  full diag
   1   -124.0346204 -0.124035E+03  0.610E-02    0.77       0.0  T
   2   -124.0346227 -0.230522E-05  0.357E-02    0.77       1.0  T
   3   -124.0346224  0.228628E-06  0.432E-03    0.77       2.7  T
   4   -124.0346233 -0.861762E-06  0.154E-03    0.77       7.6  T
   5   -124.0346233 -0.392021E-07  0.823E-04    0.77      14.1  T
   6   -124.0346233 -0.505723E-08  0.246E-04    0.77      47.3  T
     SCC iter.                  ...        0 min,  0.036 sec
     gradient                   ...        0 min,  0.020 sec
 * total energy  :  -122.4222533 Eh     change       -0.7321813E-04 Eh
   gradient norm :     0.0038356 Eh/α   predicted    -0.6818345E-04 (  -6.88%)
   displ. norm   :     0.2268300 α      lambda       -0.5785421E-04
   maximum displ.:     0.1396923 α      in ANC's #5, #8, #6, ...

........................................................................
.............................. CYCLE   40 ..............................
........................................................................

 iter      E             dE          RMSdq      gap      omega  full diag
   1   -124.0351656 -0.124035E+03  0.363E-02    0.77       0.0  T
   2   -124.0351668 -0.123964E-05  0.213E-02    0.77       1.0  T
   3   -124.0351667  0.974287E-07  0.294E-03    0.77       4.0  T
   4   -124.0351671 -0.366081E-06  0.982E-04    0.77      11.8  T
   5   -124.0351671 -0.136850E-07  0.529E-04    0.77      22.0  T
     SCC iter.                  ...        0 min,  0.027 sec
     gradient                   ...        0 min,  0.020 sec
 * total energy  :  -122.4222919 Eh     change       -0.3868124E-04 Eh
   gradient norm :     0.0041564 Eh/α   predicted    -0.3041632E-04 ( -21.37%)
   displ. norm   :     0.3074799 α      lambda       -0.7120207E-04
   maximum displ.:     0.1930627 α      in ANC's #5, #9, #6, ...

........................................................................
.............................. CYCLE   41 ..............................
........................................................................

 iter      E             dE          RMSdq      gap      omega  full diag
   1   -124.0355907 -0.124036E+03  0.499E-02    0.77       0.0  T
   2   -124.0355918 -0.106845E-05  0.293E-02    0.77       1.0  T
   3   -124.0355918 -0.120809E-07  0.306E-03    0.77       3.8  T
   4   -124.0355922 -0.417652E-06  0.127E-03    0.77       9.1  T
   5   -124.0355922 -0.142139E-07  0.542E-04    0.77      21.5  T
   6   -124.0355922 -0.283066E-08  0.135E-04    0.77      85.9  T
     SCC iter.                  ...        0 min,  0.033 sec
     gradient                   ...        0 min,  0.022 sec
 * total energy  :  -122.4223380 Eh     change       -0.4608326E-04 Eh
   gradient norm :     0.0035643 Eh/α   predicted    -0.3897037E-04 ( -15.43%)
   displ. norm   :     0.2546623 α      lambda       -0.6815716E-04
   maximum displ.:     0.1611400 α      in ANC's #5, #9, #6, ...

........................................................................
.............................. CYCLE   42 ..............................
........................................................................

 iter      E             dE          RMSdq      gap      omega  full diag
   1   -124.0369738 -0.124037E+03  0.432E-02    0.77       0.0  T
   2   -124.0369755 -0.163347E-05  0.252E-02    0.77       1.0  T
   3   -124.0369753  0.197803E-06  0.360E-03    0.77       3.2  T
   4   -124.0369758 -0.549094E-06  0.121E-03    0.77       9.6  T
   5   -124.0369759 -0.363013E-07  0.623E-04    0.77      18.7  T
   6   -124.0369759 -0.273094E-08  0.148E-04    0.77      78.3  T
     SCC iter.                  ...        0 min,  0.034 sec
     gradient                   ...        0 min,  0.021 sec
 * total energy  :  -122.4223725 Eh     change       -0.3450369E-04 Eh
   gradient norm :     0.0033361 Eh/α   predicted    -0.3628980E-04 (   5.18%)
   displ. norm   :     0.3488710 α      lambda       -0.6203691E-04
   maximum displ.:     0.2241402 α      in ANC's #5, #9, #6, ...
 * RMSD in coord.:     0.6014712 α      energy gain  -0.1662230E-02 Eh

generating ANC from exact Hessian ...
Using Lindh-Hessian (1995)
 Shifting diagonal of input Hessian by    9.9515712703176409E-003
 Lowest  eigenvalues of input Hessian
    0.000000    0.000000    0.000000    0.000000    0.000000    0.000000
    0.010000    0.010029    0.010069    0.010280    0.010381    0.010496
    0.010647    0.011043    0.011096    0.011284    0.011377    0.011597
 Highest eigenvalues
    2.106081    2.313835    2.325858    2.326662    2.348683    2.641690


........................................................................
.............................. CYCLE   43 ..............................
........................................................................

 iter      E             dE          RMSdq      gap      omega  full diag
   1   -124.0329302 -0.124033E+03  0.530E-02    0.76       0.0  T
   2   -124.0329316 -0.138744E-05  0.311E-02    0.77       1.0  T
   3   -124.0329318 -0.238112E-06  0.264E-03    0.77       4.4  T
   4   -124.0329320 -0.232636E-06  0.127E-03    0.77       9.2  T
   5   -124.0329320 -0.106143E-07  0.566E-04    0.77      20.6  T
   6   -124.0329321 -0.564177E-08  0.151E-04    0.77      77.2  T
     SCC iter.                  ...        0 min,  0.033 sec
     gradient                   ...        0 min,  0.022 sec
 * total energy  :  -122.4223874 Eh     change       -0.1486505E-04 Eh
   gradient norm :     0.0058286 Eh/α   predicted     0.0000000E+00 (-100.00%)
   displ. norm   :     0.0336312 α      lambda       -0.8080190E-04
   maximum displ.:     0.0117228 α      in ANC's #11, #9, #2, ...

........................................................................
.............................. CYCLE   44 ..............................
........................................................................

 iter      E             dE          RMSdq      gap      omega  full diag
   1   -124.0362802 -0.124036E+03  0.116E-02    0.77       0.0  T
   2   -124.0362805 -0.305276E-06  0.680E-03    0.77       1.7  T
   3   -124.0362804  0.305917E-07  0.155E-03    0.77       7.5  T
   4   -124.0362805 -0.726538E-07  0.362E-04    0.77      32.1  T
   5   -124.0362805 -0.302074E-08  0.192E-04    0.77      60.6  T
     SCC iter.                  ...        0 min,  0.029 sec
     gradient                   ...        0 min,  0.022 sec
 * total energy  :  -122.4224426 Eh     change       -0.5524426E-04 Eh
   gradient norm :     0.0019966 Eh/α   predicted    -0.4087117E-04 ( -26.02%)
   displ. norm   :     0.0731917 α      lambda       -0.3500563E-04
   maximum displ.:     0.0301727 α      in ANC's #11, #9, #2, ...

........................................................................
.............................. CYCLE   45 ..............................
........................................................................

 iter      E             dE          RMSdq      gap      omega  full diag
   1   -124.0389451 -0.124039E+03  0.162E-02    0.76       0.0  T
   2   -124.0389455 -0.422567E-06  0.946E-03    0.76       1.2  T
   3   -124.0389455  0.327758E-07  0.174E-03    0.76       6.7  T
   4   -124.0389456 -0.103087E-06  0.525E-04    0.76      22.1  T
   5   -124.0389456 -0.654288E-08  0.278E-04    0.76      41.8  T
     SCC iter.                  ...        0 min,  0.038 sec
     gradient                   ...        0 min,  0.021 sec
 * total energy  :  -122.4224648 Eh     change       -0.2219238E-04 Eh
   gradient norm :     0.0027730 Eh/α   predicted    -0.1754497E-04 ( -20.94%)
   displ. norm   :     0.0490421 α      lambda       -0.2647114E-04
   maximum displ.:     0.0220526 α      in ANC's #11, #2, #9, ...

........................................................................
.............................. CYCLE   46 ..............................
........................................................................

 iter      E             dE          RMSdq      gap      omega  full diag
   1   -124.0389024 -0.124039E+03  0.918E-03    0.76       0.0  T
   2   -124.0389025 -0.655889E-07  0.535E-03    0.76       2.2  T
   3   -124.0389025 -0.835692E-08  0.652E-04    0.76      17.8  T
   4   -124.0389025 -0.143700E-07  0.307E-04    0.76      37.8  T
     SCC iter.                  ...        0 min,  0.022 sec
     gradient                   ...        0 min,  0.021 sec
 * total energy  :  -122.4224804 Eh     change       -0.1557177E-04 Eh
   gradient norm :     0.0026975 Eh/α   predicted    -0.1328353E-04 ( -14.69%)
   displ. norm   :     0.0665509 α      lambda       -0.2621991E-04
   maximum displ.:     0.0302777 α      in ANC's #11, #2, #9, ...

........................................................................
.............................. CYCLE   47 ..............................
........................................................................

 iter      E             dE          RMSdq      gap      omega  full diag
   1   -124.0376926 -0.124038E+03  0.110E-02    0.76       0.0  T
   2   -124.0376927 -0.957729E-07  0.641E-03    0.76       1.8  T
   3   -124.0376927 -0.146593E-08  0.849E-04    0.76      13.7  T
   4   -124.0376927 -0.274533E-07  0.331E-04    0.76      35.1  T
     SCC iter.                  ...        0 min,  0.037 sec
     gradient                   ...        0 min,  0.020 sec
 * total energy  :  -122.4225010 Eh     change       -0.2055135E-04 Eh
   gradient norm :     0.0015341 Eh/α   predicted    -0.1317022E-04 ( -35.92%)
   displ. norm   :     0.1817653 α      lambda       -0.2953850E-04
   maximum displ.:     0.0810832 α      in ANC's #11, #2, #9, ...

........................................................................
.............................. CYCLE   48 ..............................
........................................................................

 iter      E             dE          RMSdq      gap      omega  full diag
   1   -124.0356256 -0.124036E+03  0.286E-02    0.76       0.0  T
   2   -124.0356261 -0.527607E-06  0.167E-02    0.76       1.0  T
   3   -124.0356262 -0.528052E-07  0.185E-03    0.76       6.3  T
   4   -124.0356263 -0.115768E-06  0.804E-04    0.76      14.5  T
   5   -124.0356263 -0.524282E-08  0.424E-04    0.76      27.4  T
     SCC iter.                  ...        0 min,  0.029 sec
     gradient                   ...        0 min,  0.021 sec
 * total energy  :  -122.4225221 Eh     change       -0.2117126E-04 Eh
   gradient norm :     0.0022617 Eh/α   predicted    -0.1498648E-04 ( -29.21%)
   displ. norm   :     0.0350294 α      lambda       -0.1066269E-04
   maximum displ.:     0.0156579 α      in ANC's #2, #11, #5, ...

........................................................................
.............................. CYCLE   49 ..............................
........................................................................

 iter      E             dE          RMSdq      gap      omega  full diag
   1   -124.0361624 -0.124036E+03  0.556E-03    0.76       0.0  T
   2   -124.0361625 -0.148899E-07  0.326E-03    0.76       3.6  T
   3   -124.0361625 -0.129326E-08  0.314E-04    0.76      37.1  T
   4   -124.0361625 -0.397384E-08  0.148E-04    0.76      78.7  T
     SCC iter.                  ...        0 min,  0.032 sec
     gradient                   ...        0 min,  0.021 sec
 * total energy  :  -122.4225319 Eh     change       -0.9764715E-05 Eh
   gradient norm :     0.0017234 Eh/α   predicted    -0.5342109E-05 ( -45.29%)
   displ. norm   :     0.2775694 α      lambda       -0.4442921E-04
   maximum displ.:     0.1228139 α      in ANC's #2, #11, #5, ...

........................................................................
.............................. CYCLE   50 ..............................
........................................................................

 iter      E             dE          RMSdq      gap      omega  full diag
   1   -124.0384552 -0.124038E+03  0.431E-02    0.76       0.0  T
   2   -124.0384559 -0.766820E-06  0.253E-02    0.76       1.0  T
   3   -124.0384559 -0.796479E-08  0.255E-03    0.76       4.6  T
   4   -124.0384562 -0.283524E-06  0.111E-03    0.76      10.5  T
   5   -124.0384562 -0.127346E-07  0.523E-04    0.76      22.2  T
   6   -124.0384562 -0.398401E-08  0.169E-04    0.76      68.7  T
     SCC iter.                  ...        0 min,  0.033 sec
     gradient                   ...        0 min,  0.021 sec
 * total energy  :  -122.4225651 Eh     change       -0.3324747E-04 Eh
   gradient norm :     0.0017998 Eh/α   predicted    -0.2298349E-04 ( -30.87%)
   displ. norm   :     0.1107539 α      lambda       -0.9511958E-05
   maximum displ.:     0.0502980 α      in ANC's #2, #5, #6, ...

........................................................................
.............................. CYCLE   51 ..............................
........................................................................

 iter      E             dE          RMSdq      gap      omega  full diag
   1   -124.0377322 -0.124038E+03  0.162E-02    0.76       0.0  T
   2   -124.0377323 -0.878730E-07  0.953E-03    0.76       1.2  T
   3   -124.0377323 -0.120439E-07  0.817E-04    0.76      14.2  T
   4   -124.0377324 -0.248940E-07  0.378E-04    0.76      30.7  T
     SCC iter.                  ...        0 min,  0.029 sec
     gradient                   ...        0 min,  0.021 sec
 * total energy  :  -122.4225772 Eh     change       -0.1202305E-04 Eh
   gradient norm :     0.0010735 Eh/α   predicted    -0.4783682E-05 ( -60.21%)
   displ. norm   :     0.1792748 α      lambda       -0.1886261E-04
   maximum displ.:     0.0866596 α      in ANC's #2, #6, #5, ...

........................................................................
.............................. CYCLE   52 ..............................
........................................................................

 iter      E             dE          RMSdq      gap      omega  full diag
   1   -124.0366977 -0.124037E+03  0.263E-02    0.76       0.0  T
   2   -124.0366979 -0.199154E-06  0.154E-02    0.76       1.0  T
   3   -124.0366979 -0.121845E-07  0.130E-03    0.76       9.0  T
   4   -124.0366979 -0.680203E-07  0.554E-04    0.76      21.0  T
   5   -124.0366979 -0.222103E-08  0.253E-04    0.76      46.0  T
     SCC iter.                  ...        0 min,  0.027 sec
     gradient                   ...        0 min,  0.021 sec
 * total energy  :  -122.4225983 Eh     change       -0.2109535E-04 Eh
   gradient norm :     0.0010355 Eh/α   predicted    -0.9566189E-05 ( -54.65%)
   displ. norm   :     0.1914629 α      lambda       -0.1534526E-04
   maximum displ.:     0.0956105 α      in ANC's #2, #6, #14, ...

........................................................................
.............................. CYCLE   53 ..............................
........................................................................

 iter      E             dE          RMSdq      gap      omega  full diag
   1   -124.0360146 -0.124036E+03  0.285E-02    0.76       0.0  T
   2   -124.0360148 -0.197665E-06  0.168E-02    0.76       1.0  T
   3   -124.0360148 -0.276152E-07  0.118E-03    0.76       9.8  T
   4   -124.0360149 -0.541873E-07  0.544E-04    0.76      21.4  T
   5   -124.0360149 -0.167068E-08  0.238E-04    0.76      48.9  T
     SCC iter.                  ...        0 min,  0.033 sec
     gradient                   ...        0 min,  0.021 sec
 * total energy  :  -122.4226153 Eh     change       -0.1700760E-04 Eh
   gradient norm :     0.0017169 Eh/α   predicted    -0.7799549E-05 ( -54.14%)
   displ. norm   :     0.1813477 α      lambda       -0.1467540E-04
   maximum displ.:     0.0927129 α      in ANC's #2, #6, #14, ...

........................................................................
.............................. CYCLE   54 ..............................
........................................................................

 iter      E             dE          RMSdq      gap      omega  full diag
   1   -124.0361623 -0.124036E+03  0.265E-02    0.76       0.0  T
   2   -124.0361624 -0.150443E-06  0.156E-02    0.76       1.0  T
   3   -124.0361625 -0.411444E-07  0.907E-04    0.76      12.8  T
   4   -124.0361625 -0.250240E-07  0.481E-04    0.76      24.2  T
     SCC iter.                  ...        0 min,  0.020 sec
     gradient                   ...        0 min,  0.019 sec
 * total energy  :  -122.4226326 Eh     change       -0.1734385E-04 Eh
   gradient norm :     0.0018049 Eh/α   predicted    -0.7446641E-05 ( -57.06%)
   displ. norm   :     0.2473673 α      lambda       -0.2071970E-04
   maximum displ.:     0.1285678 α      in ANC's #2, #6, #5, ...

........................................................................
.............................. CYCLE   55 ..............................
........................................................................

 iter      E             dE          RMSdq      gap      omega  full diag
   1   -124.0366277 -0.124037E+03  0.363E-02    0.76       0.0  T
   2   -124.0366280 -0.273416E-06  0.213E-02    0.76       1.0  T
   3   -124.0366280 -0.564034E-07  0.127E-03    0.76       9.2  T
   4   -124.0366281 -0.572185E-07  0.625E-04    0.76      18.6  T
   5   -124.0366281 -0.382630E-08  0.289E-04    0.76      40.2  T
     SCC iter.                  ...        0 min,  0.031 sec
     gradient                   ...        0 min,  0.021 sec
 * total energy  :  -122.4226570 Eh     change       -0.2441497E-04 Eh
   gradient norm :     0.0014588 Eh/α   predicted    -0.1064484E-04 ( -56.40%)
   displ. norm   :     0.3542146 α      lambda       -0.2667266E-04
   maximum displ.:     0.1866294 α      in ANC's #2, #6, #5, ...

........................................................................
.............................. CYCLE   56 ..............................
........................................................................

 iter      E             dE          RMSdq      gap      omega  full diag
   1   -124.0366631 -0.124037E+03  0.499E-02    0.76       0.0  T
   2   -124.0366636 -0.552141E-06  0.293E-02    0.76       1.0  T
   3   -124.0366638 -0.137911E-06  0.163E-03    0.76       7.1  T
   4   -124.0366639 -0.873155E-07  0.841E-04    0.76      13.8  T
   5   -124.0366639 -0.605083E-08  0.381E-04    0.76      30.5  T
     SCC iter.                  ...        0 min,  0.025 sec
     gradient                   ...        0 min,  0.020 sec
 * total energy  :  -122.4226876 Eh     change       -0.3054742E-04 Eh
   gradient norm :     0.0016215 Eh/α   predicted    -0.1408428E-04 ( -53.89%)
   displ. norm   :     0.3624331 α      lambda       -0.2748562E-04
   maximum displ.:     0.1961384 α      in ANC's #2, #6, #5, ...

........................................................................
.............................. CYCLE   57 ..............................
........................................................................

 iter      E             dE          RMSdq      gap      omega  full diag
   1   -124.0371904 -0.124037E+03  0.507E-02    0.76       0.0  T
   2   -124.0371910 -0.613636E-06  0.297E-02    0.76       1.0  T
   3   -124.0371912 -0.168421E-06  0.169E-03    0.76       6.9  T
   4   -124.0371913 -0.878611E-07  0.881E-04    0.76      13.2  T
   5   -124.0371913 -0.494427E-08  0.371E-04    0.76      31.3  T
     SCC iter.                  ...        0 min,  0.033 sec
     gradient                   ...        0 min,  0.022 sec
 * total energy  :  -122.4227176 Eh     change       -0.3000778E-04 Eh
   gradient norm :     0.0016526 Eh/α   predicted    -0.1454701E-04 ( -51.52%)
   displ. norm   :     0.3154280 α      lambda       -0.1873926E-04
   maximum displ.:     0.1747864 α      in ANC's #2, #6, #5, ...

........................................................................
.............................. CYCLE   58 ..............................
........................................................................

 iter      E             dE          RMSdq      gap      omega  full diag
   1   -124.0369942 -0.124037E+03  0.421E-02    0.76       0.0  T
   2   -124.0369947 -0.521101E-06  0.246E-02    0.76       1.0  T
   3   -124.0369948 -0.951788E-07  0.166E-03    0.76       7.0  T
   4   -124.0369949 -0.102286E-06  0.786E-04    0.76      14.8  T
   5   -124.0369949 -0.413131E-08  0.362E-04    0.76      32.1  T
     SCC iter.                  ...        0 min,  0.026 sec
     gradient                   ...        0 min,  0.019 sec
 * total energy  :  -122.4227373 Eh     change       -0.1970206E-04 Eh
   gradient norm :     0.0015911 Eh/α   predicted    -0.9787977E-05 ( -50.32%)
   displ. norm   :     0.1959908 α      lambda       -0.1689753E-04
   maximum displ.:     0.1136341 α      in ANC's #2, #6, #5, ...

........................................................................
.............................. CYCLE   59 ..............................
........................................................................

 iter      E             dE          RMSdq      gap      omega  full diag
   1   -124.0393122 -0.124039E+03  0.271E-02    0.76       0.0  T
   2   -124.0393126 -0.375293E-06  0.158E-02    0.76       1.0  T
   3   -124.0393126 -0.350353E-08  0.157E-03    0.76       7.4  T
   4   -124.0393127 -0.112362E-06  0.612E-04    0.76      19.0  T
   5   -124.0393127 -0.384435E-08  0.311E-04    0.76      37.4  T
     SCC iter.                  ...        0 min,  0.030 sec
     gradient                   ...        0 min,  0.020 sec
 * total energy  :  -122.4227473 Eh     change       -0.1000243E-04 Eh
   gradient norm :     0.0016686 Eh/α   predicted    -0.8593880E-05 ( -14.08%)
   displ. norm   :     0.3398219 α      lambda       -0.1716531E-04
   maximum displ.:     0.1876441 α      in ANC's #2, #6, #5, ...

........................................................................
.............................. CYCLE   60 ..............................
........................................................................

 iter      E             dE          RMSdq      gap      omega  full diag
   1   -124.0364357 -0.124036E+03  0.445E-02    0.76       0.0  T
   2   -124.0364362 -0.506151E-06  0.261E-02    0.76       1.0  T
   3   -124.0364363 -0.871916E-07  0.178E-03    0.76       6.5  T
   4   -124.0364364 -0.127907E-06  0.825E-04    0.76      14.1  T
   5   -124.0364364 -0.310941E-08  0.354E-04    0.76      32.8  T
     SCC iter.                  ...        0 min,  0.024 sec
     gradient                   ...        0 min,  0.020 sec
 * total energy  :  -122.4227578 Eh     change       -0.1055499E-04 Eh
   gradient norm :     0.0021201 Eh/α   predicted    -0.9025071E-05 ( -14.49%)
   displ. norm   :     0.0311428 α      lambda       -0.1005883E-04
   maximum displ.:     0.0158586 α      in ANC's #8, #14, #16, ...

........................................................................
.............................. CYCLE   61 ..............................
........................................................................

 iter      E             dE          RMSdq      gap      omega  full diag
   1   -124.0371280 -0.124037E+03  0.612E-03    0.76       0.0  T
   2   -124.0371281 -0.784744E-07  0.359E-03    0.76       3.2  T
   3   -124.0371281  0.890290E-08  0.748E-04    0.76      15.5  T
   4   -124.0371281 -0.196793E-07  0.172E-04    0.76      67.5  T
     SCC iter.                  ...        0 min,  0.029 sec
     gradient                   ...        0 min,  0.021 sec
 * total energy  :  -122.4227655 Eh     change       -0.7633574E-05 Eh
   gradient norm :     0.0013806 Eh/α   predicted    -0.5035022E-05 ( -34.04%)
   displ. norm   :     0.1254904 α      lambda       -0.1533604E-04
   maximum displ.:     0.0628043 α      in ANC's #2, #6, #5, ...

........................................................................
.............................. CYCLE   62 ..............................
........................................................................

 iter      E             dE          RMSdq      gap      omega  full diag
   1   -124.0382699 -0.124038E+03  0.167E-02    0.76       0.0  T
   2   -124.0382701 -0.253308E-06  0.979E-03    0.76       1.2  T
   3   -124.0382701  0.480157E-07  0.149E-03    0.76       7.8  T
   4   -124.0382702 -0.105957E-06  0.442E-04    0.76      26.3  T
   5   -124.0382702 -0.306231E-08  0.237E-04    0.76      49.0  T
     SCC iter.                  ...        0 min,  0.028 sec
     gradient                   ...        0 min,  0.020 sec
 * total energy  :  -122.4227794 Eh     change       -0.1395433E-04 Eh
   gradient norm :     0.0016648 Eh/α   predicted    -0.7730173E-05 ( -44.60%)
   displ. norm   :     0.2158245 α      lambda       -0.9081963E-05
   maximum displ.:     0.1228485 α      in ANC's #2, #6, #5, ...

........................................................................
.............................. CYCLE   63 ..............................
........................................................................

 iter      E             dE          RMSdq      gap      omega  full diag
   1   -124.0379802 -0.124038E+03  0.270E-02    0.76       0.0  T
   2   -124.0379804 -0.207687E-06  0.158E-02    0.76       1.0  T
   3   -124.0379804 -0.673124E-08  0.123E-03    0.76       9.5  T
   4   -124.0379805 -0.756458E-07  0.513E-04    0.76      22.7  T
   5   -124.0379805 -0.273083E-08  0.250E-04    0.76      46.5  T
     SCC iter.                  ...        0 min,  0.031 sec
     gradient                   ...        0 min,  0.021 sec
 * total energy  :  -122.4227904 Eh     change       -0.1094746E-04 Eh
   gradient norm :     0.0011203 Eh/α   predicted    -0.4636158E-05 ( -57.65%)
   displ. norm   :     0.3147754 α      lambda       -0.1029606E-04
   maximum displ.:     0.1807636 α      in ANC's #2, #6, #5, ...

........................................................................
.............................. CYCLE   64 ..............................
........................................................................

 iter      E             dE          RMSdq      gap      omega  full diag
   1   -124.0371049 -0.124037E+03  0.394E-02    0.76       0.0  T
   2   -124.0371055 -0.533991E-06  0.231E-02    0.76       1.0  T
   3   -124.0371055 -0.594450E-08  0.187E-03    0.76       6.2  T
   4   -124.0371057 -0.171458E-06  0.758E-04    0.76      15.3  T
   5   -124.0371057 -0.814163E-08  0.402E-04    0.76      28.9  T
     SCC iter.                  ...        0 min,  0.026 sec
     gradient                   ...        0 min,  0.021 sec
 * total energy  :  -122.4228005 Eh     change       -0.1013492E-04 Eh
   gradient norm :     0.0012506 Eh/α   predicted    -0.5376027E-05 ( -46.96%)
   displ. norm   :     0.1348335 α      lambda       -0.5224846E-05
   maximum displ.:     0.0767797 α      in ANC's #2, #6, #5, ...

........................................................................
.............................. CYCLE   65 ..............................
........................................................................

 iter      E             dE          RMSdq      gap      omega  full diag
   1   -124.0376617 -0.124038E+03  0.173E-02    0.76       0.0  T
   2   -124.0376619 -0.116498E-06  0.102E-02    0.76       1.1  T
   3   -124.0376619 -0.227290E-08  0.911E-04    0.76      12.8  T
   4   -124.0376619 -0.400892E-07  0.376E-04    0.76      30.9  T
     SCC iter.                  ...        0 min,  0.029 sec
     gradient                   ...        0 min,  0.021 sec
 * total energy  :  -122.4228064 Eh     change       -0.5874273E-05 Eh
   gradient norm :     0.0011732 Eh/α   predicted    -0.2637601E-05 ( -55.10%)
   displ. norm   :     0.1902743 α      lambda       -0.6816349E-05
   maximum displ.:     0.1102528 α      in ANC's #2, #6, #3, ...

........................................................................
.............................. CYCLE   66 ..............................
........................................................................

 iter      E             dE          RMSdq      gap      omega  full diag
   1   -124.0378931 -0.124038E+03  0.231E-02    0.76       0.0  T
   2   -124.0378933 -0.241275E-06  0.136E-02    0.76       1.0  T
   3   -124.0378933  0.798957E-08  0.140E-03    0.76       8.3  T
   4   -124.0378934 -0.963246E-07  0.543E-04    0.76      21.4  T
   5   -124.0378934 -0.288146E-08  0.281E-04    0.76      41.4  T
     SCC iter.                  ...        0 min,  0.025 sec
     gradient                   ...        0 min,  0.019 sec
 * total energy  :  -122.4228136 Eh     change       -0.7183136E-05 Eh
   gradient norm :     0.0009820 Eh/α   predicted    -0.3464106E-05 ( -51.77%)
   displ. norm   :     0.1182150 α      lambda       -0.5266187E-05
   maximum displ.:     0.0636042 α      in ANC's #2, #3, #6, ...
 * RMSD in coord.:     0.4472857 α      energy gain  -0.4410355E-03 Eh

generating ANC from exact Hessian ...
Using Lindh-Hessian (1995)
 Shifting diagonal of input Hessian by    9.9488587345556209E-003
 Lowest  eigenvalues of input Hessian
    0.000000    0.000000    0.000000    0.000000    0.000000    0.000000
    0.010000    0.010032    0.010064    0.010266    0.010380    0.010491
    0.010634    0.011048    0.011130    0.011311    0.011382    0.011569
 Highest eigenvalues
    2.108859    2.315759    2.331515    2.331962    2.350242    2.642083


........................................................................
.............................. CYCLE   67 ..............................
........................................................................

 iter      E             dE          RMSdq      gap      omega  full diag
   1   -124.0386114 -0.124039E+03  0.152E-02    0.76       0.0  T
   2   -124.0386115 -0.140337E-06  0.889E-03    0.76       1.3  T
   3   -124.0386115 -0.854783E-08  0.976E-04    0.76      11.9  T
   4   -124.0386116 -0.399296E-07  0.409E-04    0.76      28.4  T
     SCC iter.                  ...        0 min,  0.021 sec
     gradient                   ...        0 min,  0.019 sec
 * total energy  :  -122.4228189 Eh     change       -0.5354207E-05 Eh
   gradient norm :     0.0008420 Eh/α   predicted     0.0000000E+00 (-100.00%)
   displ. norm   :     0.0161965 α      lambda       -0.2832637E-05
   maximum displ.:     0.0077806 α      in ANC's #13, #7, #5, ...

........................................................................
.............................. CYCLE   68 ..............................
........................................................................

 iter      E             dE          RMSdq      gap      omega  full diag
   1   -124.0380344 -0.124038E+03  0.337E-03    0.76       0.0  T
   2   -124.0380344 -0.167651E-07  0.198E-03    0.76       5.9  T
   3   -124.0380344  0.214659E-08  0.358E-04    0.76      32.5  T
   4   -124.0380344 -0.513265E-08  0.989E-05    0.76     117.5  T
     SCC iter.                  ...        0 min,  0.020 sec
     gradient                   ...        0 min,  0.021 sec
 * total energy  :  -122.4228220 Eh     change       -0.3125335E-05 Eh
   gradient norm :     0.0003487 Eh/α   predicted    -0.1459477E-05 ( -53.30%)
   displ. norm   :     0.0414956 α      lambda       -0.4082138E-05
   maximum displ.:     0.0213140 α      in ANC's #13, #7, #5, ...

   *** GEOMETRY OPTIMIZATION CONVERGED AFTER 68 ITERATIONS ***

------------------------------------------------------------------------
 total energy gain   :        -0.0373888 Eh      -23.4619 kcal/mol
 total RMSD          :         1.3335836 a0        0.7057 Å
 total power (kW/mol):        -1.4435940 (step)  -21.4251 (real)
------------------------------------------------------------------------

 ANCopt (total)                0 d,  0 h,  0 min,  4.582 sec
 optimizer setup                ...        0 min,  0.001 sec (  0.016%)
 model hessian                  ...        0 min,  0.187 sec (  4.077%)
 ANC generation                 ...        0 min,  0.016 sec (  0.353%)
 coordinate transformation      ...        0 min,  0.003 sec (  0.065%)
 single point calculation       ...        0 min,  4.309 sec ( 94.037%)
 optimization log               ...        0 min,  0.036 sec (  0.792%)
 hessian update                 ...        0 min,  0.008 sec (  0.185%)
 rational function              ...        0 min,  0.016 sec (  0.351%)

================
 final structure:
================
74
 xtb: 6.7.1 (edcfbbe)
C            9.01374109784243       -2.48407615589233       -0.28105226950415
C            7.83520465992510       -1.67062431489080       -0.59291764216539
O            7.18428994251340       -1.84865685606029       -1.73136560726248
N            6.12953755586640       -0.98416356943059       -1.83038820754588
C            6.10258564514266       -0.27408322472500       -0.74100325770826
C            5.22958894342761        0.92621623557129       -0.52998645468371
O            5.71911941372768        2.02427010040795       -0.79077240722155
N            4.01120575276446        0.72509217812016       -0.05147086930198
C            3.08947600091631        1.82712229217050        0.13094274445396
C            1.87657315908110        1.62282032775781       -0.77433777726813
N            1.24569017544231        0.35486250454233       -0.44642844706539
C           -0.01687078454876        0.16692509210674       -1.15088548060422
C           -1.00303450381207        1.26993001639660       -0.83306349576232
C           -1.12064961130784        1.76438485213006        0.46130903995514
C           -2.04653886196244        2.74466943715380        0.76057014749092
C           -2.88834017055777        3.24028760978810       -0.23275954723247
C           -3.91693580943925        4.28570777507289        0.02284621404817
O           -4.97340860525252        4.32723119762442       -0.61193757512510
N           -3.60556113690028        5.18443575961811        0.97212736613907
C           -4.46317939365953        6.26429525985925        1.33844074082583
C           -3.86535294780201        7.58626648684674        1.71379822084835
C           -4.50205215967484        6.72310674298026        2.76497936564564
C           -2.79133816022411        2.72168612305050       -1.52033558292404
C           -1.85229005406705        1.75387285438251       -1.81953332454828
C           -0.70243140153553       -1.11567701386627       -0.73200632910137
C           -1.43816093798566       -1.84574042058705       -1.65628910257818
C           -2.12381183057447       -2.98392723244383       -1.27434117772449
C           -2.07516924747676       -3.41820788246536        0.04700895441050
C           -2.77374797619852       -4.64774205319079        0.51208451157914
O           -2.31021056311180       -5.36534038694245        1.40069647744584
N           -3.94252584468552       -4.90839849981216       -0.09797789636292
C           -4.75727437293187       -6.03702192378214        0.21527566712982
C           -5.59032304089150       -6.66115103760527       -0.86268504104422
C           -6.24856064300012       -5.88624259548592        0.24261209149742
C           -1.31704738179488       -2.69977619803234        0.96788827354403
C           -0.65055486262041       -1.55296137802781        0.58688898729706
C            2.18316299785525       -0.72351843859877       -0.71157986594867
C            3.40406187811759       -0.56216030320575        0.19485707011782
C            7.18385631911981       -0.66154488529819        0.11109263320748
N            7.47444518155291       -0.14615172558293        1.37676062479768
O            8.51894737961679       -0.48374804091693        1.90874335090437
O            6.65890158657174        0.60735115452135        1.88555754010404
H            9.91437323727942       -1.89822639843013       -0.46731436613290
H            9.02000936380733       -2.74121327714619        0.77595214016554
H            9.02877713515999       -3.36990674920353       -0.90818193286630
H            3.61118445864162        2.75265505901204       -0.11340371887835
H            2.77415847840964        1.84478958995797        1.17649041708401
H            1.16667180841931        2.43344181520557       -0.61145331567137
H            2.20418485935666        1.65093559383263       -1.82925872906079
H            0.14440924288740        0.14245427075694       -2.24525529437611
H           -0.47115764682807        1.38039548378376        1.23061693251220
H           -2.13285259941127        3.09418218338449        1.77790620284106
H           -2.70630313506746        5.13762835559870        1.42780260606453
H           -5.37824737690539        6.23613471024136        0.76138153577507
H           -2.79020015544937        7.67326296811361        1.71375893798610
H           -4.37608701934588        8.48183873801729        1.39885094414148
H           -3.85574032454811        6.22900836083036        3.47308209409494
H           -5.45290577447868        7.02205959333893        3.17542838407183
H           -3.46208701874459        3.09834110606469       -2.27816342847416
H           -1.78186206020560        1.37365821150664       -2.82749839171452
H           -1.47430193046493       -1.52473284469278       -2.68653414908196
H           -2.66402653418869       -3.54889867844000       -2.01859115696936
H           -4.30686246686116       -4.25274006445864       -0.77316753487470
H           -4.27071722708028       -6.66614672360671        0.94907806035378
H           -5.56222477666926       -6.21542614570032       -1.84454171983091
H           -5.68723920675437       -7.73468751142620       -0.87229392830175
H           -6.66295493036798       -4.91889362621103        0.00554611262742
H           -6.79923387909652       -6.42459189047834        0.99686255255081
H           -1.26928963596781       -3.05920708052869        1.98492287996561
H           -0.07083568077102       -0.99798227399586        1.30578235462607
H            2.51550749676820       -0.72104597414282       -1.76484689592319
H            1.70371784812531       -1.67941870004813       -0.50037311390861
H            3.08785117755148       -0.59666540105489        1.24087095107048
H            4.11926888525233       -1.36062356331195        0.00518790744650

 Bond Distances (Angstroems)
 ---------------------------
C1-C2=1.4656         C1-H43=1.0904        C1-H44=1.0878        C1-H45=1.0855        C2-C1=1.4656         C2-O3=1.3234         
C2-C39=1.3922        O3-C2=1.3234         O3-N4=1.3674         N4-O3=1.3674         N4-C5=1.3007         C5-N4=1.3007         
C5-C6=1.4991         C5-C39=1.4302        C6-C5=1.4991         C6-O7=1.2302         C6-N8=1.3243         O7-C6=1.2302         
N8-C6=1.3243         N8-C9=1.4482         N8-C38=1.4444        C9-N8=1.4482         C9-C10=1.5272        C9-H46=1.0902        
C9-H47=1.0922        C10-C9=1.5272        C10-N11=1.4537       C10-H48=1.0898       C10-H49=1.1050       N11-C10=1.4537       
N11-C12=1.4580       N11-C37=1.4533       C12-N11=1.4580       C12-C13=1.5133       C12-C25=1.5134       C12-H50=1.1065       
C13-C12=1.5133       C13-C14=1.3906       C13-C24=1.3887       C14-C13=1.3906       C14-C15=1.3812       C14-H51=1.0776       
C15-C14=1.3812       C15-C16=1.3932       C15-H52=1.0792       C16-C15=1.3932       C16-C17=1.4887       C16-C23=1.3915       
C17-C16=1.4887       C17-O18=1.2332       C17-N19=1.3438       O18-C17=1.2332       N19-C17=1.3438       N19-C20=1.4268       
N19-H53=1.0092       C20-N19=1.4268       C20-C21=1.4986       C20-C22=1.4990       C20-H54=1.0822       C21-C20=1.4986       
C21-C22=1.5018       C21-H55=1.0787       C21-H56=1.0780       C22-C20=1.4990       C22-C21=1.5018       C22-H57=1.0785       
C22-H58=1.0779       C23-C16=1.3915       C23-C24=1.3813       C23-H59=1.0799       C24-C13=1.3887       C24-C23=1.3813       
C24-H60=1.0796       C25-C12=1.5134       C25-C26=1.3887       C25-C36=1.3905       C26-C25=1.3887       C26-C27=1.3826       
C26-H61=1.0797       C27-C26=1.3826       C27-C28=1.3917       C27-H62=1.0793       C28-C27=1.3917       C28-C29=1.4886       
C28-C35=1.3924       C29-C28=1.4886       C29-O30=1.2327       C29-N31=1.3439       O30-C29=1.2327       N31-C29=1.3439       
N31-C32=1.4268       N31-H63=1.0092       C32-N31=1.4268       C32-C33=1.4985       C32-C34=1.4991       C32-H64=1.0821       
C33-C32=1.4985       C33-C34=1.5018       C33-H65=1.0787       C33-H66=1.0779       C34-C32=1.4991       C34-C33=1.5018       
C34-H67=1.0787       C34-H68=1.0779       C35-C28=1.3924       C35-C36=1.3801       C35-H69=1.0797       C36-C25=1.3905       
C36-C35=1.3801       C36-H70=1.0774       C37-N11=1.4533       C37-C38=1.5291       C37-H71=1.1045       C37-H72=1.0901       
C38-N8=1.4444        C38-C37=1.5291       C38-H73=1.0933       C38-H74=1.0886       C39-C2=1.3922        C39-C5=1.4302        
C39-N40=1.3971       N40-C39=1.3971       N40-O41=1.2198       N40-O42=1.2214       O41-N40=1.2198       O42-N40=1.2214       
H43-C1=1.0904        H44-C1=1.0878        H45-C1=1.0855        H46-C9=1.0902        H47-C9=1.0922        H48-C10=1.0898       
H49-C10=1.1050       H50-C12=1.1065       H51-C14=1.0776       H52-C15=1.0792       H53-N19=1.0092       H54-C20=1.0822       
H55-C21=1.0787       H56-C21=1.0780       H57-C22=1.0785       H58-C22=1.0779       H59-C23=1.0799       H60-C24=1.0796       
H61-C26=1.0797       H62-C27=1.0793       H63-N31=1.0092       H64-C32=1.0821       H65-C33=1.0787       H66-C33=1.0779       
H67-C34=1.0787       H68-C34=1.0779       H69-C35=1.0797       H70-C36=1.0774       H71-C37=1.1045       H72-C37=1.0901       
H73-C38=1.0933       H74-C38=1.0886       
 C  H  Rav=1.0849 sigma=0.0085  Rmin=1.0774  Rmax=1.1065    30
 C  C  Rav=1.4464 sigma=0.0570  Rmin=1.3801  Rmax=1.5291    28
 N  H  Rav=1.0092 sigma=0.0000  Rmin=1.0092  Rmax=1.0092     2
 N  C  Rav=1.4018 sigma=0.0553  Rmin=1.3007  Rmax=1.4580    12
 O  C  Rav=1.2549 sigma=0.0396  Rmin=1.2302  Rmax=1.3234     4
 O  N  Rav=1.2695 sigma=0.0692  Rmin=1.2198  Rmax=1.3674     3

 selected bond angles (degree)
 --------------------
H43-C1-C2=109.25               H44-C1-C2=110.03               H44-C1-H43=106.75              H45-C1-C2=109.95               
H45-C1-H43=109.17              H45-C1-H44=111.62              O3-C2-C1=120.26                C39-C2-C1=132.14               
C39-C2-O3=107.60               N4-O3-C2=110.89                C5-N4-O3=107.49                C6-C5-N4=124.55                
C39-C5-N4=109.60               C39-C5-C6=124.98               O7-C6-C5=116.94                N8-C6-C5=117.71                
N8-C6-O7=125.33                C9-N8-C6=121.03                C38-N8-C6=125.71               C38-N8-C9=112.90               
C10-C9-N8=109.21               H46-C9-N8=108.25               H46-C9-C10=111.15              H47-C9-N8=108.46               
H47-C9-C10=109.90              H47-C9-H46=109.81              N11-C10-C9=109.13              H48-C10-C9=109.22              
H48-C10-N11=109.41             H49-C10-C9=109.09              H49-C10-N11=111.48             H49-C10-H48=108.48             

 selected dihedral angles (degree)
 ---------------------------------
O3-C2-C1-H43=101.71           O3-C2-C1-H44=218.59           O3-C2-C1-H45=341.93           C39-C2-C1-H43=281.35          
C39-C2-C1-H44= 38.24          C39-C2-C1-H45=161.57          N4-O3-C2-C1=180.60            N4-O3-C2-C39=  0.87           
C5-N4-O3-C2=358.97            C6-C5-N4-O3=170.50            C39-C5-N4-O3=  0.75           O7-C6-C5-N4=266.52            
O7-C6-C5-C39= 74.72           N8-C6-C5-N4= 88.04            N8-C6-C5-C39=256.24           C9-N8-C6-C5=182.44            
C9-N8-C6-O7=  4.10            C38-N8-C6-C5=355.05           C38-N8-C6-O7=176.71           C10-C9-N8-C6=116.99           
C10-C9-N8-C38=303.49          H46-C9-N8-C6=355.84           H46-C9-N8-C38=182.35          H47-C9-N8-C6=236.74           
H47-C9-N8-C38= 63.24          N11-C10-C9-N8= 58.45          N11-C10-C9-H46=177.81         N11-C10-C9-H47=299.58         
H48-C10-C9-N8=178.02          H48-C10-C9-H46=297.38         H48-C10-C9-H47= 59.16         H49-C10-C9-N8=296.43          
H49-C10-C9-H46= 55.80         H49-C10-C9-H47=177.57         
           -------------------------------------------------
          |                Final Singlepoint                |
           -------------------------------------------------

          ...................................................
          :                      SETUP                      :
          :.................................................:
          :  # basis functions                 200          :
          :  # atomic orbitals                 200          :
          :  # shells                          116          :
          :  # electrons                       218          :
          :  max. iterations                   250          :
          :  Hamiltonian                  GFN2-xTB          :
          :  restarted?                      false          :
          :  GBSA solvation                   true          :
          :  PC potential                    false          :
          :  electronic temp.          300.0000000     K    :
          :  accuracy                    1.0000000          :
          :  -> integral cutoff          0.2500000E+02      :
          :  -> integral neglect         0.1000000E-07      :
          :  -> SCF convergence          0.1000000E-05 Eh   :
          :  -> wf. convergence          0.1000000E-03 e    :
          :  Broyden damping             0.4000000          :
          :  net charge                          0          :
          :  unpaired electrons                  0          :
          ...................................................

 iter      E             dE          RMSdq      gap      omega  full diag
   1   -124.0380344 -0.124038E+03  0.534E-05    0.76       0.0  T
   2   -124.0380344 -0.205205E-10  0.330E-05    0.76     352.6  T
   3   -124.0380344 -0.466116E-11  0.203E-05    0.76     573.4  T

   *** convergence criteria satisfied after 3 iterations ***

         #    Occupation            Energy/Eh            Energy/eV
      -------------------------------------------------------------
         1        2.0000           -0.8015792             -21.8121
       ...           ...                  ...                  ...
       103        2.0000           -0.4084264             -11.1138
       104        2.0000           -0.4032781             -10.9738
       105        2.0000           -0.3967275             -10.7955
       106        2.0000           -0.3953426             -10.7578
       107        2.0000           -0.3881155             -10.5612
       108        2.0000           -0.3872527             -10.5377
       109        2.0000           -0.3657785              -9.9533 (HOMO)
       110        0.0000           -0.3378965              -9.1946 (LUMO)
       111                         -0.2818850              -7.6705
       112                         -0.2631284              -7.1601
       113                         -0.2516777              -6.8485
       114                         -0.2349682              -6.3938
       ...                                ...                  ...
       200                          0.6577402              17.8980
      -------------------------------------------------------------
                  HL-Gap            0.0278820 Eh            0.7587 eV
             Fermi-level           -0.3518375 Eh           -9.5740 eV

 SCC (total)                   0 d,  0 h,  0 min,  0.045 sec
 SCC setup                      ...        0 min,  0.001 sec (  2.940%)
 Dispersion                     ...        0 min,  0.002 sec (  4.163%)
 classical contributions        ...        0 min,  0.000 sec (  0.351%)
 integral evaluation            ...        0 min,  0.005 sec ( 11.752%)
 iterations                     ...        0 min,  0.017 sec ( 37.553%)
 molecular gradient             ...        0 min,  0.019 sec ( 42.120%)
 printout                       ...        0 min,  0.000 sec (  1.059%)

         :::::::::::::::::::::::::::::::::::::::::::::::::::::
         ::                     SUMMARY                     ::
         :::::::::::::::::::::::::::::::::::::::::::::::::::::
         :: total energy            -122.422822044520 Eh    ::
         :: total w/o Gsasa/hb      -122.418053561724 Eh    ::
         :: gradient norm              0.000348457930 Eh/a0 ::
         :: HOMO-LUMO gap              0.758706805047 eV    ::
         ::.................................................::
         :: SCC energy              -124.037806848000 Eh    ::
         :: -> isotropic ES            0.250705958914 Eh    ::
         :: -> anisotropic ES          0.007983865087 Eh    ::
         :: -> anisotropic XC          0.048545314688 Eh    ::
         :: -> dispersion             -0.083662307645 Eh    ::
         :: -> Gsolv                  -0.056850594631 Eh    ::
         ::    -> Gelec               -0.052082111834 Eh    ::
         ::    -> Gsasa                0.003372970026 Eh    ::
         ::    -> Ghb                 -0.009222212520 Eh    ::
         ::    -> Gshift               0.001080759698 Eh    ::
         :: repulsion energy           1.614984803480 Eh    ::
         :: add. restraining           0.000000000000 Eh    ::
         :: total charge               0.000000000000 e     ::
         :::::::::::::::::::::::::::::::::::::::::::::::::::::

           -------------------------------------------------
          |                Property Printout                |
           -------------------------------------------------

    * Orbital Energies and Occupations

         #    Occupation            Energy/Eh            Energy/eV
      -------------------------------------------------------------
         1        2.0000           -0.8015792             -21.8121
       ...           ...                  ...                  ...
        97        2.0000           -0.4288211             -11.6688
        98        2.0000           -0.4261889             -11.5972
        99        2.0000           -0.4242094             -11.5433
       100        2.0000           -0.4151643             -11.2972
       101        2.0000           -0.4140941             -11.2681
       102        2.0000           -0.4132231             -11.2444
       103        2.0000           -0.4084264             -11.1138
       104        2.0000           -0.4032781             -10.9738
       105        2.0000           -0.3967275             -10.7955
       106        2.0000           -0.3953426             -10.7578
       107        2.0000           -0.3881155             -10.5612
       108        2.0000           -0.3872527             -10.5377
       109        2.0000           -0.3657785              -9.9533 (HOMO)
       110        0.0000           -0.3378965              -9.1946 (LUMO)
       111                         -0.2818850              -7.6705
       112                         -0.2631284              -7.1601
       113                         -0.2516777              -6.8485
       114                         -0.2349682              -6.3938
       115                         -0.2327769              -6.3342
       116                         -0.2298344              -6.2541
       117                         -0.2039934              -5.5509
       118                         -0.1925750              -5.2402
       119                         -0.1818199              -4.9476
       120                         -0.1008395              -2.7440
       ...                                ...                  ...
       200                          0.6577402              17.8980
      -------------------------------------------------------------
                  HL-Gap            0.0278820 Eh            0.7587 eV
             Fermi-level           -0.3518375 Eh           -9.5740 eV

     #   Z          covCN         q      C6AA      α(0)
     1   6 C        3.754    -0.162    23.702     6.942
     2   6 C        2.988     0.181    24.128     8.057
     3   8 O        1.821    -0.088    15.648     5.342
     4   7 N        1.948    -0.138    24.753     7.378
     5   6 C        3.014     0.072    26.361     8.422
     6   6 C        2.766     0.274    22.364     7.745
     7   8 O        0.859    -0.513    24.063     6.577
     8   7 N        2.740    -0.052    22.237     7.004
     9   6 C        3.763    -0.015    20.888     6.515
    10   6 C        3.772     0.003    20.564     6.462
    11   7 N        2.734    -0.171    24.698     7.381
    12   6 C        3.820     0.037    19.945     6.356
    13   6 C        2.985     0.016    27.655     8.626
    14   6 C        2.922    -0.037    28.927     8.820
    15   6 C        2.920    -0.038    28.946     8.823
    16   6 C        2.976    -0.026    28.640     8.778
    17   6 C        2.762     0.270    22.435     7.757
    18   8 O        0.858    -0.542    24.739     6.669
    19   7 N        2.689    -0.171    24.705     7.382
    20   6 C        3.798     0.044    19.843     6.343
    21   6 C        3.806    -0.085    22.114     6.694
    22   6 C        3.806    -0.085    22.110     6.694
    23   6 C        2.925    -0.023    28.589     8.768
    24   6 C        2.922    -0.039    28.972     8.827
    25   6 C        2.985     0.015    27.664     8.628
    26   6 C        2.923    -0.040    28.988     8.829
    27   6 C        2.920    -0.038    28.944     8.823
    28   6 C        2.976    -0.026    28.642     8.779
    29   6 C        2.761     0.271    22.429     7.756
    30   8 O        0.858    -0.539    24.677     6.660
    31   7 N        2.689    -0.172    24.715     7.383
    32   6 C        3.797     0.044    19.842     6.343
    33   6 C        3.806    -0.084    22.106     6.693
    34   6 C        3.806    -0.085    22.112     6.694
    35   6 C        2.925    -0.024    28.598     8.770
    36   6 C        2.922    -0.037    28.917     8.818
    37   6 C        3.772     0.001    20.600     6.467
    38   6 C        3.756    -0.016    20.918     6.521
    39   6 C        2.960    -0.035    28.878     8.814
    40   7 N        2.756     0.571    13.259     5.408
    41   8 O        0.932    -0.428    22.209     6.320
    42   8 O        0.933    -0.442    22.490     6.360
    43   1 H        0.924     0.144     1.434     1.873
    44   1 H        0.925     0.128     1.547     1.945
    45   1 H        0.925     0.127     1.557     1.951
    46   1 H        0.925     0.080     1.979     2.200
    47   1 H        0.924     0.086     1.920     2.167
    48   1 H        0.925     0.063     2.160     2.298
    49   1 H        0.922     0.020     2.740     2.589
    50   1 H        0.922     0.023     2.686     2.563
    51   1 H        0.926     0.071     2.071     2.250
    52   1 H        0.926     0.056     2.242     2.341
    53   1 H        0.860     0.215     1.032     1.591
    54   1 H        0.925     0.059     2.210     2.325
    55   1 H        0.926     0.058     2.226     2.333
    56   1 H        0.926     0.054     2.276     2.359
    57   1 H        0.926     0.059     2.215     2.327
    58   1 H        0.926     0.054     2.269     2.356
    59   1 H        0.926     0.047     2.361     2.403
    60   1 H        0.926     0.047     2.357     2.401
    61   1 H        0.926     0.050     2.324     2.384
    62   1 H        0.926     0.052     2.293     2.368
    63   1 H        0.860     0.213     1.042     1.599
    64   1 H        0.925     0.060     2.200     2.320
    65   1 H        0.926     0.058     2.225     2.333
    66   1 H        0.926     0.055     2.259     2.350
    67   1 H        0.926     0.056     2.241     2.341
    68   1 H        0.926     0.054     2.273     2.357
    69   1 H        0.926     0.050     2.317     2.380
    70   1 H        0.926     0.069     2.096     2.264
    71   1 H        0.923     0.025     2.655     2.548
    72   1 H        0.925     0.065     2.138     2.287
    73   1 H        0.924     0.090     1.874     2.141
    74   1 H        0.925     0.064     2.157     2.297

 Mol. C6AA /au·bohr⁶  :      63108.938966
 Mol. C8AA /au·bohr⁸  :    1486872.290268
 Mol. α(0) /au        :        384.670021


Wiberg/Mayer (AO) data.
largest (>0.10) Wiberg bond orders for each atom

 ---------------------------------------------------------------------------
     #   Z sym  total        # sym  WBO       # sym  WBO       # sym  WBO
 ---------------------------------------------------------------------------
     1   6 C    3.962 --     2 C    1.065    45 H    0.963    44 H    0.944
                            43 H    0.915
     2   6 C    3.916 --    39 C    1.389     3 O    1.220     1 C    1.065
                             4 N    0.121
     3   8 O    2.491 --     2 C    1.220     4 N    1.060
     4   7 N    2.950 --     5 C    1.613     3 O    1.060     2 C    0.121
     5   6 C    3.970 --     4 N    1.613    39 C    1.206     6 C    0.940
     6   6 C    3.960 --     7 O    1.575     8 N    1.344     5 C    0.940
     7   8 O    1.944 --     6 C    1.575     8 N    0.211
     8   7 N    3.573 --     6 C    1.344    38 C    0.981     9 C    0.973
                             7 O    0.211
     9   6 C    3.954 --    10 C    0.993     8 N    0.973    46 H    0.966
                            47 H    0.961
    10   6 C    3.985 --    11 N    1.004     9 C    0.993    48 H    0.964
                            49 H    0.963
    11   7 N    3.122 --    37 C    1.005    10 C    1.004    12 C    0.983
    12   6 C    3.982 --    11 N    0.983    25 C    0.976    13 C    0.976
                            50 H    0.948
    13   6 C    3.983 --    24 C    1.409    14 C    1.395    12 C    0.976
                            16 C    0.102
    14   6 C    3.988 --    15 C    1.461    13 C    1.395    51 H    0.962
                            23 C    0.106
    15   6 C    3.989 --    14 C    1.461    16 C    1.386    52 H    0.963
                            24 C    0.104
    16   6 C    3.983 --    23 C    1.395    15 C    1.386    17 C    0.995
                            13 C    0.102
    17   6 C    3.944 --    18 O    1.584    19 N    1.282    16 C    0.995
    18   8 O    1.907 --    17 C    1.584    19 N    0.190
    19   7 N    3.486 --    17 C    1.282    20 C    1.005    53 H    0.918
                            18 O    0.190
    20   6 C    3.924 --    19 N    1.005    54 H    0.963    21 C    0.961
                            22 C    0.960
    21   6 C    3.937 --    56 H    0.979    55 H    0.977    22 C    0.975
                            20 C    0.961
    22   6 C    3.936 --    58 H    0.979    57 H    0.977    21 C    0.975
                            20 C    0.960
    23   6 C    3.987 --    24 C    1.451    16 C    1.395    59 H    0.968
                            14 C    0.106
    24   6 C    3.988 --    23 C    1.451    13 C    1.409    60 H    0.966
                            15 C    0.104
    25   6 C    3.983 --    26 C    1.407    36 C    1.398    12 C    0.976
                            28 C    0.102
    26   6 C    3.989 --    27 C    1.452    25 C    1.407    61 H    0.967
                            35 C    0.105
    27   6 C    3.989 --    26 C    1.452    28 C    1.394    62 H    0.964
                            36 C    0.106
    28   6 C    3.985 --    27 C    1.394    35 C    1.388    29 C    0.993
                            25 C    0.102
    29   6 C    3.944 --    30 O    1.586    31 N    1.281    28 C    0.993
    30   8 O    1.909 --    29 C    1.586    31 N    0.190
    31   7 N    3.485 --    29 C    1.281    32 C    1.004    63 H    0.920
                            30 O    0.190
    32   6 C    3.924 --    31 N    1.004    64 H    0.963    34 C    0.961
                            33 C    0.961
    33   6 C    3.936 --    66 H    0.979    65 H    0.977    34 C    0.975
                            32 C    0.961
    34   6 C    3.938 --    68 H    0.979    67 H    0.977    33 C    0.975
                            32 C    0.961
    35   6 C    3.987 --    36 C    1.459    28 C    1.388    69 H    0.967
                            26 C    0.105
    36   6 C    3.987 --    35 C    1.459    25 C    1.398    70 H    0.962
                            27 C    0.106
    37   6 C    3.985 --    11 N    1.005    38 C    0.991    72 H    0.964
                            71 H    0.962
    38   6 C    3.958 --    37 C    0.991     8 N    0.981    74 H    0.965
                            73 H    0.960
    39   6 C    3.936 --     2 C    1.389     5 C    1.206    40 N    1.039
    40   7 N    3.916 --    42 O    1.417    41 O    1.417    39 C    1.039
    41   8 O    1.891 --    40 N    1.417    42 O    0.327
    42   8 O    1.893 --    40 N    1.417    41 O    0.327
    43   1 H    0.979 --     1 C    0.915
    44   1 H    0.983 --     1 C    0.944
    45   1 H    0.983 --     1 C    0.963
    46   1 H    0.993 --     9 C    0.966
    47   1 H    0.992 --     9 C    0.961
    48   1 H    0.995 --    10 C    0.964
    49   1 H    1.000 --    10 C    0.963
    50   1 H    0.999 --    12 C    0.948
    51   1 H    0.994 --    14 C    0.962
    52   1 H    0.996 --    15 C    0.963
    53   1 H    0.954 --    19 N    0.918
    54   1 H    0.996 --    20 C    0.963
    55   1 H    0.997 --    21 C    0.977
    56   1 H    0.997 --    21 C    0.979
    57   1 H    0.997 --    22 C    0.977
    58   1 H    0.997 --    22 C    0.979
    59   1 H    0.997 --    23 C    0.968
    60   1 H    0.997 --    24 C    0.966
    61   1 H    0.997 --    26 C    0.967
    62   1 H    0.997 --    27 C    0.964
    63   1 H    0.955 --    31 N    0.920
    64   1 H    0.996 --    32 C    0.963
    65   1 H    0.997 --    33 C    0.977
    66   1 H    0.997 --    33 C    0.979
    67   1 H    0.997 --    34 C    0.977
    68   1 H    0.997 --    34 C    0.979
    69   1 H    0.997 --    35 C    0.967
    70   1 H    0.995 --    36 C    0.962
    71   1 H    0.999 --    37 C    0.962
    72   1 H    0.995 --    37 C    0.964
    73   1 H    0.992 --    38 C    0.960
    74   1 H    0.996 --    38 C    0.965
 ---------------------------------------------------------------------------

Topologies differ in total number of bonds
Writing topology from bond orders to xtbtopo.mol

molecular dipole:
                 x           y           z       tot (Debye)
 q only:       -0.624      -1.338      -0.672
   full:       -0.343      -1.208      -0.840       3.841
molecular quadrupole (traceless):
                xx          xy          yy          xz          yz          zz
 q only:       -9.997     -32.695      12.022     -23.721      44.393      -2.025
  q+dip:      -10.441     -29.178       6.570     -20.702      43.155       3.870
   full:       -8.268     -28.278       8.072     -22.404      42.594       0.196

           -------------------------------------------------
          |                Geometry Summary                 |
           -------------------------------------------------

      molecular mass/u    :      572.6128298
   center of mass at/Å    :        0.6048262      -0.0205083      -0.0177847
  moments of inertia/u·Å² :        0.7518396E+04   0.1287827E+05   0.1898151E+05
rotational constants/cm⁻¹ :        0.2242185E-02   0.1308998E-02   0.8881079E-03

 * 74 selected distances

     #   Z          #   Z                                           value/Å
     1   6 C        2   6 C                                       1.4655758
     2   6 C        3   8 O                                       1.3234235
     3   8 O        4   7 N                                       1.3673540
     4   7 N        5   6 C                                       1.3006538
     6   6 C        7   8 O                                       1.2301918
     6   6 C        8   7 N                                       1.3243436
     8   7 N        9   6 C                                       1.4482166
     9   6 C       10   6 C                                       1.5272216
    10   6 C       11   7 N                                       1.4537040
    11   7 N       12   6 C                                       1.4579577
    13   6 C       14   6 C                                       1.3905824
    14   6 C       15   6 C                                       1.3812264
    15   6 C       16   6 C                                       1.3931874
    17   6 C       18   8 O                                       1.2332111
    17   6 C       19   7 N                                       1.3438010
    19   7 N       20   6 C                                       1.4268116
    20   6 C       21   6 C                                       1.4986321
    20   6 C       22   6 C                                       1.4990103
    21   6 C       22   6 C                                       1.5018032
    16   6 C       23   6 C                                       1.3914774
    13   6 C       24   6 C                                       1.3887256
    23   6 C       24   6 C                                       1.3813014
    25   6 C       26   6 C                                       1.3887367
    26   6 C       27   6 C                                       1.3825596
    27   6 C       28   6 C                                       1.3917372
    29   6 C       30   8 O                                       1.2326580
    29   6 C       31   7 N                                       1.3439345
    31   7 N       32   6 C                                       1.4267916
    32   6 C       33   6 C                                       1.4985016
    32   6 C       34   6 C                                       1.4991387
    33   6 C       34   6 C                                       1.5018129
    28   6 C       35   6 C                                       1.3924482
    25   6 C       36   6 C                                       1.3904654
    35   6 C       36   6 C                                       1.3800570
    11   7 N       37   6 C                                       1.4532950
     8   7 N       38   6 C                                       1.4444101
    37   6 C       38   6 C                                       1.5291366 (max)
     2   6 C       39   6 C                                       1.3921662
     5   6 C       39   6 C                                       1.4301540
    39   6 C       40   7 N                                       1.3971356
    40   7 N       41   8 O                                       1.2198205
    40   7 N       42   8 O                                       1.2213732
     1   6 C       43   1 H                                       1.0904366
     1   6 C       44   1 H                                       1.0878499
     1   6 C       45   1 H                                       1.0854556
     9   6 C       46   1 H                                       1.0901817
     9   6 C       47   1 H                                       1.0922030
    10   6 C       48   1 H                                       1.0897700
    10   6 C       49   1 H                                       1.1049789
    12   6 C       50   1 H                                       1.1064608
    14   6 C       51   1 H                                       1.0775539
    15   6 C       52   1 H                                       1.0791580
    19   7 N       53   1 H                                       1.0092056 (min)
    20   6 C       54   1 H                                       1.0821922
    21   6 C       55   1 H                                       1.0786668
    21   6 C       56   1 H                                       1.0780032
    22   6 C       57   1 H                                       1.0785462
    22   6 C       58   1 H                                       1.0779443
    23   6 C       59   1 H                                       1.0798501
    24   6 C       60   1 H                                       1.0795912
    26   6 C       61   1 H                                       1.0797023
    27   6 C       62   1 H                                       1.0793206
    31   7 N       63   1 H                                       1.0092128
    32   6 C       64   1 H                                       1.0821285
    33   6 C       65   1 H                                       1.0786579
    33   6 C       66   1 H                                       1.0779452
    34   6 C       67   1 H                                       1.0787433
    34   6 C       68   1 H                                       1.0779401
    35   6 C       69   1 H                                       1.0797365
    36   6 C       70   1 H                                       1.0774433
    37   6 C       71   1 H                                       1.1044594
    37   6 C       72   1 H                                       1.0900557
    38   6 C       73   1 H                                       1.0933092
    38   6 C       74   1 H                                       1.0885951

 * 6 distinct bonds (by element types)

   Z      Z             #   av. dist./Å        max./Å        min./Å
   1 H    6 C          30     1.0848960     1.1064608     1.0774433
   6 C    6 C          23     1.4345938     1.5291366     1.3800570
   1 H    7 N           2     1.0092092     1.0092128     1.0092056
   6 C    7 N          12     1.4017546     1.4579577     1.3006538
   6 C    8 O           4     1.2548711     1.3234235     1.2301918
   7 N    8 O           3     1.2695159     1.3673540     1.2198205


optimized geometry written to: xtbopt.xyz


           -------------------------------------------------
          | TOTAL ENERGY             -122.422822044520 Eh   |
          | GRADIENT NORM               0.000348457930 Eh/α |
          | HOMO-LUMO GAP               0.758706805047 eV   |
           -------------------------------------------------
########################################################################
[WARNING] Runtime exception occurred
-2- restart_readRestart: Dimension missmatch in restart file.
-1- restart_readRestart: Number of electron missmatch in restart file.
########################################################################

------------------------------------------------------------------------
 * finished run on 2026/08/28 at 18:28:18.704     
------------------------------------------------------------------------
 total:
 * wall-time:     0 d,  0 h,  0 min,  4.812 sec
 *  cpu-time:     0 d,  0 h,  0 min, 32.469 sec
 * ratio c/w:     6.748 speedup
 SCF:
 * wall-time:     0 d,  0 h,  0 min,  0.134 sec
 *  cpu-time:     0 d,  0 h,  0 min,  0.656 sec
 * ratio c/w:     4.893 speedup
 ANC optimizer:
 * wall-time:     0 d,  0 h,  0 min,  4.633 sec
 *  cpu-time:     0 d,  0 h,  0 min, 31.703 sec
 * ratio c/w:     6.843 speedup

