74
 energy: -122.422822044520 gnorm: 0.000348457930 xtb: 6.7.1 (edcfbbe)
C            9.01374109784243       -2.48407615589233       -0.28105226950415
C            7.83520465992510       -1.67062431489080       -0.59291764216539
O            7.18428994251340       -1.84865685606029       -1.73136560726248
N            6.12953755586640       -0.98416356943059       -1.83038820754588
C            6.10258564514266       -0.27408322472500       -0.74100325770826
C            5.22958894342761        0.92621623557129       -0.52998645468371
O            5.71911941372768        2.02427010040795       -0.79077240722155
N            4.01120575276446        0.72509217812016       -0.05147086930198
C            3.08947600091631        1.82712229217050        0.13094274445396
C            1.87657315908110        1.62282032775781       -0.77433777726813
N            1.24569017544231        0.35486250454233       -0.44642844706539
C           -0.01687078454876        0.16692509210674       -1.15088548060422
C           -1.00303450381207        1.26993001639660       -0.83306349576232
C           -1.12064961130784        1.76438485213006        0.46130903995514
C           -2.04653886196244        2.74466943715380        0.76057014749092
C           -2.88834017055777        3.24028760978810       -0.23275954723247
C           -3.91693580943925        4.28570777507289        0.02284621404817
O           -4.97340860525252        4.32723119762442       -0.61193757512510
N           -3.60556113690028        5.18443575961811        0.97212736613907
C           -4.46317939365953        6.26429525985925        1.33844074082583
C           -3.86535294780201        7.58626648684674        1.71379822084835
C           -4.50205215967484        6.72310674298026        2.76497936564564
C           -2.79133816022411        2.72168612305050       -1.52033558292404
C           -1.85229005406705        1.75387285438251       -1.81953332454828
C           -0.70243140153553       -1.11567701386627       -0.73200632910137
C           -1.43816093798566       -1.84574042058705       -1.65628910257818
C           -2.12381183057447       -2.98392723244383       -1.27434117772449
C           -2.07516924747676       -3.41820788246536        0.04700895441050
C           -2.77374797619852       -4.64774205319079        0.51208451157914
O           -2.31021056311180       -5.36534038694245        1.40069647744584
N           -3.94252584468552       -4.90839849981216       -0.09797789636292
C           -4.75727437293187       -6.03702192378214        0.21527566712982
C           -5.59032304089150       -6.66115103760527       -0.86268504104422
C           -6.24856064300012       -5.88624259548592        0.24261209149742
C           -1.31704738179488       -2.69977619803234        0.96788827354403
C           -0.65055486262041       -1.55296137802781        0.58688898729706
C            2.18316299785525       -0.72351843859877       -0.71157986594867
C            3.40406187811759       -0.56216030320575        0.19485707011782
C            7.18385631911981       -0.66154488529819        0.11109263320748
N            7.47444518155291       -0.14615172558293        1.37676062479768
O            8.51894737961679       -0.48374804091693        1.90874335090437
O            6.65890158657174        0.60735115452135        1.88555754010404
H            9.91437323727942       -1.89822639843013       -0.46731436613290
H            9.02000936380733       -2.74121327714619        0.77595214016554
H            9.02877713515999       -3.36990674920353       -0.90818193286630
H            3.61118445864162        2.75265505901204       -0.11340371887835
H            2.77415847840964        1.84478958995797        1.17649041708401
H            1.16667180841931        2.43344181520557       -0.61145331567137
H            2.20418485935666        1.65093559383263       -1.82925872906079
H            0.14440924288740        0.14245427075694       -2.24525529437611
H           -0.47115764682807        1.38039548378376        1.23061693251220
H           -2.13285259941127        3.09418218338449        1.77790620284106
H           -2.70630313506746        5.13762835559870        1.42780260606453
H           -5.37824737690539        6.23613471024136        0.76138153577507
H           -2.79020015544937        7.67326296811361        1.71375893798610
H           -4.37608701934588        8.48183873801729        1.39885094414148
H           -3.85574032454811        6.22900836083036        3.47308209409494
H           -5.45290577447868        7.02205959333893        3.17542838407183
H           -3.46208701874459        3.09834110606469       -2.27816342847416
H           -1.78186206020560        1.37365821150664       -2.82749839171452
H           -1.47430193046493       -1.52473284469278       -2.68653414908196
H           -2.66402653418869       -3.54889867844000       -2.01859115696936
H           -4.30686246686116       -4.25274006445864       -0.77316753487470
H           -4.27071722708028       -6.66614672360671        0.94907806035378
H           -5.56222477666926       -6.21542614570032       -1.84454171983091
H           -5.68723920675437       -7.73468751142620       -0.87229392830175
H           -6.66295493036798       -4.91889362621103        0.00554611262742
H           -6.79923387909652       -6.42459189047834        0.99686255255081
H           -1.26928963596781       -3.05920708052869        1.98492287996561
H           -0.07083568077102       -0.99798227399586        1.30578235462607
H            2.51550749676820       -0.72104597414282       -1.76484689592319
H            1.70371784812531       -1.67941870004813       -0.50037311390861
H            3.08785117755148       -0.59666540105489        1.24087095107048
H            4.11926888525233       -1.36062356331195        0.00518790744650
