76

C      9.378309   -2.808191   -1.073629
C      8.159714   -1.981028   -0.989294
O      7.165971   -2.270264   -1.872799
N      6.099926   -1.411948   -1.672853
C      6.452073   -0.605890   -0.653142
C      5.632727    0.524451   -0.213948
O      6.174872    1.612087   -0.018492
N      4.257214    0.346981   -0.023006
C      3.431890    1.549079    0.067359
C      2.143217    1.334832    0.878826
N      1.349218    0.178722    0.384901
C      0.101491    0.005879    1.191847
C     -0.817891    1.236957    1.165990
C     -1.426548    1.676487    2.353445
C     -2.286710    2.777806    2.348347
C     -2.550417    3.463138    1.157410
C     -3.475519    4.627403    1.205603
O     -4.356678    4.685011    2.056064
N     -3.266616    5.624546    0.274565
C     -4.156212    6.810580    0.209880
C     -5.462460    6.586381   -0.565839
O     -4.947695    7.311353   -1.714380
C     -3.838400    7.798489   -0.920023
C     -1.969928    3.021668   -0.036397
C     -1.110508    1.918581   -0.029015
C     -0.713896   -1.235046    0.797480
C     -1.025452   -1.519513   -0.544244
C     -1.781542   -2.645614   -0.883290
C     -2.248907   -3.501232    0.119949
C     -3.051759   -4.715024   -0.189350
O     -3.022205   -5.686417    0.557918
N     -3.840577   -4.660573   -1.321467
C     -4.760493   -5.777268   -1.659895
C     -6.125298   -5.712539   -0.958650
O     -6.757801   -5.206138   -2.164905
C     -5.584517   -5.565873   -2.936967
C     -1.936368   -3.234751    1.457248
C     -1.182597   -2.107454    1.794060
C      2.219294   -1.021802    0.481613
C      3.525584   -0.885107   -0.326214
C      7.745544   -0.939603   -0.194886
N      8.470662   -0.360666    0.877830
O      9.697354   -0.277191    0.743885
O      7.821409   -0.046169    1.881304
H      9.680047   -3.155478   -0.080684
H      9.217115   -3.689797   -1.702036
H     10.202051   -2.230628   -1.503913
H      4.001293    2.372325    0.512203
H      3.183512    1.844356   -0.959937
H      2.406084    1.189450    1.935481
H      1.569036    2.264555    0.812391
H      0.424381   -0.134339    2.234573
H     -1.243287    1.159326    3.293148
H     -2.754145    3.099616    3.277516
H     -2.475427    5.554125   -0.351889
H     -4.279323    7.286094    1.188429
H     -6.345398    7.080894   -0.148894
H     -5.705845    5.550694   -0.819535
H     -2.881906    7.659162   -1.431835
H     -3.967297    8.855651   -0.666781
H     -2.196369    3.497852   -0.985780
H     -0.666051    1.587066   -0.965575
H     -0.660169   -0.868483   -1.336065
H     -1.969599   -2.851300   -1.933020
H     -4.001068   -3.750801   -1.738686
H     -4.263206   -6.751452   -1.612377
H     -6.548456   -6.678471   -0.665473
H     -6.212535   -5.004738   -0.129479
H     -5.764119   -6.466133   -3.533336
H     -5.263559   -4.750554   -3.591517
H     -2.285422   -3.903122    2.242557
H     -0.964710   -1.917672    2.843096
H      2.472830   -1.217096    1.532671
H      1.708030   -1.912159    0.101559
H      4.149899   -1.755845   -0.106442
H      3.304138   -0.878224   -1.400217
