      -----------------------------------------------------------      
     |                   =====================                   |     
     |                           x T B                           |     
     |                   =====================                   |     
     |                         S. Grimme                         |     
     |          Mulliken Center for Theoretical Chemistry        |     
     |                    University of Bonn                     |     
      -----------------------------------------------------------      

   * xtb version 6.7.1 (edcfbbe) compiled by 'VssAdministrator@runnervm171ch' on 2026-06-10

   xtb is free software: you can redistribute it and/or modify it under
   the terms of the GNU Lesser General Public License as published by
   the Free Software Foundation, either version 3 of the License, or
   (at your option) any later version.
   
   xtb is distributed in the hope that it will be useful,
   but WITHOUT ANY WARRANTY; without even the implied warranty of
   MERCHANTABILITY or FITNESS FOR A PARTICULAR PURPOSE.  See the
   GNU Lesser General Public License for more details.
   
   Cite this work as:
   * C. Bannwarth, E. Caldeweyher, S. Ehlert, A. Hansen, P. Pracht,
     J. Seibert, S. Spicher, S. Grimme, WIREs Comput. Mol. Sci., 2020, 11,
     e01493. DOI: 10.1002/wcms.1493
   
   for GFN2-xTB:
   * C. Bannwarth, S. Ehlert and S. Grimme., J. Chem. Theory Comput., 2019,
     15, 1652-1671. DOI: 10.1021/acs.jctc.8b01176
   for GFN1-xTB:
   * S. Grimme, C. Bannwarth, P. Shushkov, J. Chem. Theory Comput., 2017,
     13, 1989-2009. DOI: 10.1021/acs.jctc.7b00118
   for GFN0-xTB:
   * P. Pracht, E. Caldeweyher, S. Ehlert, S. Grimme, ChemRxiv, 2019, preprint.
     DOI: 10.26434/chemrxiv.8326202.v1
   for GFN-FF:
   * S. Spicher and S. Grimme, Angew. Chem. Int. Ed., 2020, 59, 15665-15673.
     DOI: 10.1002/anie.202004239
   
   for ALPB and GBSA implicit solvation:
   * S. Ehlert, M. Stahn, S. Spicher, S. Grimme, J. Chem. Theory Comput.,
     2021, 17, 4250-4261. DOI: 10.1021/acs.jctc.1c00471
   
   for ddCOSMO and CPCM-X implicit solvation:
   * M. Stahn, S. Ehlert, S. Grimme, J. Phys. Chem. A,
     2023, XX, XXXX-XXXX. DOI: 10.1021/acs.jpca.3c04382
   
   for DFT-D4:
   * E. Caldeweyher, C. Bannwarth and S. Grimme, J. Chem. Phys., 2017,
     147, 034112. DOI: 10.1063/1.4993215
   * E. Caldeweyher, S. Ehlert, A. Hansen, H. Neugebauer, S. Spicher,
     C. Bannwarth and S. Grimme, J. Chem. Phys., 2019, 150, 154122.
     DOI: 10.1063/1.5090222
   * E. Caldeweyher, J.-M. Mewes, S. Ehlert and S. Grimme, Phys. Chem. Chem. Phys.
     2020, 22, 8499-8512. DOI: 10.1039/D0CP00502A
   
   for sTDA-xTB:
   * S. Grimme and C. Bannwarth, J. Chem. Phys., 2016, 145, 054103.
     DOI: 10.1063/1.4959605
   
   in the mass-spec context:
   * V. Asgeirsson, C. Bauer and S. Grimme, Chem. Sci., 2017, 8, 4879.
     DOI: 10.1039/c7sc00601b
   * J. Koopman and S. Grimme, ACS Omega 2019, 4, 12, 15120-15133.
     DOI: 10.1021/acsomega.9b02011
   
   for metadynamics refer to:
   * S. Grimme, J. Chem. Theory Comput., 2019, 155, 2847-2862
     DOI: 10.1021/acs.jctc.9b00143
   
   for SPH calculations refer to:
   * S. Spicher and S. Grimme, J. Chem. Theory Comput., 2021, 17, 1701-1714
     DOI: 10.1021/acs.jctc.0c01306
   
   for ONIOM refer to:
   * C. Plett, A. Katbashev, S. Ehlert, S. Grimme, M. Bursch,
     Phys. Chem. Chem. Phys., 2023, 25, 17860-17868. DOI: 10.1039/D3CP02178E
   
   for DIPRO refer to:
   * J. Kohn, N. Gildemeister, S. Grimme, D. Fazzi, A. Hansen,
     J. Chem. Phys., 2023, just accepted.
   
   for PTB refer to:
   * S. Grimme, M. Mueller, A. Hansen, J. Chem. Phys., 2023, 158, 124111.
     DOI: 10.1063/5.0137838
   
   with help from (in alphabetical order)
   P. Atkinson, C. Bannwarth, F. Bohle, G. Brandenburg, E. Caldeweyher
   M. Checinski, S. Dohm, S. Ehlert, S. Ehrlich, I. Gerasimov, C. Hölzer
   A. Katbashev, J. Kohn, J. Koopman, C. Lavigne, S. Lehtola, F. März, M. Müller,
   F. Musil, H. Neugebauer, J. Pisarek, C. Plett, P. Pracht, F. Pultar,
   J. Seibert, P. Shushkov, S. Spicher, M. Stahn, M. Steiner, T. Strunk,
   J. Stückrath, T. Rose, and J. Unsleber
   
 * started run on 2026/08/28 at 18:28:18.785     
   ID    Z sym.   atoms
    1    6 C      1, 2, 5, 6, 9, 10, 12-17, 20, 21, 23-30, 33, 34, 36-41
    2    8 O      3, 7, 18, 22, 31, 35, 43, 44
    3    7 N      4, 8, 11, 19, 32, 42
    4    1 H      45-76

           -------------------------------------------------
          |                Calculation Setup                |
           -------------------------------------------------

          program call               : C:\Users\Christian\Miniconda3\Library\bin\xtb.exe S03.xyz --gfn 2 --opt --alpb water
          coordinate file            : S03.xyz
          omp threads                :                    12


           -------------------------------------------------
          |                 G F N 2 - x T B                 |
           -------------------------------------------------

        Reference                      10.1021/acs.jctc.8b01176
      * Hamiltonian:
        H0-scaling (s, p, d)           1.850000    2.230000    2.230000
        zeta-weighting                 0.500000
      * Dispersion:
        s8                             2.700000
        a1                             0.520000
        a2                             5.000000
        s9                             5.000000
      * Repulsion:
        kExp                           1.500000    1.000000
        rExp                           1.000000
      * Coulomb:
        alpha                          2.000000
        third order                    shell-resolved
        anisotropic                    true
        a3                             3.000000
        a5                             4.000000
        cn-shift                       1.200000
        cn-exp                         4.000000
        max-rad                        5.000000

      * Solvation model:               ALPB
        Solvent                        water
        Parameter file                 internal GFN2-xTB/ALPB
        Dielectric constant                8.0200E+01
        Reference state                gsolv [1 M gas/solution]
        Free energy shift                  1.0808E-03 Eh       6.7819E-01 kcal/mol
        Temperature                        2.9815E+02 K
        Density                            1.0000E+00 kg/L
        Solvent mass                       1.8000E+01 g/mol
        Interaction kernel             P16
        Born radius scaling (c1)           1.4744E+00
        Born radii integrator          GBOBC
        Born offset                        0.0000E+00 a0       0.0000E+00 AA
        H-bond correction              true
        Ion screening                  false
        Surface tension                    1.0000E-05 Eh       1.5569E+01 dyn/cm
        Grid points                               230 per atom

          ...................................................
          :                      SETUP                      :
          :.................................................:
          :  # basis functions                 208          :
          :  # atomic orbitals                 208          :
          :  # shells                          120          :
          :  # electrons                       230          :
          :  max. iterations                   250          :
          :  Hamiltonian                  GFN2-xTB          :
          :  restarted?                      false          :
          :  GBSA solvation                   true          :
          :  PC potential                    false          :
          :  electronic temp.          300.0000000     K    :
          :  accuracy                    1.0000000          :
          :  -> integral cutoff          0.2500000E+02      :
          :  -> integral neglect         0.1000000E-07      :
          :  -> SCF convergence          0.1000000E-05 Eh   :
          :  -> wf. convergence          0.1000000E-03 e    :
          :  Broyden damping             0.4000000          :
          :  net charge                          0          :
          :  unpaired electrons                  0          :
          ...................................................

 iter      E             dE          RMSdq      gap      omega  full diag
   1   -131.6503402 -0.131650E+03  0.476E+00    1.81       0.0  T
   2   -131.9515338 -0.301194E+00  0.251E+00    1.18       1.0  T
   3   -131.9585861 -0.705229E-02  0.119E+00    0.72       1.0  T
   4   -131.9679834 -0.939733E-02  0.468E-01    0.56       1.0  T
   5   -131.9764262 -0.844278E-02  0.999E-02    0.46       1.0  T
   6   -131.9765678 -0.141642E-03  0.535E-02    0.47       1.0  T
   7   -131.9766057 -0.378855E-04  0.265E-02    0.48       1.0  T
   8   -131.9766187 -0.130427E-04  0.871E-03    0.49       1.3  T
   9   -131.9766204 -0.168459E-05  0.400E-03    0.49       2.9  T
  10   -131.9766206 -0.216559E-06  0.199E-03    0.50       5.8  T
  11   -131.9766207 -0.554418E-07  0.913E-04    0.50      12.6  T
  12   -131.9766207 -0.175941E-07  0.367E-04    0.50      31.3  T

   *** convergence criteria satisfied after 12 iterations ***

         #    Occupation            Energy/Eh            Energy/eV
      -------------------------------------------------------------
         1        2.0000           -0.7944680             -21.6186
       ...           ...                  ...                  ...
       109        2.0000           -0.4091550             -11.1337
       110        2.0000           -0.4065851             -11.0637
       111        2.0000           -0.4029039             -10.9636
       112        2.0000           -0.4014753             -10.9247
       113        2.0000           -0.3995815             -10.8732
       114        2.0000           -0.3981104             -10.8331
       115        1.9999           -0.3648732              -9.9287 (HOMO)
       116        0.0001           -0.3466459              -9.4327 (LUMO)
       117                         -0.3055785              -8.3152
       118                         -0.2684632              -7.3053
       119                         -0.2601719              -7.0796
       120                         -0.2528645              -6.8808
       ...                                ...                  ...
       208                          0.6385594              17.3761
      -------------------------------------------------------------
                  HL-Gap            0.0182274 Eh            0.4960 eV
             Fermi-level           -0.3557596 Eh           -9.6807 eV

 SCC (total)                   0 d,  0 h,  0 min,  0.107 sec
 SCC setup                      ...        0 min,  0.001 sec (  1.396%)
 Dispersion                     ...        0 min,  0.003 sec (  2.403%)
 classical contributions        ...        0 min,  0.000 sec (  0.188%)
 integral evaluation            ...        0 min,  0.006 sec (  5.634%)
 iterations                     ...        0 min,  0.074 sec ( 68.986%)
 molecular gradient             ...        0 min,  0.022 sec ( 20.623%)
 printout                       ...        0 min,  0.001 sec (  0.738%)

         :::::::::::::::::::::::::::::::::::::::::::::::::::::
         ::                     SUMMARY                     ::
         :::::::::::::::::::::::::::::::::::::::::::::::::::::
         :: total energy            -130.511598923629 Eh    ::
         :: total w/o Gsasa/hb      -130.509732917258 Eh    ::
         :: gradient norm              0.131632852748 Eh/a0 ::
         :: HOMO-LUMO gap              0.495992308082 eV    ::
         ::.................................................::
         :: SCC energy              -131.976533281325 Eh    ::
         :: -> isotropic ES            0.284128435114 Eh    ::
         :: -> anisotropic ES          0.010518938431 Eh    ::
         :: -> anisotropic XC          0.045113077790 Eh    ::
         :: -> dispersion             -0.083743956694 Eh    ::
         :: -> Gsolv                  -0.056248860424 Eh    ::
         ::    -> Gelec               -0.054382854053 Eh    ::
         ::    -> Gsasa                0.007097682393 Eh    ::
         ::    -> Ghb                 -0.010044448461 Eh    ::
         ::    -> Gshift               0.001080759698 Eh    ::
         :: repulsion energy           1.464934357696 Eh    ::
         :: add. restraining           0.000000000000 Eh    ::
         :: total charge               0.000000000000 e     ::
         :::::::::::::::::::::::::::::::::::::::::::::::::::::

      ----------------------------------------------------------- 
     |                   =====================                   |
     |                        A N C O P T                        |
     |                   =====================                   |
     |               Approximate Normal Coordinate               |
     |                Rational Function Optimizer                |
      ----------------------------------------------------------- 
      ----------------------------------------------------------- 
     |                   =====================                   |
     |                        A N C O P T                        |
     |                   =====================                   |
     |               Approximate Normal Coordinate               |
     |                Rational Function Optimizer                |
      ----------------------------------------------------------- 

          ...................................................
          :                      SETUP                      :
          :.................................................:
          :   optimization level            normal          :
          :   max. optcycles                   228          :
          :   ANC micro-cycles                  20          :
          :   degrees of freedom               222          :
          :.................................................:
          :   RF solver                   davidson          :
          :   write xtbopt.log                true          :
          :   linear?                        false          :
          :   energy convergence         0.5000000E-05 Eh   :
          :   grad. convergence          0.1000000E-02 Eh/α :
          :   maxmium RF displ.          1.0000000          :
          :   Hlow (freq-cutoff)         0.1000000E-01      :
          :   Hmax (freq-cutoff)         5.0000000          :
          :   S6 in model hess.         20.0000000          :
          ...................................................

generating ANC from exact Hessian ...
Using Lindh-Hessian (1995)
 Shifting diagonal of input Hessian by    9.9643794127859345E-003
 Lowest  eigenvalues of input Hessian
    0.000000    0.000000    0.000000    0.000000    0.000000    0.000000
    0.010000    0.010024    0.010055    0.010233    0.010361    0.010421
    0.010513    0.010605    0.010847    0.011007    0.011336    0.011427
 Highest eigenvalues
    1.968120    2.176252    2.247071    2.259327    2.262070    2.522645


........................................................................
.............................. CYCLE    1 ..............................
........................................................................

 iter      E             dE          RMSdq      gap      omega  full diag
   1   -131.9766207 -0.131977E+03  0.181E-04    0.50       0.0  T
   2   -131.9766207 -0.371102E-09  0.120E-04    0.50      95.8  T
   3   -131.9766207 -0.100272E-09  0.798E-05    0.50     143.7  T
     SCC iter.                  ...        0 min,  0.020 sec
     gradient                   ...        0 min,  0.018 sec
 * total energy  :  -130.5115989 Eh     change       -0.2082004E-08 Eh
   gradient norm :     0.1316299 Eh/α   predicted     0.0000000E+00 (-100.00%)
   displ. norm   :     0.3813728 α      lambda       -0.2650868E-01
   maximum displ.:     0.1073128 α      in ANC's #20, #72, #81, ...

........................................................................
.............................. CYCLE    2 ..............................
........................................................................

 iter      E             dE          RMSdq      gap      omega  full diag
   1   -132.0465461 -0.132047E+03  0.211E-01    0.73       0.0  T
   2   -132.0471315 -0.585465E-03  0.129E-01    0.78       1.0  T
   3   -132.0471607 -0.291347E-04  0.618E-02    0.78       1.0  T
   4   -132.0471788 -0.180926E-04  0.162E-02    0.79       1.0  T
   5   -132.0471925 -0.137131E-04  0.492E-03    0.79       2.3  T
   6   -132.0471929 -0.408891E-06  0.257E-03    0.79       4.5  T
   7   -132.0471929 -0.431151E-07  0.111E-03    0.78      10.4  T
   8   -132.0471930 -0.249967E-07  0.400E-04    0.78      28.7  T
   9   -132.0471930 -0.418626E-08  0.185E-04    0.78      61.9  T
     SCC iter.                  ...        0 min,  0.051 sec
     gradient                   ...        0 min,  0.023 sec
 * total energy  :  -130.5302989 Eh     change       -0.1869995E-01 Eh
   gradient norm :     0.0589646 Eh/α   predicted    -0.1520232E-01 ( -18.70%)
   displ. norm   :     0.4307259 α      lambda       -0.1017162E-01
   maximum displ.:     0.1506791 α      in ANC's #20, #19, #17, ...

........................................................................
.............................. CYCLE    3 ..............................
........................................................................

 iter      E             dE          RMSdq      gap      omega  full diag
   1   -132.0898440 -0.132090E+03  0.154E-01    0.86       0.0  T
   2   -132.0903185 -0.474499E-03  0.934E-02    0.91       1.0  T
   3   -132.0903532 -0.346885E-04  0.496E-02    0.91       1.0  T
   4   -132.0903539 -0.689229E-06  0.147E-02    0.92       1.0  T
   5   -132.0903652 -0.113150E-04  0.357E-03    0.92       3.2  T
   6   -132.0903654 -0.198820E-06  0.189E-03    0.92       6.1  T
   7   -132.0903654 -0.282815E-07  0.858E-04    0.92      13.4  T
   8   -132.0903655 -0.124488E-07  0.307E-04    0.92      37.3  T
     SCC iter.                  ...        0 min,  0.041 sec
     gradient                   ...        0 min,  0.024 sec
 * total energy  :  -130.5362994 Eh     change       -0.6000561E-02 Eh
   gradient norm :     0.0201889 Eh/α   predicted    -0.6029354E-02 (   0.48%)
   displ. norm   :     0.4378582 α      lambda       -0.3900706E-02
   maximum displ.:     0.1673045 α      in ANC's #20, #17, #19, ...

........................................................................
.............................. CYCLE    4 ..............................
........................................................................

 iter      E             dE          RMSdq      gap      omega  full diag
   1   -132.1008100 -0.132101E+03  0.106E-01    0.86       0.0  T
   2   -132.1008771 -0.670932E-04  0.624E-02    0.89       1.0  T
   3   -132.1008745  0.268895E-05  0.229E-02    0.91       1.0  T
   4   -132.1008824 -0.795371E-05  0.651E-03    0.91       1.8  T
   5   -132.1008846 -0.220342E-05  0.233E-03    0.91       4.9  T
   6   -132.1008847 -0.548897E-07  0.110E-03    0.91      10.4  T
   7   -132.1008847 -0.130808E-07  0.472E-04    0.91      24.3  T
   8   -132.1008847 -0.516323E-08  0.182E-04    0.91      63.0  T
     SCC iter.                  ...        0 min,  0.081 sec
     gradient                   ...        0 min,  0.020 sec
 * total energy  :  -130.5386924 Eh     change       -0.2392982E-02 Eh
   gradient norm :     0.0231033 Eh/α   predicted    -0.2324465E-02 (  -2.86%)
   displ. norm   :     0.5011588 α      lambda       -0.3226620E-02
   maximum displ.:     0.1903184 α      in ANC's #17, #20, #27, ...

........................................................................
.............................. CYCLE    5 ..............................
........................................................................

 iter      E             dE          RMSdq      gap      omega  full diag
   1   -132.1036629 -0.132104E+03  0.103E-01    0.86       0.0  T
   2   -132.1036895 -0.265915E-04  0.605E-02    0.88       1.0  T
   3   -132.1036858  0.365984E-05  0.152E-02    0.90       1.0  T
   4   -132.1036930 -0.714982E-05  0.485E-03    0.90       2.4  T
   5   -132.1036939 -0.970423E-06  0.218E-03    0.90       5.3  T
   6   -132.1036939 -0.239986E-07  0.852E-04    0.90      13.5  T
   7   -132.1036940 -0.143804E-07  0.320E-04    0.90      35.8  T
     SCC iter.                  ...        0 min,  0.043 sec
     gradient                   ...        0 min,  0.022 sec
 * total energy  :  -130.5410749 Eh     change       -0.2382462E-02 Eh
   gradient norm :     0.0149803 Eh/α   predicted    -0.2018516E-02 ( -15.28%)
   displ. norm   :     0.5128320 α      lambda       -0.2040642E-02
   maximum displ.:     0.1908078 α      in ANC's #17, #18, #27, ...

........................................................................
.............................. CYCLE    6 ..............................
........................................................................

 iter      E             dE          RMSdq      gap      omega  full diag
   1   -132.1060910 -0.132106E+03  0.106E-01    0.84       0.0  T
   2   -132.1061103 -0.193301E-04  0.632E-02    0.85       1.0  T
   3   -132.1061077  0.258917E-05  0.136E-02    0.86       1.0  T
   4   -132.1061139 -0.617091E-05  0.381E-03    0.86       3.0  T
   5   -132.1061142 -0.297319E-06  0.203E-03    0.86       5.7  T
   6   -132.1061142 -0.271862E-07  0.656E-04    0.86      17.5  T
   7   -132.1061142 -0.101923E-07  0.232E-04    0.86      49.4  T
     SCC iter.                  ...        0 min,  0.036 sec
     gradient                   ...        0 min,  0.020 sec
 * total energy  :  -130.5425850 Eh     change       -0.1510082E-02 Eh
   gradient norm :     0.0135572 Eh/α   predicted    -0.1288668E-02 ( -14.66%)
   displ. norm   :     0.5023645 α      lambda       -0.1398215E-02
   maximum displ.:     0.1629369 α      in ANC's #18, #17, #27, ...

........................................................................
.............................. CYCLE    7 ..............................
........................................................................

 iter      E             dE          RMSdq      gap      omega  full diag
   1   -132.1093068 -0.132109E+03  0.997E-02    0.86       0.0  T
   2   -132.1093176 -0.108613E-04  0.594E-02    0.86       1.0  T
   3   -132.1093158  0.183597E-05  0.106E-02    0.87       1.1  T
   4   -132.1093200 -0.416483E-05  0.325E-03    0.87       3.5  T
   5   -132.1093202 -0.216122E-06  0.165E-03    0.87       6.9  T
   6   -132.1093202 -0.151731E-07  0.500E-04    0.87      22.9  T
   7   -132.1093202 -0.428176E-08  0.181E-04    0.87      63.2  T
     SCC iter.                  ...        0 min,  0.048 sec
     gradient                   ...        0 min,  0.020 sec
 * total energy  :  -130.5437077 Eh     change       -0.1122756E-02 Eh
   gradient norm :     0.0136589 Eh/α   predicted    -0.8755430E-03 ( -22.02%)
   displ. norm   :     0.5782681 α      lambda       -0.1469442E-02
   maximum displ.:     0.1833888 α      in ANC's #8, #7, #18, ...

........................................................................
.............................. CYCLE    8 ..............................
........................................................................

 iter      E             dE          RMSdq      gap      omega  full diag
   1   -132.1128641 -0.132113E+03  0.109E-01    0.87       0.0  T
   2   -132.1128743 -0.102184E-04  0.649E-02    0.87       1.0  T
   3   -132.1128721  0.216205E-05  0.108E-02    0.87       1.1  T
   4   -132.1128771 -0.500209E-05  0.353E-03    0.87       3.2  T
   5   -132.1128774 -0.209413E-06  0.175E-03    0.87       6.5  T
   6   -132.1128774 -0.188023E-07  0.540E-04    0.87      21.2  T
   7   -132.1128774 -0.536002E-08  0.209E-04    0.87      54.9  T
     SCC iter.                  ...        0 min,  0.040 sec
     gradient                   ...        0 min,  0.024 sec
 * total energy  :  -130.5449161 Eh     change       -0.1208375E-02 Eh
   gradient norm :     0.0121032 Eh/α   predicted    -0.9804152E-03 ( -18.86%)
   displ. norm   :     0.6126397 α      lambda       -0.1405345E-02
   maximum displ.:     0.2181117 α      in ANC's #8, #7, #10, ...

........................................................................
.............................. CYCLE    9 ..............................
........................................................................

 iter      E             dE          RMSdq      gap      omega  full diag
   1   -132.1154761 -0.132115E+03  0.112E-01    0.87       0.0  T
   2   -132.1154884 -0.123077E-04  0.665E-02    0.87       1.0  T
   3   -132.1154881  0.340730E-06  0.101E-02    0.87       1.1  T
   4   -132.1154914 -0.334473E-05  0.372E-03    0.87       3.1  T
   5   -132.1154917 -0.240519E-06  0.194E-03    0.87       5.9  T
   6   -132.1154917 -0.410858E-07  0.517E-04    0.87      22.2  T
   7   -132.1154917 -0.447139E-08  0.221E-04    0.87      51.8  T
     SCC iter.                  ...        0 min,  0.040 sec
     gradient                   ...        0 min,  0.022 sec
 * total energy  :  -130.5460456 Eh     change       -0.1129514E-02 Eh
   gradient norm :     0.0096912 Eh/α   predicted    -0.9664097E-03 ( -14.44%)
   displ. norm   :     0.6090955 α      lambda       -0.1042704E-02
   maximum displ.:     0.2417869 α      in ANC's #8, #7, #10, ...

........................................................................
.............................. CYCLE   10 ..............................
........................................................................

 iter      E             dE          RMSdq      gap      omega  full diag
   1   -132.1152002 -0.132115E+03  0.108E-01    0.86       0.0  T
   2   -132.1152116 -0.113517E-04  0.640E-02    0.86       1.0  T
   3   -132.1152118 -0.214794E-06  0.911E-03    0.86       1.3  T
   4   -132.1152144 -0.259624E-05  0.337E-03    0.86       3.4  T
   5   -132.1152145 -0.130755E-06  0.181E-03    0.86       6.3  T
   6   -132.1152146 -0.515549E-07  0.462E-04    0.86      24.8  T
   7   -132.1152146 -0.367547E-08  0.207E-04    0.86      55.3  T
     SCC iter.                  ...        0 min,  0.057 sec
     gradient                   ...        0 min,  0.025 sec
 * total energy  :  -130.5468589 Eh     change       -0.8132574E-03 Eh
   gradient norm :     0.0080747 Eh/α   predicted    -0.7147729E-03 ( -12.11%)
   displ. norm   :     0.5423358 α      lambda       -0.6999671E-03
   maximum displ.:     0.2399066 α      in ANC's #8, #7, #10, ...

........................................................................
.............................. CYCLE   11 ..............................
........................................................................

 iter      E             dE          RMSdq      gap      omega  full diag
   1   -132.1157426 -0.132116E+03  0.913E-02    0.86       0.0  T
   2   -132.1157509 -0.823859E-05  0.541E-02    0.86       1.0  T
   3   -132.1157510 -0.132444E-06  0.758E-03    0.86       1.5  T
   4   -132.1157528 -0.183606E-05  0.285E-03    0.86       4.0  T
   5   -132.1157529 -0.997363E-07  0.152E-03    0.86       7.6  T
   6   -132.1157530 -0.298299E-07  0.442E-04    0.86      25.9  T
   7   -132.1157530 -0.332628E-08  0.202E-04    0.86      56.7  T
     SCC iter.                  ...        0 min,  0.052 sec
     gradient                   ...        0 min,  0.023 sec
 * total energy  :  -130.5474015 Eh     change       -0.5426848E-03 Eh
   gradient norm :     0.0070881 Eh/α   predicted    -0.4529267E-03 ( -16.54%)
   displ. norm   :     0.5531792 α      lambda       -0.5578717E-03
   maximum displ.:     0.2567866 α      in ANC's #7, #8, #22, ...

........................................................................
.............................. CYCLE   12 ..............................
........................................................................

 iter      E             dE          RMSdq      gap      omega  full diag
   1   -132.1125776 -0.132113E+03  0.939E-02    0.80       0.0  T
   2   -132.1125878 -0.101620E-04  0.556E-02    0.81       1.0  T
   3   -132.1125887 -0.867923E-06  0.714E-03    0.82       1.6  T
   4   -132.1125900 -0.130904E-05  0.311E-03    0.82       3.7  T
   5   -132.1125901 -0.165825E-06  0.159E-03    0.82       7.2  T
   6   -132.1125902 -0.319778E-07  0.606E-04    0.82      18.9  T
   7   -132.1125902 -0.544628E-08  0.203E-04    0.82      56.6  T
     SCC iter.                  ...        0 min,  0.040 sec
     gradient                   ...        0 min,  0.023 sec
 * total energy  :  -130.5478112 Eh     change       -0.4096430E-03 Eh
   gradient norm :     0.0079597 Eh/α   predicted    -0.3642962E-03 ( -11.07%)
   displ. norm   :     0.5336923 α      lambda       -0.7187448E-03
   maximum displ.:     0.2724930 α      in ANC's #7, #8, #22, ...

........................................................................
.............................. CYCLE   13 ..............................
........................................................................

 iter      E             dE          RMSdq      gap      omega  full diag
   1   -132.1195095 -0.132120E+03  0.864E-02    0.86       0.0  T
   2   -132.1195379 -0.284078E-04  0.502E-02    0.85       1.0  T
   3   -132.1195383 -0.393302E-06  0.135E-02    0.85       1.0  T
   4   -132.1195403 -0.196929E-05  0.375E-03    0.85       3.1  T
   5   -132.1195407 -0.427536E-06  0.177E-03    0.85       6.5  T
   6   -132.1195408 -0.363962E-07  0.820E-04    0.85      14.0  T
   7   -132.1195408 -0.522138E-08  0.295E-04    0.85      38.9  T
     SCC iter.                  ...        0 min,  0.045 sec
     gradient                   ...        0 min,  0.023 sec
 * total energy  :  -130.5482240 Eh     change       -0.4128247E-03 Eh
   gradient norm :     0.0123196 Eh/α   predicted    -0.4617533E-03 (  11.85%)
   displ. norm   :     0.4911275 α      lambda       -0.5106228E-03
   maximum displ.:     0.2570277 α      in ANC's #7, #8, #15, ...

........................................................................
.............................. CYCLE   14 ..............................
........................................................................

 iter      E             dE          RMSdq      gap      omega  full diag
   1   -132.1156971 -0.132116E+03  0.787E-02    0.80       0.0  T
   2   -132.1157044 -0.730918E-05  0.463E-02    0.81       1.0  T
   3   -132.1157049 -0.457434E-06  0.617E-03    0.81       1.9  T
   4   -132.1157059 -0.100818E-05  0.261E-03    0.81       4.4  T
   5   -132.1157060 -0.117473E-06  0.132E-03    0.81       8.7  T
   6   -132.1157060 -0.159141E-07  0.483E-04    0.81      23.7  T
   7   -132.1157060 -0.451558E-08  0.178E-04    0.81      64.3  T
     SCC iter.                  ...        0 min,  0.055 sec
     gradient                   ...        0 min,  0.023 sec
 * total energy  :  -130.5486220 Eh     change       -0.3979955E-03 Eh
   gradient norm :     0.0086601 Eh/α   predicted    -0.3168976E-03 ( -20.38%)
   displ. norm   :     0.4874127 α      lambda       -0.6170663E-03
   maximum displ.:     0.2637187 α      in ANC's #7, #8, #15, ...

........................................................................
.............................. CYCLE   15 ..............................
........................................................................

 iter      E             dE          RMSdq      gap      omega  full diag
   1   -132.1175151 -0.132118E+03  0.758E-02    0.76       0.0  T
   2   -132.1175284 -0.133068E-04  0.442E-02    0.76       1.0  T
   3   -132.1175279  0.526356E-06  0.925E-03    0.77       1.2  T
   4   -132.1175303 -0.241686E-05  0.299E-03    0.77       3.8  T
   5   -132.1175305 -0.193831E-06  0.141E-03    0.77       8.1  T
   6   -132.1175305 -0.161077E-07  0.601E-04    0.77      19.1  T
   7   -132.1175305 -0.479429E-08  0.197E-04    0.77      58.3  T
     SCC iter.                  ...        0 min,  0.056 sec
     gradient                   ...        0 min,  0.023 sec
 * total energy  :  -130.5490842 Eh     change       -0.4621756E-03 Eh
   gradient norm :     0.0108129 Eh/α   predicted    -0.3818343E-03 ( -17.38%)
   displ. norm   :     0.5657499 α      lambda       -0.6509193E-03
   maximum displ.:     0.3010996 α      in ANC's #7, #8, #15, ...

........................................................................
.............................. CYCLE   16 ..............................
........................................................................

 iter      E             dE          RMSdq      gap      omega  full diag
   1   -132.1161614 -0.132116E+03  0.914E-02    0.80       0.0  T
   2   -132.1161759 -0.144850E-04  0.532E-02    0.79       1.0  T
   3   -132.1161768 -0.844530E-06  0.872E-03    0.79       1.3  T
   4   -132.1161782 -0.144325E-05  0.317E-03    0.79       3.6  T
   5   -132.1161784 -0.182195E-06  0.162E-03    0.79       7.1  T
   6   -132.1161784 -0.318686E-07  0.572E-04    0.79      20.1  T
   7   -132.1161784 -0.202462E-08  0.230E-04    0.79      49.8  T
     SCC iter.                  ...        0 min,  0.040 sec
     gradient                   ...        0 min,  0.021 sec
 * total energy  :  -130.5494983 Eh     change       -0.4141262E-03 Eh
   gradient norm :     0.0107637 Eh/α   predicted    -0.4296318E-03 (   3.74%)
   displ. norm   :     0.5012965 α      lambda       -0.6034902E-03
   maximum displ.:     0.2706339 α      in ANC's #7, #8, #15, ...

........................................................................
.............................. CYCLE   17 ..............................
........................................................................

 iter      E             dE          RMSdq      gap      omega  full diag
   1   -132.1202839 -0.132120E+03  0.854E-02    0.77       0.0  T
   2   -132.1202926 -0.874941E-05  0.499E-02    0.77       1.0  T
   3   -132.1202927 -0.199731E-07  0.723E-03    0.77       1.6  T
   4   -132.1202946 -0.189823E-05  0.303E-03    0.77       3.8  T
   5   -132.1202948 -0.200514E-06  0.138E-03    0.77       8.3  T
   6   -132.1202948 -0.103887E-07  0.443E-04    0.77      25.9  T
   7   -132.1202948 -0.199833E-08  0.182E-04    0.77      62.9  T
     SCC iter.                  ...        0 min,  0.053 sec
     gradient                   ...        0 min,  0.021 sec
 * total energy  :  -130.5498532 Eh     change       -0.3548680E-03 Eh
   gradient norm :     0.0119616 Eh/α   predicted    -0.3775752E-03 (   6.40%)
   displ. norm   :     0.4828390 α      lambda       -0.4492249E-03
   maximum displ.:     0.2600296 α      in ANC's #7, #8, #15, ...

........................................................................
.............................. CYCLE   18 ..............................
........................................................................

 iter      E             dE          RMSdq      gap      omega  full diag
   1   -132.1192038 -0.132119E+03  0.760E-02    0.78       0.0  T
   2   -132.1192119 -0.809759E-05  0.443E-02    0.77       1.0  T
   3   -132.1192126 -0.711794E-06  0.649E-03    0.77       1.8  T
   4   -132.1192134 -0.799249E-06  0.229E-03    0.77       5.0  T
   5   -132.1192135 -0.436590E-07  0.120E-03    0.77       9.5  T
   6   -132.1192135 -0.254896E-07  0.415E-04    0.77      27.6  T
   7   -132.1192135 -0.194501E-08  0.194E-04    0.77      59.0  T
     SCC iter.                  ...        0 min,  0.041 sec
     gradient                   ...        0 min,  0.023 sec
 * total energy  :  -130.5501601 Eh     change       -0.3068772E-03 Eh
   gradient norm :     0.0108021 Eh/α   predicted    -0.2769851E-03 (  -9.74%)
   displ. norm   :     0.3877166 α      lambda       -0.5822094E-03
   maximum displ.:     0.2063774 α      in ANC's #7, #8, #15, ...

........................................................................
.............................. CYCLE   19 ..............................
........................................................................

 iter      E             dE          RMSdq      gap      omega  full diag
   1   -132.1276404 -0.132128E+03  0.721E-02    0.82       0.0  T
   2   -132.1276576 -0.172097E-04  0.419E-02    0.82       1.0  T
   3   -132.1276567  0.934516E-06  0.114E-02    0.81       1.0  T
   4   -132.1276596 -0.292642E-05  0.313E-03    0.81       3.7  T
   5   -132.1276600 -0.345462E-06  0.145E-03    0.81       7.9  T
   6   -132.1276600 -0.246063E-07  0.703E-04    0.81      16.3  T
   7   -132.1276600 -0.521160E-08  0.261E-04    0.81      44.0  T
     SCC iter.                  ...        0 min,  0.042 sec
     gradient                   ...        0 min,  0.021 sec
 * total energy  :  -130.5503936 Eh     change       -0.2334938E-03 Eh
   gradient norm :     0.0118017 Eh/α   predicted    -0.3348651E-03 (  43.41%)
   displ. norm   :     0.5316239 α      lambda       -0.4633171E-03
   maximum displ.:     0.2972951 α      in ANC's #7, #8, #15, ...

........................................................................
.............................. CYCLE   20 ..............................
........................................................................

 iter      E             dE          RMSdq      gap      omega  full diag
   1   -132.1176711 -0.132118E+03  0.840E-02    0.78       0.0  T
   2   -132.1176814 -0.103107E-04  0.492E-02    0.78       1.0  T
   3   -132.1176793  0.214790E-05  0.100E-02    0.78       1.1  T
   4   -132.1176838 -0.450333E-05  0.310E-03    0.78       3.7  T
   5   -132.1176840 -0.171698E-06  0.152E-03    0.78       7.5  T
   6   -132.1176840 -0.232080E-07  0.628E-04    0.78      18.3  T
   7   -132.1176840 -0.503675E-08  0.226E-04    0.78      50.9  T
     SCC iter.                  ...        0 min,  0.051 sec
     gradient                   ...        0 min,  0.021 sec
 * total energy  :  -130.5506509 Eh     change       -0.2573266E-03 Eh
   gradient norm :     0.0107453 Eh/α   predicted    -0.2971344E-03 (  15.47%)
   displ. norm   :     0.2530743 α      lambda       -0.3296708E-03
   maximum displ.:     0.1381046 α      in ANC's #8, #7, #15, ...
 * RMSD in coord.:     0.9004958 α      energy gain  -0.3905196E-01 Eh

generating ANC from exact Hessian ...
Using Lindh-Hessian (1995)
 Shifting diagonal of input Hessian by    9.9591729376943862E-003
 Lowest  eigenvalues of input Hessian
    0.000000    0.000000    0.000000    0.000000    0.000000    0.000000
    0.010000    0.010025    0.010061    0.010218    0.010387    0.010413
    0.010543    0.010696    0.010843    0.011052    0.011313    0.011723
 Highest eigenvalues
    2.083572    2.290008    2.313879    2.324273    2.353455    2.625906


........................................................................
.............................. CYCLE   21 ..............................
........................................................................

 iter      E             dE          RMSdq      gap      omega  full diag
   1   -132.1183203 -0.132118E+03  0.445E-02    0.78       0.0  T
   2   -132.1183342 -0.138660E-04  0.257E-02    0.78       1.0  T
   3   -132.1183347 -0.521646E-06  0.983E-03    0.78       1.2  T
   4   -132.1183352 -0.502231E-06  0.182E-03    0.78       6.3  T
   5   -132.1183353 -0.869384E-07  0.953E-04    0.78      12.0  T
   6   -132.1183353 -0.132430E-07  0.428E-04    0.78      26.8  T
     SCC iter.                  ...        0 min,  0.043 sec
     gradient                   ...        0 min,  0.023 sec
 * total energy  :  -130.5508107 Eh     change       -0.1598452E-03 Eh
   gradient norm :     0.0105620 Eh/α   predicted     0.0000000E+00 (-100.00%)
   displ. norm   :     0.0788400 α      lambda       -0.2517714E-03
   maximum displ.:     0.0350515 α      in ANC's #7, #32, #8, ...

........................................................................
.............................. CYCLE   22 ..............................
........................................................................

 iter      E             dE          RMSdq      gap      omega  full diag
   1   -132.1223684 -0.132122E+03  0.207E-02    0.79       0.0  T
   2   -132.1223721 -0.365297E-05  0.121E-02    0.79       1.0  T
   3   -132.1223723 -0.206078E-06  0.526E-03    0.79       2.2  T
   4   -132.1223725 -0.195818E-06  0.147E-03    0.79       7.8  T
   5   -132.1223726 -0.742046E-07  0.726E-04    0.79      15.8  T
   6   -132.1223726 -0.406362E-08  0.291E-04    0.79      39.4  T
     SCC iter.                  ...        0 min,  0.052 sec
     gradient                   ...        0 min,  0.024 sec
 * total energy  :  -130.5509986 Eh     change       -0.1878373E-03 Eh
   gradient norm :     0.0041387 Eh/α   predicted    -0.1266689E-03 ( -32.56%)
   displ. norm   :     0.1772796 α      lambda       -0.2660644E-03
   maximum displ.:     0.0880684 α      in ANC's #7, #32, #8, ...

........................................................................
.............................. CYCLE   23 ..............................
........................................................................

 iter      E             dE          RMSdq      gap      omega  full diag
   1   -132.1260853 -0.132126E+03  0.362E-02    0.78       0.0  T
   2   -132.1260913 -0.599890E-05  0.214E-02    0.78       1.0  T
   3   -132.1260914 -0.177362E-06  0.750E-03    0.78       1.5  T
   4   -132.1260927 -0.125705E-05  0.246E-03    0.78       4.7  T
   5   -132.1260928 -0.128780E-06  0.134E-03    0.78       8.5  T
   6   -132.1260928 -0.124110E-07  0.331E-04    0.78      34.6  T
   7   -132.1260928 -0.212339E-08  0.148E-04    0.78      77.3  T
     SCC iter.                  ...        0 min,  0.049 sec
     gradient                   ...        0 min,  0.024 sec
 * total energy  :  -130.5511691 Eh     change       -0.1705398E-03 Eh
   gradient norm :     0.0050048 Eh/α   predicted    -0.1372262E-03 ( -19.53%)
   displ. norm   :     0.2257198 α      lambda       -0.2170613E-03
   maximum displ.:     0.1149599 α      in ANC's #7, #32, #8, ...

........................................................................
.............................. CYCLE   24 ..............................
........................................................................

 iter      E             dE          RMSdq      gap      omega  full diag
   1   -132.1265578 -0.132127E+03  0.439E-02    0.76       0.0  T
   2   -132.1265643 -0.652505E-05  0.259E-02    0.77       1.0  T
   3   -132.1265643 -0.428928E-07  0.791E-03    0.77       1.5  T
   4   -132.1265661 -0.176608E-05  0.274E-03    0.77       4.2  T
   5   -132.1265662 -0.125657E-06  0.145E-03    0.77       7.9  T
   6   -132.1265662 -0.150996E-07  0.345E-04    0.77      33.2  T
   7   -132.1265662 -0.193680E-08  0.145E-04    0.77      79.2  T
     SCC iter.                  ...        0 min,  0.049 sec
     gradient                   ...        0 min,  0.022 sec
 * total energy  :  -130.5513022 Eh     change       -0.1330611E-03 Eh
   gradient norm :     0.0087054 Eh/α   predicted    -0.1140756E-03 ( -14.27%)
   displ. norm   :     0.2283894 α      lambda       -0.1945100E-03
   maximum displ.:     0.1210772 α      in ANC's #7, #8, #3, ...

........................................................................
.............................. CYCLE   25 ..............................
........................................................................

 iter      E             dE          RMSdq      gap      omega  full diag
   1   -132.1249489 -0.132125E+03  0.426E-02    0.75       0.0  T
   2   -132.1249527 -0.374272E-05  0.249E-02    0.76       1.0  T
   3   -132.1249529 -0.260540E-06  0.574E-03    0.76       2.0  T
   4   -132.1249539 -0.989077E-06  0.229E-03    0.76       5.0  T
   5   -132.1249540 -0.696472E-07  0.116E-03    0.76       9.9  T
   6   -132.1249540 -0.110077E-07  0.257E-04    0.76      44.7  T
   7   -132.1249540 -0.112865E-08  0.124E-04    0.76      92.2  T
     SCC iter.                  ...        0 min,  0.052 sec
     gradient                   ...        0 min,  0.024 sec
 * total energy  :  -130.5514571 Eh     change       -0.1549267E-03 Eh
   gradient norm :     0.0075009 Eh/α   predicted    -0.1023316E-03 ( -33.95%)
   displ. norm   :     0.3382221 α      lambda       -0.3070759E-03
   maximum displ.:     0.1830145 α      in ANC's #7, #8, #10, ...

........................................................................
.............................. CYCLE   26 ..............................
........................................................................

 iter      E             dE          RMSdq      gap      omega  full diag
   1   -132.1217017 -0.132122E+03  0.626E-02    0.77       0.0  T
   2   -132.1217081 -0.642134E-05  0.367E-02    0.77       1.0  T
   3   -132.1217089 -0.814296E-06  0.611E-03    0.77       1.9  T
   4   -132.1217097 -0.724292E-06  0.262E-03    0.77       4.4  T
   5   -132.1217098 -0.981084E-07  0.140E-03    0.77       8.2  T
   6   -132.1217098 -0.284825E-07  0.420E-04    0.77      27.3  T
   7   -132.1217098 -0.246487E-08  0.174E-04    0.77      66.1  T
     SCC iter.                  ...        0 min,  0.075 sec
     gradient                   ...        0 min,  0.021 sec
 * total energy  :  -130.5516713 Eh     change       -0.2141848E-03 Eh
   gradient norm :     0.0046313 Eh/α   predicted    -0.1711297E-03 ( -20.10%)
   displ. norm   :     0.3295393 α      lambda       -0.1755488E-03
   maximum displ.:     0.1815518 α      in ANC's #7, #8, #3, ...

........................................................................
.............................. CYCLE   27 ..............................
........................................................................

 iter      E             dE          RMSdq      gap      omega  full diag
   1   -132.1201281 -0.132120E+03  0.585E-02    0.76       0.0  T
   2   -132.1201311 -0.292625E-05  0.343E-02    0.77       1.0  T
   3   -132.1201319 -0.852372E-06  0.410E-03    0.77       2.8  T
   4   -132.1201323 -0.358377E-06  0.225E-03    0.77       5.1  T
   5   -132.1201323 -0.528321E-07  0.873E-04    0.77      13.1  T
   6   -132.1201323 -0.150734E-07  0.251E-04    0.77      45.8  T
     SCC iter.                  ...        0 min,  0.046 sec
     gradient                   ...        0 min,  0.023 sec
 * total energy  :  -130.5518126 Eh     change       -0.1413253E-03 Eh
   gradient norm :     0.0064732 Eh/α   predicted    -0.9730733E-04 ( -31.15%)
   displ. norm   :     0.3849520 α      lambda       -0.2511847E-03
   maximum displ.:     0.2168852 α      in ANC's #7, #8, #3, ...

........................................................................
.............................. CYCLE   28 ..............................
........................................................................

 iter      E             dE          RMSdq      gap      omega  full diag
   1   -132.1207879 -0.132121E+03  0.665E-02    0.79       0.0  T
   2   -132.1207932 -0.530293E-05  0.389E-02    0.79       1.0  T
   3   -132.1207940 -0.751205E-06  0.495E-03    0.78       2.3  T
   4   -132.1207945 -0.518368E-06  0.230E-03    0.79       5.0  T
   5   -132.1207946 -0.750407E-07  0.113E-03    0.79      10.2  T
   6   -132.1207946 -0.138413E-07  0.402E-04    0.79      28.5  T
   7   -132.1207946 -0.266229E-08  0.165E-04    0.79      69.7  T
     SCC iter.                  ...        0 min,  0.051 sec
     gradient                   ...        0 min,  0.023 sec
 * total energy  :  -130.5520063 Eh     change       -0.1937381E-03 Eh
   gradient norm :     0.0073009 Eh/α   predicted    -0.1442040E-03 ( -25.57%)
   displ. norm   :     0.5387117 α      lambda       -0.2987366E-03
   maximum displ.:     0.3061210 α      in ANC's #7, #8, #3, ...

........................................................................
.............................. CYCLE   29 ..............................
........................................................................

 iter      E             dE          RMSdq      gap      omega  full diag
   1   -132.1203870 -0.132120E+03  0.902E-02    0.75       0.0  T
   2   -132.1203947 -0.770086E-05  0.529E-02    0.76       1.0  T
   3   -132.1203970 -0.228837E-05  0.556E-03    0.76       2.1  T
   4   -132.1203972 -0.275783E-06  0.300E-03    0.76       3.8  T
   5   -132.1203974 -0.133550E-06  0.134E-03    0.76       8.6  T
   6   -132.1203974 -0.242846E-07  0.415E-04    0.76      27.6  T
   7   -132.1203974 -0.428594E-08  0.194E-04    0.76      59.1  T
     SCC iter.                  ...        0 min,  0.043 sec
     gradient                   ...        0 min,  0.021 sec
 * total energy  :  -130.5522444 Eh     change       -0.2380634E-03 Eh
   gradient norm :     0.0075169 Eh/α   predicted    -0.1927216E-03 ( -19.05%)
   displ. norm   :     0.5428934 α      lambda       -0.3951392E-03
   maximum displ.:     0.3155741 α      in ANC's #7, #3, #8, ...

........................................................................
.............................. CYCLE   30 ..............................
........................................................................

 iter      E             dE          RMSdq      gap      omega  full diag
   1   -132.1239755 -0.132124E+03  0.864E-02    0.77       0.0  T
   2   -132.1239866 -0.111068E-04  0.503E-02    0.77       1.0  T
   3   -132.1239882 -0.150503E-05  0.706E-03    0.77       1.6  T
   4   -132.1239888 -0.658861E-06  0.270E-03    0.77       4.3  T
   5   -132.1239888 -0.270247E-07  0.142E-03    0.77       8.1  T
   6   -132.1239889 -0.539395E-07  0.389E-04    0.77      29.5  T
   7   -132.1239889 -0.164408E-08  0.195E-04    0.77      58.8  T
     SCC iter.                  ...        0 min,  0.054 sec
     gradient                   ...        0 min,  0.022 sec
 * total energy  :  -130.5525498 Eh     change       -0.3054029E-03 Eh
   gradient norm :     0.0067115 Eh/α   predicted    -0.2558010E-03 ( -16.24%)
   displ. norm   :     0.6666831 α      lambda       -0.3737616E-03
   maximum displ.:     0.3822981 α      in ANC's #7, #8, #3, ...

........................................................................
.............................. CYCLE   31 ..............................
........................................................................

 iter      E             dE          RMSdq      gap      omega  full diag
   1   -132.1216648 -0.132122E+03  0.105E-01    0.74       0.0  T
   2   -132.1216741 -0.923716E-05  0.615E-02    0.75       1.0  T
   3   -132.1216766 -0.250637E-05  0.617E-03    0.75       1.9  T
   4   -132.1216771 -0.507164E-06  0.330E-03    0.75       3.5  T
   5   -132.1216772 -0.802928E-07  0.155E-03    0.75       7.4  T
   6   -132.1216772 -0.554311E-07  0.438E-04    0.75      26.2  T
   7   -132.1216772 -0.214217E-08  0.217E-04    0.75      52.8  T
     SCC iter.                  ...        0 min,  0.046 sec
     gradient                   ...        0 min,  0.024 sec
 * total energy  :  -130.5528629 Eh     change       -0.3131390E-03 Eh
   gradient norm :     0.0080302 Eh/α   predicted    -0.2699439E-03 ( -13.79%)
   displ. norm   :     0.5710551 α      lambda       -0.6059740E-03
   maximum displ.:     0.3043221 α      in ANC's #7, #3, #8, ...

........................................................................
.............................. CYCLE   32 ..............................
........................................................................

 iter      E             dE          RMSdq      gap      omega  full diag
   1   -132.1280143 -0.132128E+03  0.896E-02    0.76       0.0  T
   2   -132.1280350 -0.207392E-04  0.519E-02    0.75       1.0  T
   3   -132.1280341  0.917250E-06  0.131E-02    0.76       1.0  T
   4   -132.1280381 -0.402210E-05  0.379E-03    0.75       3.0  T
   5   -132.1280386 -0.434777E-06  0.183E-03    0.75       6.3  T
   6   -132.1280386 -0.275670E-07  0.521E-04    0.75      22.0  T
   7   -132.1280386 -0.240874E-08  0.202E-04    0.75      56.8  T
     SCC iter.                  ...        0 min,  0.041 sec
     gradient                   ...        0 min,  0.022 sec
 * total energy  :  -130.5531639 Eh     change       -0.3009705E-03 Eh
   gradient norm :     0.0116851 Eh/α   predicted    -0.4017942E-03 (  33.50%)
   displ. norm   :     0.6696744 α      lambda       -0.4686651E-03
   maximum displ.:     0.3932730 α      in ANC's #7, #8, #3, ...

........................................................................
.............................. CYCLE   33 ..............................
........................................................................

 iter      E             dE          RMSdq      gap      omega  full diag
   1   -132.1184730 -0.132118E+03  0.110E-01    0.73       0.0  T
   2   -132.1184852 -0.122026E-04  0.644E-02    0.73       1.0  T
   3   -132.1184857 -0.503725E-06  0.937E-03    0.73       1.2  T
   4   -132.1184888 -0.313825E-05  0.402E-03    0.73       2.9  T
   5   -132.1184890 -0.239721E-06  0.175E-03    0.73       6.6  T
   6   -132.1184891 -0.257888E-07  0.605E-04    0.73      19.0  T
   7   -132.1184891 -0.484789E-08  0.284E-04    0.73      40.3  T
     SCC iter.                  ...        0 min,  0.052 sec
     gradient                   ...        0 min,  0.020 sec
 * total energy  :  -130.5534348 Eh     change       -0.2709183E-03 Eh
   gradient norm :     0.0116778 Eh/α   predicted    -0.3394243E-03 (  25.29%)
   displ. norm   :     0.1979332 α      lambda       -0.2344658E-03
   maximum displ.:     0.1224756 α      in ANC's #7, #3, #8, ...

........................................................................
.............................. CYCLE   34 ..............................
........................................................................

 iter      E             dE          RMSdq      gap      omega  full diag
   1   -132.1210397 -0.132121E+03  0.306E-02    0.74       0.0  T
   2   -132.1210416 -0.184141E-05  0.178E-02    0.74       1.0  T
   3   -132.1210415  0.119863E-06  0.387E-03    0.74       3.0  T
   4   -132.1210419 -0.401616E-06  0.127E-03    0.74       9.0  T
   5   -132.1210419 -0.519627E-07  0.599E-04    0.74      19.2  T
   6   -132.1210419 -0.313969E-08  0.250E-04    0.74      45.8  T
     SCC iter.                  ...        0 min,  0.043 sec
     gradient                   ...        0 min,  0.023 sec
 * total energy  :  -130.5536201 Eh     change       -0.1852468E-03 Eh
   gradient norm :     0.0074714 Eh/α   predicted    -0.1218280E-03 ( -34.23%)
   displ. norm   :     0.5202281 α      lambda       -0.3860145E-03
   maximum displ.:     0.3011981 α      in ANC's #7, #3, #8, ...

........................................................................
.............................. CYCLE   35 ..............................
........................................................................

 iter      E             dE          RMSdq      gap      omega  full diag
   1   -132.1253685 -0.132125E+03  0.755E-02    0.74       0.0  T
   2   -132.1253727 -0.422871E-05  0.442E-02    0.74       1.0  T
   3   -132.1253727  0.334121E-07  0.591E-03    0.74       1.9  T
   4   -132.1253742 -0.151011E-05  0.236E-03    0.74       4.9  T
   5   -132.1253742 -0.638987E-07  0.102E-03    0.74      11.3  T
   6   -132.1253742 -0.959096E-08  0.291E-04    0.74      39.4  T
   7   -132.1253742 -0.105229E-08  0.155E-04    0.74      73.8  T
     SCC iter.                  ...        0 min,  0.047 sec
     gradient                   ...        0 min,  0.022 sec
 * total energy  :  -130.5539057 Eh     change       -0.2856660E-03 Eh
   gradient norm :     0.0062000 Eh/α   predicted    -0.2452431E-03 ( -14.15%)
   displ. norm   :     0.6735023 α      lambda       -0.3186322E-03
   maximum displ.:     0.4047843 α      in ANC's #7, #3, #8, ...

........................................................................
.............................. CYCLE   36 ..............................
........................................................................

 iter      E             dE          RMSdq      gap      omega  full diag
   1   -132.1235489 -0.132124E+03  0.976E-02    0.74       0.0  T
   2   -132.1235549 -0.601729E-05  0.572E-02    0.74       1.0  T
   3   -132.1235565 -0.161749E-05  0.522E-03    0.74       2.2  T
   4   -132.1235571 -0.582380E-06  0.282E-03    0.74       4.1  T
   5   -132.1235572 -0.693462E-07  0.126E-03    0.74       9.1  T
   6   -132.1235572 -0.328001E-07  0.401E-04    0.74      28.6  T
   7   -132.1235572 -0.140253E-08  0.224E-04    0.74      51.3  T
     SCC iter.                  ...        0 min,  0.048 sec
     gradient                   ...        0 min,  0.020 sec
 * total energy  :  -130.5541636 Eh     change       -0.2578625E-03 Eh
   gradient norm :     0.0064289 Eh/α   predicted    -0.2315859E-03 ( -10.19%)
   displ. norm   :     0.5886813 α      lambda       -0.3683861E-03
   maximum displ.:     0.3444728 α      in ANC's #7, #3, #5, ...

........................................................................
.............................. CYCLE   37 ..............................
........................................................................

 iter      E             dE          RMSdq      gap      omega  full diag
   1   -132.1293345 -0.132129E+03  0.884E-02    0.76       0.0  T
   2   -132.1293408 -0.629229E-05  0.518E-02    0.76       1.0  T
   3   -132.1293416 -0.726554E-06  0.549E-03    0.75       2.1  T
   4   -132.1293425 -0.937779E-06  0.262E-03    0.75       4.4  T
   5   -132.1293426 -0.138908E-06  0.124E-03    0.75       9.3  T
   6   -132.1293426 -0.115401E-07  0.507E-04    0.75      22.6  T
   7   -132.1293427 -0.597984E-08  0.204E-04    0.75      56.2  T
     SCC iter.                  ...        0 min,  0.042 sec
     gradient                   ...        0 min,  0.026 sec
 * total energy  :  -130.5544122 Eh     change       -0.2485925E-03 Eh
   gradient norm :     0.0071415 Eh/α   predicted    -0.2480281E-03 (  -0.23%)
   displ. norm   :     0.7774314 α      lambda       -0.3946728E-03
   maximum displ.:     0.4611193 α      in ANC's #7, #3, #8, ...

........................................................................
.............................. CYCLE   38 ..............................
........................................................................

 iter      E             dE          RMSdq      gap      omega  full diag
   1   -132.1220228 -0.132122E+03  0.114E-01    0.68       0.0  T
   2   -132.1220432 -0.204798E-04  0.667E-02    0.69       1.0  T
   3   -132.1220452 -0.198935E-05  0.948E-03    0.70       1.2  T
   4   -132.1220465 -0.131070E-05  0.412E-03    0.70       2.8  T
   5   -132.1220470 -0.469276E-06  0.204E-03    0.70       5.6  T
   6   -132.1220471 -0.418546E-07  0.779E-04    0.70      14.7  T
   7   -132.1220471 -0.724768E-08  0.274E-04    0.70      41.8  T
     SCC iter.                  ...        0 min,  0.040 sec
     gradient                   ...        0 min,  0.037 sec
 * total energy  :  -130.5546325 Eh     change       -0.2203366E-03 Eh
   gradient norm :     0.0125530 Eh/α   predicted    -0.3166090E-03 (  43.69%)
   displ. norm   :     0.3152291 α      lambda       -0.2769358E-03
   maximum displ.:     0.1735883 α      in ANC's #7, #3, #5, ...

........................................................................
.............................. CYCLE   39 ..............................
........................................................................

 iter      E             dE          RMSdq      gap      omega  full diag
   1   -132.1247796 -0.132125E+03  0.501E-02    0.72       0.0  T
   2   -132.1247837 -0.408327E-05  0.293E-02    0.71       1.0  T
   3   -132.1247818  0.192087E-05  0.798E-03    0.71       1.4  T
   4   -132.1247847 -0.288564E-05  0.184E-03    0.71       6.2  T
   5   -132.1247848 -0.874512E-07  0.842E-04    0.71      13.6  T
   6   -132.1247848 -0.411333E-08  0.387E-04    0.71      29.6  T
     SCC iter.                  ...        0 min,  0.042 sec
     gradient                   ...        0 min,  0.020 sec
 * total energy  :  -130.5548226 Eh     change       -0.1900650E-03 Eh
   gradient norm :     0.0099939 Eh/α   predicted    -0.1522318E-03 ( -19.91%)
   displ. norm   :     0.4687441 α      lambda       -0.3780552E-03
   maximum displ.:     0.2743700 α      in ANC's #7, #3, #5, ...

........................................................................
.............................. CYCLE   40 ..............................
........................................................................

 iter      E             dE          RMSdq      gap      omega  full diag
   1   -132.1287148 -0.132129E+03  0.734E-02    0.75       0.0  T
   2   -132.1287323 -0.175590E-04  0.429E-02    0.74       1.0  T
   3   -132.1287313  0.965977E-06  0.120E-02    0.73       1.0  T
   4   -132.1287342 -0.284453E-05  0.348E-03    0.73       3.3  T
   5   -132.1287346 -0.451229E-06  0.148E-03    0.73       7.8  T
   6   -132.1287347 -0.199979E-07  0.668E-04    0.74      17.2  T
   7   -132.1287347 -0.303376E-08  0.301E-04    0.74      38.2  T
     SCC iter.                  ...        0 min,  0.037 sec
     gradient                   ...        0 min,  0.020 sec
 * total energy  :  -130.5550099 Eh     change       -0.1872804E-03 Eh
   gradient norm :     0.0077529 Eh/α   predicted    -0.2305643E-03 (  23.11%)
   displ. norm   :     0.5750041 α      lambda       -0.2602948E-03
   maximum displ.:     0.3296987 α      in ANC's #7, #3, #5, ...

........................................................................
.............................. CYCLE   41 ..............................
........................................................................

 iter      E             dE          RMSdq      gap      omega  full diag
   1   -132.1249017 -0.132125E+03  0.827E-02    0.69       0.0  T
   2   -132.1249110 -0.930814E-05  0.484E-02    0.70       1.0  T
   3   -132.1249119 -0.843260E-06  0.663E-03    0.70       1.7  T
   4   -132.1249128 -0.944809E-06  0.291E-03    0.70       3.9  T
   5   -132.1249130 -0.192010E-06  0.145E-03    0.70       7.9  T
   6   -132.1249130 -0.183045E-07  0.587E-04    0.70      19.5  T
   7   -132.1249130 -0.524352E-08  0.212E-04    0.70      54.1  T
     SCC iter.                  ...        0 min,  0.041 sec
     gradient                   ...        0 min,  0.021 sec
 * total energy  :  -130.5551853 Eh     change       -0.1754166E-03 Eh
   gradient norm :     0.0074392 Eh/α   predicted    -0.1731879E-03 (  -1.27%)
   displ. norm   :     0.4180566 α      lambda       -0.1611004E-03
   maximum displ.:     0.2212253 α      in ANC's #7, #3, #5, ...

........................................................................
.............................. CYCLE   42 ..............................
........................................................................

 iter      E             dE          RMSdq      gap      omega  full diag
   1   -132.1255958 -0.132126E+03  0.575E-02    0.70       0.0  T
   2   -132.1255988 -0.305126E-05  0.338E-02    0.70       1.0  T
   3   -132.1255990 -0.212152E-06  0.426E-03    0.70       2.7  T
   4   -132.1255997 -0.641188E-06  0.184E-03    0.70       6.2  T
   5   -132.1255997 -0.408529E-07  0.980E-04    0.70      11.7  T
   6   -132.1255997 -0.124439E-07  0.297E-04    0.70      38.7  T
     SCC iter.                  ...        0 min,  0.040 sec
     gradient                   ...        0 min,  0.020 sec
 * total energy  :  -130.5552934 Eh     change       -0.1081130E-03 Eh
   gradient norm :     0.0065193 Eh/α   predicted    -0.9462977E-04 ( -12.47%)
   displ. norm   :     0.4220361 α      lambda       -0.1580976E-03
   maximum displ.:     0.2346938 α      in ANC's #7, #3, #5, ...
 * RMSD in coord.:     1.0467771 α      energy gain  -0.4642532E-02 Eh

generating ANC from exact Hessian ...
Using Lindh-Hessian (1995)
 Shifting diagonal of input Hessian by    9.9595371047874696E-003
 Lowest  eigenvalues of input Hessian
    0.000000    0.000000    0.000000    0.000000    0.000000    0.000000
    0.010000    0.010025    0.010071    0.010205    0.010346    0.010420
    0.010565    0.010726    0.010893    0.011037    0.011524    0.011693
 Highest eigenvalues
    2.080665    2.302988    2.325342    2.326001    2.346979    2.619150


........................................................................
.............................. CYCLE   43 ..............................
........................................................................

 iter      E             dE          RMSdq      gap      omega  full diag
   1   -132.1284353 -0.132128E+03  0.544E-02    0.69       0.0  T
   2   -132.1284386 -0.335256E-05  0.320E-02    0.70       1.0  T
   3   -132.1284381  0.499634E-06  0.555E-03    0.70       2.1  T
   4   -132.1284396 -0.142606E-05  0.199E-03    0.70       5.8  T
   5   -132.1284396 -0.725508E-07  0.988E-04    0.70      11.6  T
   6   -132.1284396 -0.735903E-08  0.283E-04    0.70      40.6  T
     SCC iter.                  ...        0 min,  0.045 sec
     gradient                   ...        0 min,  0.021 sec
 * total energy  :  -130.5553913 Eh     change       -0.9785914E-04 Eh
   gradient norm :     0.0069316 Eh/α   predicted     0.0000000E+00 (-100.00%)
   displ. norm   :     0.0509055 α      lambda       -0.9935176E-04
   maximum displ.:     0.0187460 α      in ANC's #3, #17, #30, ...

........................................................................
.............................. CYCLE   44 ..............................
........................................................................

 iter      E             dE          RMSdq      gap      omega  full diag
   1   -132.1291285 -0.132129E+03  0.130E-02    0.72       0.0  T
   2   -132.1291300 -0.146979E-05  0.747E-03    0.71       1.5  T
   3   -132.1291301 -0.111475E-06  0.281E-03    0.71       4.1  T
   4   -132.1291302 -0.455341E-07  0.103E-03    0.71      11.1  T
   5   -132.1291302 -0.300637E-07  0.467E-04    0.71      24.6  T
   6   -132.1291302 -0.140858E-08  0.216E-04    0.71      53.0  T
     SCC iter.                  ...        0 min,  0.031 sec
     gradient                   ...        0 min,  0.021 sec
 * total energy  :  -130.5554697 Eh     change       -0.7843348E-04 Eh
   gradient norm :     0.0025004 Eh/α   predicted    -0.5065172E-04 ( -35.42%)
   displ. norm   :     0.1185966 α      lambda       -0.1174695E-03
   maximum displ.:     0.0482095 α      in ANC's #3, #17, #30, ...

........................................................................
.............................. CYCLE   45 ..............................
........................................................................

 iter      E             dE          RMSdq      gap      omega  full diag
   1   -132.1296532 -0.132130E+03  0.239E-02    0.73       0.0  T
   2   -132.1296552 -0.202780E-05  0.139E-02    0.72       1.0  T
   3   -132.1296556 -0.413788E-06  0.317E-03    0.72       3.6  T
   4   -132.1296557 -0.113315E-06  0.154E-03    0.72       7.5  T
   5   -132.1296558 -0.368588E-07  0.839E-04    0.72      13.7  T
   6   -132.1296558 -0.812503E-08  0.288E-04    0.72      39.8  T
     SCC iter.                  ...        0 min,  0.036 sec
     gradient                   ...        0 min,  0.021 sec
 * total energy  :  -130.5555500 Eh     change       -0.8033653E-04 Eh
   gradient norm :     0.0029326 Eh/α   predicted    -0.5956121E-04 ( -25.86%)
   displ. norm   :     0.1378804 α      lambda       -0.7566261E-04
   maximum displ.:     0.0604687 α      in ANC's #3, #17, #8, ...

........................................................................
.............................. CYCLE   46 ..............................
........................................................................

 iter      E             dE          RMSdq      gap      omega  full diag
   1   -132.1294782 -0.132129E+03  0.256E-02    0.72       0.0  T
   2   -132.1294795 -0.132094E-05  0.149E-02    0.72       1.0  T
   3   -132.1294799 -0.432924E-06  0.288E-03    0.72       4.0  T
   4   -132.1294801 -0.182069E-06  0.163E-03    0.72       7.0  T
   5   -132.1294801 -0.302660E-07  0.647E-04    0.72      17.7  T
   6   -132.1294802 -0.618047E-08  0.184E-04    0.72      62.5  T
     SCC iter.                  ...        0 min,  0.036 sec
     gradient                   ...        0 min,  0.025 sec
 * total energy  :  -130.5556017 Eh     change       -0.5165348E-04 Eh
   gradient norm :     0.0034949 Eh/α   predicted    -0.3870290E-04 ( -25.07%)
   displ. norm   :     0.1817975 α      lambda       -0.7589937E-04
   maximum displ.:     0.0851052 α      in ANC's #3, #8, #17, ...

........................................................................
.............................. CYCLE   47 ..............................
........................................................................

 iter      E             dE          RMSdq      gap      omega  full diag
   1   -132.1288266 -0.132129E+03  0.324E-02    0.70       0.0  T
   2   -132.1288292 -0.267117E-05  0.188E-02    0.71       1.0  T
   3   -132.1288297 -0.445883E-06  0.429E-03    0.71       2.7  T
   4   -132.1288302 -0.517826E-06  0.212E-03    0.71       5.4  T
   5   -132.1288303 -0.686256E-07  0.936E-04    0.71      12.3  T
   6   -132.1288303 -0.418328E-08  0.316E-04    0.71      36.3  T
     SCC iter.                  ...        0 min,  0.036 sec
     gradient                   ...        0 min,  0.022 sec
 * total energy  :  -130.5556387 Eh     change       -0.3696904E-04 Eh
   gradient norm :     0.0033935 Eh/α   predicted    -0.3920560E-04 (   6.05%)
   displ. norm   :     0.0673838 α      lambda       -0.3914214E-04
   maximum displ.:     0.0372691 α      in ANC's #3, #7, #8, ...

........................................................................
.............................. CYCLE   48 ..............................
........................................................................

 iter      E             dE          RMSdq      gap      omega  full diag
   1   -132.1290390 -0.132129E+03  0.115E-02    0.72       0.0  T
   2   -132.1290393 -0.364450E-06  0.666E-03    0.72       1.7  T
   3   -132.1290393 -0.214678E-08  0.172E-03    0.72       6.7  T
   4   -132.1290394 -0.651325E-07  0.589E-04    0.72      19.5  T
   5   -132.1290394 -0.945175E-08  0.310E-04    0.72      37.0  T
     SCC iter.                  ...        0 min,  0.038 sec
     gradient                   ...        0 min,  0.021 sec
 * total energy  :  -130.5556699 Eh     change       -0.3126195E-04 Eh
   gradient norm :     0.0017638 Eh/α   predicted    -0.1966145E-04 ( -37.11%)
   displ. norm   :     0.2296952 α      lambda       -0.6825972E-04
   maximum displ.:     0.1276119 α      in ANC's #3, #7, #15, ...

........................................................................
.............................. CYCLE   49 ..............................
........................................................................

 iter      E             dE          RMSdq      gap      omega  full diag
   1   -132.1295129 -0.132130E+03  0.376E-02    0.73       0.0  T
   2   -132.1295148 -0.192367E-05  0.218E-02    0.73       1.0  T
   3   -132.1295147  0.173595E-06  0.401E-03    0.73       2.9  T
   4   -132.1295154 -0.771030E-06  0.151E-03    0.73       7.6  T
   5   -132.1295155 -0.325864E-07  0.721E-04    0.73      15.9  T
   6   -132.1295155 -0.593232E-08  0.269E-04    0.73      42.7  T
     SCC iter.                  ...        0 min,  0.039 sec
     gradient                   ...        0 min,  0.020 sec
 * total energy  :  -130.5557297 Eh     change       -0.5978844E-04 Eh
   gradient norm :     0.0039334 Eh/α   predicted    -0.3493086E-04 ( -41.58%)
   displ. norm   :     0.1541564 α      lambda       -0.4074705E-04
   maximum displ.:     0.0848240 α      in ANC's #3, #7, #4, ...

........................................................................
.............................. CYCLE   50 ..............................
........................................................................

 iter      E             dE          RMSdq      gap      omega  full diag
   1   -132.1289373 -0.132129E+03  0.236E-02    0.72       0.0  T
   2   -132.1289383 -0.986234E-06  0.137E-02    0.72       1.0  T
   3   -132.1289385 -0.161397E-06  0.223E-03    0.72       5.2  T
   4   -132.1289386 -0.120524E-06  0.120E-03    0.72       9.6  T
   5   -132.1289386 -0.357669E-07  0.529E-04    0.72      21.7  T
   6   -132.1289386 -0.194237E-08  0.171E-04    0.72      67.1  T
     SCC iter.                  ...        0 min,  0.038 sec
     gradient                   ...        0 min,  0.019 sec
 * total energy  :  -130.5557639 Eh     change       -0.3420021E-04 Eh
   gradient norm :     0.0031838 Eh/α   predicted    -0.2086244E-04 ( -39.00%)
   displ. norm   :     0.2352720 α      lambda       -0.7148736E-04
   maximum displ.:     0.1315252 α      in ANC's #3, #7, #15, ...

........................................................................
.............................. CYCLE   51 ..............................
........................................................................

 iter      E             dE          RMSdq      gap      omega  full diag
   1   -132.1287188 -0.132129E+03  0.348E-02    0.72       0.0  T
   2   -132.1287208 -0.197967E-05  0.201E-02    0.72       1.0  T
   3   -132.1287209 -0.194507E-06  0.332E-03    0.72       3.5  T
   4   -132.1287213 -0.328511E-06  0.142E-03    0.72       8.1  T
   5   -132.1287213 -0.307722E-07  0.725E-04    0.72      15.8  T
   6   -132.1287213 -0.643598E-08  0.200E-04    0.72      57.3  T
     SCC iter.                  ...        0 min,  0.034 sec
     gradient                   ...        0 min,  0.022 sec
 * total energy  :  -130.5558150 Eh     change       -0.5105226E-04 Eh
   gradient norm :     0.0018339 Eh/α   predicted    -0.3772262E-04 ( -26.11%)
   displ. norm   :     0.2783632 α      lambda       -0.3758265E-04
   maximum displ.:     0.1604298 α      in ANC's #3, #7, #4, ...

........................................................................
.............................. CYCLE   52 ..............................
........................................................................

 iter      E             dE          RMSdq      gap      omega  full diag
   1   -132.1284588 -0.132128E+03  0.378E-02    0.71       0.0  T
   2   -132.1284610 -0.225779E-05  0.219E-02    0.71       1.0  T
   3   -132.1284614 -0.377572E-06  0.322E-03    0.72       3.6  T
   4   -132.1284617 -0.241550E-06  0.154E-03    0.72       7.4  T
   5   -132.1284617 -0.307645E-07  0.771E-04    0.72      14.9  T
   6   -132.1284617 -0.981652E-08  0.228E-04    0.72      50.4  T
     SCC iter.                  ...        0 min,  0.031 sec
     gradient                   ...        0 min,  0.021 sec
 * total energy  :  -130.5558515 Eh     change       -0.3651623E-04 Eh
   gradient norm :     0.0029244 Eh/α   predicted    -0.1944155E-04 ( -46.76%)
   displ. norm   :     0.0915438 α      lambda       -0.2922241E-04
   maximum displ.:     0.0572853 α      in ANC's #3, #7, #4, ...

........................................................................
.............................. CYCLE   53 ..............................
........................................................................

 iter      E             dE          RMSdq      gap      omega  full diag
   1   -132.1292532 -0.132129E+03  0.118E-02    0.72       0.0  T
   2   -132.1292534 -0.217404E-06  0.685E-03    0.72       1.7  T
   3   -132.1292535 -0.289368E-07  0.102E-03    0.72      11.3  T
   4   -132.1292535 -0.227159E-07  0.462E-04    0.72      24.8  T
   5   -132.1292535 -0.351093E-08  0.232E-04    0.72      49.4  T
     SCC iter.                  ...        0 min,  0.034 sec
     gradient                   ...        0 min,  0.022 sec
 * total energy  :  -130.5558759 Eh     change       -0.2446339E-04 Eh
   gradient norm :     0.0020836 Eh/α   predicted    -0.1473376E-04 ( -39.77%)
   displ. norm   :     0.2149615 α      lambda       -0.5336345E-04
   maximum displ.:     0.1336457 α      in ANC's #3, #7, #4, ...

........................................................................
.............................. CYCLE   54 ..............................
........................................................................

 iter      E             dE          RMSdq      gap      omega  full diag
   1   -132.1295937 -0.132130E+03  0.259E-02    0.71       0.0  T
   2   -132.1295946 -0.820240E-06  0.152E-02    0.72       1.0  T
   3   -132.1295947 -0.174075E-06  0.185E-03    0.72       6.2  T
   4   -132.1295948 -0.779871E-07  0.972E-04    0.72      11.8  T
   5   -132.1295948 -0.146960E-07  0.410E-04    0.72      28.0  T
     SCC iter.                  ...        0 min,  0.029 sec
     gradient                   ...        0 min,  0.019 sec
 * total energy  :  -130.5559157 Eh     change       -0.3970357E-04 Eh
   gradient norm :     0.0017074 Eh/α   predicted    -0.2791708E-04 ( -29.69%)
   displ. norm   :     0.2913151 α      lambda       -0.3547727E-04
   maximum displ.:     0.1865024 α      in ANC's #3, #7, #4, ...

........................................................................
.............................. CYCLE   55 ..............................
........................................................................

 iter      E             dE          RMSdq      gap      omega  full diag
   1   -132.1295209 -0.132130E+03  0.341E-02    0.72       0.0  T
   2   -132.1295220 -0.113578E-05  0.199E-02    0.72       1.0  T
   3   -132.1295223 -0.242837E-06  0.225E-03    0.72       5.1  T
   4   -132.1295224 -0.141716E-06  0.116E-03    0.72       9.9  T
   5   -132.1295224 -0.149028E-07  0.474E-04    0.72      24.2  T
   6   -132.1295224 -0.367186E-08  0.144E-04    0.72      79.6  T
     SCC iter.                  ...        0 min,  0.042 sec
     gradient                   ...        0 min,  0.022 sec
 * total energy  :  -130.5559533 Eh     change       -0.3769909E-04 Eh
   gradient norm :     0.0021110 Eh/α   predicted    -0.1840789E-04 ( -51.17%)
   displ. norm   :     0.1386592 α      lambda       -0.3243952E-04
   maximum displ.:     0.0920724 α      in ANC's #3, #4, #7, ...

........................................................................
.............................. CYCLE   56 ..............................
........................................................................

 iter      E             dE          RMSdq      gap      omega  full diag
   1   -132.1296719 -0.132130E+03  0.156E-02    0.72       0.0  T
   2   -132.1296722 -0.319842E-06  0.914E-03    0.72       1.3  T
   3   -132.1296722 -0.398022E-07  0.134E-03    0.72       8.5  T
   4   -132.1296723 -0.512410E-07  0.605E-04    0.72      18.9  T
   5   -132.1296723 -0.456166E-08  0.315E-04    0.72      36.4  T
     SCC iter.                  ...        0 min,  0.027 sec
     gradient                   ...        0 min,  0.020 sec
 * total energy  :  -130.5559828 Eh     change       -0.2943394E-04 Eh
   gradient norm :     0.0020714 Eh/α   predicted    -0.1653620E-04 ( -43.82%)
   displ. norm   :     0.2981561 α      lambda       -0.7761797E-04
   maximum displ.:     0.1933810 α      in ANC's #3, #4, #7, ...

........................................................................
.............................. CYCLE   57 ..............................
........................................................................

 iter      E             dE          RMSdq      gap      omega  full diag
   1   -132.1294243 -0.132129E+03  0.336E-02    0.73       0.0  T
   2   -132.1294255 -0.123443E-05  0.197E-02    0.73       1.0  T
   3   -132.1294257 -0.151785E-06  0.267E-03    0.73       4.3  T
   4   -132.1294259 -0.202896E-06  0.120E-03    0.73       9.5  T
   5   -132.1294259 -0.159956E-07  0.672E-04    0.73      17.1  T
   6   -132.1294259 -0.677923E-08  0.172E-04    0.73      66.9  T
     SCC iter.                  ...        0 min,  0.040 sec
     gradient                   ...        0 min,  0.020 sec
 * total energy  :  -130.5560463 Eh     change       -0.6355110E-04 Eh
   gradient norm :     0.0020400 Eh/α   predicted    -0.4226904E-04 ( -33.49%)
   displ. norm   :     0.3623270 α      lambda       -0.7140666E-04
   maximum displ.:     0.2370132 α      in ANC's #3, #4, #7, ...

........................................................................
.............................. CYCLE   58 ..............................
........................................................................

 iter      E             dE          RMSdq      gap      omega  full diag
   1   -132.1286030 -0.132129E+03  0.395E-02    0.73       0.0  T
   2   -132.1286046 -0.166824E-05  0.231E-02    0.73       1.0  T
   3   -132.1286049 -0.271693E-06  0.309E-03    0.73       3.7  T
   4   -132.1286052 -0.262551E-06  0.156E-03    0.73       7.4  T
   5   -132.1286052 -0.346365E-07  0.810E-04    0.73      14.2  T
   6   -132.1286052 -0.806114E-08  0.229E-04    0.73      50.1  T
     SCC iter.                  ...        0 min,  0.039 sec
     gradient                   ...        0 min,  0.023 sec
 * total energy  :  -130.5560983 Eh     change       -0.5200411E-04 Eh
   gradient norm :     0.0024251 Eh/α   predicted    -0.4039182E-04 ( -22.33%)
   displ. norm   :     0.2459834 α      lambda       -0.3993603E-04
   maximum displ.:     0.1626087 α      in ANC's #3, #4, #1, ...

........................................................................
.............................. CYCLE   59 ..............................
........................................................................

 iter      E             dE          RMSdq      gap      omega  full diag
   1   -132.1291576 -0.132129E+03  0.261E-02    0.74       0.0  T
   2   -132.1291584 -0.800138E-06  0.153E-02    0.74       1.0  T
   3   -132.1291583  0.444677E-07  0.236E-03    0.74       4.9  T
   4   -132.1291585 -0.187016E-06  0.915E-04    0.74      12.5  T
   5   -132.1291585 -0.268785E-07  0.481E-04    0.74      23.9  T
     SCC iter.                  ...        0 min,  0.027 sec
     gradient                   ...        0 min,  0.023 sec
 * total energy  :  -130.5561264 Eh     change       -0.2807549E-04 Eh
   gradient norm :     0.0021685 Eh/α   predicted    -0.2118032E-04 ( -24.56%)
   displ. norm   :     0.2173591 α      lambda       -0.2978585E-04
   maximum displ.:     0.1476946 α      in ANC's #3, #4, #7, ...

........................................................................
.............................. CYCLE   60 ..............................
........................................................................

 iter      E             dE          RMSdq      gap      omega  full diag
   1   -132.1287935 -0.132129E+03  0.208E-02    0.74       0.0  T
   2   -132.1287942 -0.767685E-06  0.122E-02    0.74       1.0  T
   3   -132.1287944 -0.115128E-06  0.178E-03    0.74       6.4  T
   4   -132.1287944 -0.445476E-07  0.808E-04    0.74      14.2  T
   5   -132.1287944 -0.950388E-08  0.439E-04    0.74      26.1  T
     SCC iter.                  ...        0 min,  0.033 sec
     gradient                   ...        0 min,  0.021 sec
 * total energy  :  -130.5561489 Eh     change       -0.2244240E-04 Eh
   gradient norm :     0.0016866 Eh/α   predicted    -0.1560001E-04 ( -30.49%)
   displ. norm   :     0.2502000 α      lambda       -0.2754176E-04
   maximum displ.:     0.1765680 α      in ANC's #3, #4, #1, ...

........................................................................
.............................. CYCLE   61 ..............................
........................................................................

 iter      E             dE          RMSdq      gap      omega  full diag
   1   -132.1299506 -0.132130E+03  0.227E-02    0.75       0.0  T
   2   -132.1299513 -0.768648E-06  0.134E-02    0.75       1.0  T
   3   -132.1299514 -0.106489E-07  0.210E-03    0.75       5.5  T
   4   -132.1299515 -0.100889E-06  0.654E-04    0.75      17.5  T
   5   -132.1299515 -0.760045E-08  0.381E-04    0.75      30.1  T
     SCC iter.                  ...        0 min,  0.026 sec
     gradient                   ...        0 min,  0.022 sec
 * total energy  :  -130.5561778 Eh     change       -0.2897430E-04 Eh
   gradient norm :     0.0021149 Eh/α   predicted    -0.1415825E-04 ( -51.14%)
   displ. norm   :     0.1922016 α      lambda       -0.2533375E-04
   maximum displ.:     0.1342802 α      in ANC's #3, #4, #1, ...

........................................................................
.............................. CYCLE   62 ..............................
........................................................................

 iter      E             dE          RMSdq      gap      omega  full diag
   1   -132.1294633 -0.132129E+03  0.180E-02    0.75       0.0  T
   2   -132.1294637 -0.386610E-06  0.106E-02    0.75       1.1  T
   3   -132.1294636  0.211153E-07  0.164E-03    0.75       7.0  T
   4   -132.1294637 -0.965176E-07  0.563E-04    0.75      20.4  T
   5   -132.1294638 -0.610916E-08  0.300E-04    0.75      38.2  T
     SCC iter.                  ...        0 min,  0.034 sec
     gradient                   ...        0 min,  0.023 sec
 * total energy  :  -130.5561980 Eh     change       -0.2013672E-04 Eh
   gradient norm :     0.0022926 Eh/α   predicted    -0.1313882E-04 ( -34.75%)
   displ. norm   :     0.2335544 α      lambda       -0.3539590E-04
   maximum displ.:     0.1666188 α      in ANC's #3, #1, #4, ...

........................................................................
.............................. CYCLE   63 ..............................
........................................................................

 iter      E             dE          RMSdq      gap      omega  full diag
   1   -132.1292428 -0.132129E+03  0.224E-02    0.75       0.0  T
   2   -132.1292433 -0.461228E-06  0.132E-02    0.75       1.0  T
   3   -132.1292433  0.715468E-08  0.165E-03    0.75       7.0  T
   4   -132.1292434 -0.111467E-06  0.718E-04    0.75      16.0  T
   5   -132.1292434 -0.127025E-07  0.364E-04    0.75      31.5  T
     SCC iter.                  ...        0 min,  0.027 sec
     gradient                   ...        0 min,  0.023 sec
 * total energy  :  -130.5562264 Eh     change       -0.2841444E-04 Eh
   gradient norm :     0.0018098 Eh/α   predicted    -0.1866524E-04 ( -34.31%)
   displ. norm   :     0.4127419 α      lambda       -0.3511203E-04
   maximum displ.:     0.2960237 α      in ANC's #3, #1, #4, ...

........................................................................
.............................. CYCLE   64 ..............................
........................................................................

 iter      E             dE          RMSdq      gap      omega  full diag
   1   -132.1290399 -0.132129E+03  0.394E-02    0.76       0.0  T
   2   -132.1290408 -0.885478E-06  0.232E-02    0.76       1.0  T
   3   -132.1290408  0.394672E-07  0.260E-03    0.76       4.4  T
   4   -132.1290411 -0.318546E-06  0.112E-03    0.76      10.2  T
   5   -132.1290411 -0.228078E-07  0.565E-04    0.76      20.3  T
   6   -132.1290411 -0.309976E-08  0.202E-04    0.76      56.7  T
     SCC iter.                  ...        0 min,  0.040 sec
     gradient                   ...        0 min,  0.021 sec
 * total energy  :  -130.5562631 Eh     change       -0.3669007E-04 Eh
   gradient norm :     0.0019602 Eh/α   predicted    -0.1888944E-04 ( -48.52%)
   displ. norm   :     0.2850702 α      lambda       -0.2183012E-04
   maximum displ.:     0.2083171 α      in ANC's #3, #1, #4, ...

........................................................................
.............................. CYCLE   65 ..............................
........................................................................

 iter      E             dE          RMSdq      gap      omega  full diag
   1   -132.1292586 -0.132129E+03  0.267E-02    0.76       0.0  T
   2   -132.1292591 -0.515055E-06  0.157E-02    0.76       1.0  T
   3   -132.1292591 -0.233746E-08  0.190E-03    0.77       6.0  T
   4   -132.1292593 -0.156333E-06  0.867E-04    0.77      13.2  T
   5   -132.1292593 -0.143111E-07  0.406E-04    0.77      28.3  T
     SCC iter.                  ...        0 min,  0.029 sec
     gradient                   ...        0 min,  0.023 sec
 * total energy  :  -130.5562882 Eh     change       -0.2509583E-04 Eh
   gradient norm :     0.0015095 Eh/α   predicted    -0.1131439E-04 ( -54.92%)
   displ. norm   :     0.3012392 α      lambda       -0.2206031E-04
   maximum displ.:     0.2224047 α      in ANC's #3, #1, #4, ...

........................................................................
.............................. CYCLE   66 ..............................
........................................................................

 iter      E             dE          RMSdq      gap      omega  full diag
   1   -132.1297096 -0.132130E+03  0.283E-02    0.78       0.0  T
   2   -132.1297103 -0.645033E-06  0.166E-02    0.78       1.0  T
   3   -132.1297103 -0.389203E-07  0.179E-03    0.78       6.4  T
   4   -132.1297104 -0.109371E-06  0.798E-04    0.78      14.4  T
   5   -132.1297104 -0.121955E-07  0.408E-04    0.78      28.1  T
     SCC iter.                  ...        0 min,  0.030 sec
     gradient                   ...        0 min,  0.021 sec
 * total energy  :  -130.5563111 Eh     change       -0.2288819E-04 Eh
   gradient norm :     0.0016399 Eh/α   predicted    -0.1147988E-04 ( -49.84%)
   displ. norm   :     0.2384545 α      lambda       -0.1486235E-04
   maximum displ.:     0.1779130 α      in ANC's #3, #1, #4, ...
 * RMSD in coord.:     0.5388160 α      energy gain  -0.1017643E-02 Eh

generating ANC from exact Hessian ...
Using Lindh-Hessian (1995)
 Shifting diagonal of input Hessian by    9.9596326522855411E-003
 Lowest  eigenvalues of input Hessian
    0.000000    0.000000    0.000000    0.000000    0.000000    0.000000
    0.010000    0.010021    0.010072    0.010188    0.010342    0.010429
    0.010555    0.010746    0.010865    0.011018    0.011493    0.011712
 Highest eigenvalues
    2.081818    2.314905    2.325741    2.326210    2.343150    2.629041


........................................................................
.............................. CYCLE   67 ..............................
........................................................................

 iter      E             dE          RMSdq      gap      omega  full diag
   1   -132.1296742 -0.132130E+03  0.227E-02    0.77       0.0  T
   2   -132.1296746 -0.444277E-06  0.133E-02    0.77       1.0  T
   3   -132.1296747 -0.594805E-07  0.140E-03    0.78       8.2  T
   4   -132.1296747 -0.507141E-07  0.746E-04    0.78      15.4  T
   5   -132.1296747 -0.141033E-07  0.355E-04    0.78      32.3  T
     SCC iter.                  ...        0 min,  0.027 sec
     gradient                   ...        0 min,  0.020 sec
 * total energy  :  -130.5563272 Eh     change       -0.1613032E-04 Eh
   gradient norm :     0.0009179 Eh/α   predicted     0.0000000E+00 (-100.00%)
   displ. norm   :     0.0268737 α      lambda       -0.5934110E-05
   maximum displ.:     0.0103239 α      in ANC's #7, #5, #15, ...

........................................................................
.............................. CYCLE   68 ..............................
........................................................................

 iter      E             dE          RMSdq      gap      omega  full diag
   1   -132.1298731 -0.132130E+03  0.480E-03    0.78       0.0  T
   2   -132.1298731 -0.279172E-07  0.282E-03    0.78       4.1  T
   3   -132.1298731  0.167088E-08  0.423E-04    0.77      27.1  T
   4   -132.1298731 -0.606366E-08  0.151E-04    0.77      76.2  T
     SCC iter.                  ...        0 min,  0.026 sec
     gradient                   ...        0 min,  0.022 sec
 * total energy  :  -130.5563346 Eh     change       -0.7455313E-05 Eh
   gradient norm :     0.0004585 Eh/α   predicted    -0.2991369E-05 ( -59.88%)
   displ. norm   :     0.0924049 α      lambda       -0.1369099E-04
   maximum displ.:     0.0383317 α      in ANC's #7, #5, #13, ...

........................................................................
.............................. CYCLE   69 ..............................
........................................................................

 iter      E             dE          RMSdq      gap      omega  full diag
   1   -132.1300244 -0.132130E+03  0.141E-02    0.77       0.0  T
   2   -132.1300245 -0.120373E-06  0.832E-03    0.77       1.4  T
   3   -132.1300245  0.240575E-07  0.110E-03    0.77      10.5  T
   4   -132.1300246 -0.613087E-07  0.369E-04    0.77      31.1  T
   5   -132.1300246 -0.183670E-08  0.199E-04    0.77      57.5  T
     SCC iter.                  ...        0 min,  0.028 sec
     gradient                   ...        0 min,  0.022 sec
 * total energy  :  -130.5563460 Eh     change       -0.1136491E-04 Eh
   gradient norm :     0.0010786 Eh/α   predicted    -0.6871759E-05 ( -39.54%)
   displ. norm   :     0.0763123 α      lambda       -0.8618191E-05
   maximum displ.:     0.0342677 α      in ANC's #7, #5, #13, ...

........................................................................
.............................. CYCLE   70 ..............................
........................................................................

 iter      E             dE          RMSdq      gap      omega  full diag
   1   -132.1299686 -0.132130E+03  0.118E-02    0.77       0.0  T
   2   -132.1299687 -0.612018E-07  0.696E-03    0.77       1.6  T
   3   -132.1299687 -0.330283E-08  0.648E-04    0.77      17.7  T
   4   -132.1299687 -0.182695E-07  0.292E-04    0.77      39.3  T
     SCC iter.                  ...        0 min,  0.030 sec
     gradient                   ...        0 min,  0.024 sec
 * total energy  :  -130.5563475 Eh     change       -0.1462989E-05 Eh
   gradient norm :     0.0017238 Eh/α   predicted    -0.4324496E-05 ( 195.59%)
   displ. norm   :     0.0203481 α      lambda       -0.7516662E-05
   maximum displ.:     0.0096824 α      in ANC's #7, #5, #13, ...

........................................................................
.............................. CYCLE   71 ..............................
........................................................................

 iter      E             dE          RMSdq      gap      omega  full diag
   1   -132.1300003 -0.132130E+03  0.409E-03    0.77       0.0  T
   2   -132.1300003 -0.236153E-07  0.238E-03    0.77       4.8  T
   3   -132.1300003 -0.721428E-09  0.367E-04    0.77      31.2  T
   4   -132.1300003 -0.330363E-08  0.123E-04    0.77      93.2  T
     SCC iter.                  ...        0 min,  0.023 sec
     gradient                   ...        0 min,  0.021 sec
 * total energy  :  -130.5563554 Eh     change       -0.7977527E-05 Eh
   gradient norm :     0.0006863 Eh/α   predicted    -0.3762794E-05 ( -52.83%)
   displ. norm   :     0.0560592 α      lambda       -0.5955496E-05
   maximum displ.:     0.0286702 α      in ANC's #7, #5, #3, ...

........................................................................
.............................. CYCLE   72 ..............................
........................................................................

 iter      E             dE          RMSdq      gap      omega  full diag
   1   -132.1299054 -0.132130E+03  0.828E-03    0.77       0.0  T
   2   -132.1299054 -0.490512E-07  0.486E-03    0.77       2.4  T
   3   -132.1299054  0.942492E-09  0.530E-04    0.77      21.6  T
   4   -132.1299054 -0.985247E-08  0.192E-04    0.77      59.8  T
     SCC iter.                  ...        0 min,  0.029 sec
     gradient                   ...        0 min,  0.022 sec
 * total energy  :  -130.5563618 Eh     change       -0.6362374E-05 Eh
   gradient norm :     0.0005336 Eh/α   predicted    -0.2986643E-05 ( -53.06%)
   displ. norm   :     0.0830478 α      lambda       -0.4962979E-05
   maximum displ.:     0.0430227 α      in ANC's #7, #5, #3, ...

........................................................................
.............................. CYCLE   73 ..............................
........................................................................

 iter      E             dE          RMSdq      gap      omega  full diag
   1   -132.1297259 -0.132130E+03  0.117E-02    0.77       0.0  T
   2   -132.1297260 -0.643002E-07  0.690E-03    0.77       1.7  T
   3   -132.1297260  0.274071E-08  0.643E-04    0.77      17.8  T
   4   -132.1297260 -0.163749E-07  0.249E-04    0.77      46.1  T
     SCC iter.                  ...        0 min,  0.022 sec
     gradient                   ...        0 min,  0.020 sec
 * total energy  :  -130.5563672 Eh     change       -0.5439864E-05 Eh
   gradient norm :     0.0007590 Eh/α   predicted    -0.2493635E-05 ( -54.16%)
   displ. norm   :     0.0907656 α      lambda       -0.4527491E-05
   maximum displ.:     0.0475627 α      in ANC's #7, #5, #3, ...

........................................................................
.............................. CYCLE   74 ..............................
........................................................................

 iter      E             dE          RMSdq      gap      omega  full diag
   1   -132.1296185 -0.132130E+03  0.124E-02    0.77       0.0  T
   2   -132.1296186 -0.486266E-07  0.733E-03    0.77       1.6  T
   3   -132.1296186  0.409497E-08  0.650E-04    0.77      17.6  T
   4   -132.1296186 -0.191802E-07  0.255E-04    0.77      45.0  T
     SCC iter.                  ...        0 min,  0.028 sec
     gradient                   ...        0 min,  0.021 sec
 * total energy  :  -130.5563725 Eh     change       -0.5214995E-05 Eh
   gradient norm :     0.0007171 Eh/α   predicted    -0.2275672E-05 ( -56.36%)
   displ. norm   :     0.1080604 α      lambda       -0.4964107E-05
   maximum displ.:     0.0571258 α      in ANC's #7, #5, #3, ...

........................................................................
.............................. CYCLE   75 ..............................
........................................................................

 iter      E             dE          RMSdq      gap      omega  full diag
   1   -132.1295673 -0.132130E+03  0.147E-02    0.77       0.0  T
   2   -132.1295673 -0.533693E-07  0.867E-03    0.77       1.3  T
   3   -132.1295673  0.113875E-07  0.797E-04    0.77      14.4  T
   4   -132.1295674 -0.329587E-07  0.291E-04    0.77      39.4  T
     SCC iter.                  ...        0 min,  0.022 sec
     gradient                   ...        0 min,  0.021 sec
 * total energy  :  -130.5563783 Eh     change       -0.5813878E-05 Eh
   gradient norm :     0.0005414 Eh/α   predicted    -0.2495483E-05 ( -57.08%)
   displ. norm   :     0.1188533 α      lambda       -0.4942269E-05
   maximum displ.:     0.0631387 α      in ANC's #7, #3, #5, ...

........................................................................
.............................. CYCLE   76 ..............................
........................................................................

 iter      E             dE          RMSdq      gap      omega  full diag
   1   -132.1295937 -0.132130E+03  0.162E-02    0.77       0.0  T
   2   -132.1295937 -0.715466E-07  0.958E-03    0.77       1.2  T
   3   -132.1295937  0.211248E-07  0.950E-04    0.77      12.1  T
   4   -132.1295938 -0.502388E-07  0.332E-04    0.77      34.6  T
     SCC iter.                  ...        0 min,  0.028 sec
     gradient                   ...        0 min,  0.023 sec
 * total energy  :  -130.5563838 Eh     change       -0.5526353E-05 Eh
   gradient norm :     0.0004947 Eh/α   predicted    -0.2489858E-05 ( -54.95%)
   displ. norm   :     0.0939133 α      lambda       -0.3367787E-05
   maximum displ.:     0.0495511 α      in ANC's #7, #3, #1, ...

........................................................................
.............................. CYCLE   77 ..............................
........................................................................

 iter      E             dE          RMSdq      gap      omega  full diag
   1   -132.1296953 -0.132130E+03  0.129E-02    0.77       0.0  T
   2   -132.1296954 -0.687401E-07  0.762E-03    0.77       1.5  T
   3   -132.1296954  0.142441E-07  0.840E-04    0.77      13.7  T
   4   -132.1296954 -0.376951E-07  0.306E-04    0.77      37.5  T
     SCC iter.                  ...        0 min,  0.021 sec
     gradient                   ...        0 min,  0.023 sec
 * total energy  :  -130.5563874 Eh     change       -0.3559119E-05 Eh
   gradient norm :     0.0004396 Eh/α   predicted    -0.1694357E-05 ( -52.39%)
   displ. norm   :     0.0602125 α      lambda       -0.1873761E-05
   maximum displ.:     0.0310704 α      in ANC's #7, #3, #1, ...

   *** GEOMETRY OPTIMIZATION CONVERGED AFTER 77 ITERATIONS ***

------------------------------------------------------------------------
 total energy gain   :        -0.0447884 Eh      -28.1052 kcal/mol
 total RMSD          :         2.0693567 a0        1.0951 Å
 total power (kW/mol):        -1.5271693 (step)  -19.8417 (real)
------------------------------------------------------------------------

 ANCopt (total)                0 d,  0 h,  0 min,  5.927 sec
 optimizer setup                ...        0 min,  0.001 sec (  0.009%)
 model hessian                  ...        0 min,  0.214 sec (  3.618%)
 ANC generation                 ...        0 min,  0.018 sec (  0.305%)
 coordinate transformation      ...        0 min,  0.004 sec (  0.060%)
 single point calculation       ...        0 min,  5.610 sec ( 94.655%)
 optimization log               ...        0 min,  0.044 sec (  0.743%)
 hessian update                 ...        0 min,  0.011 sec (  0.189%)
 rational function              ...        0 min,  0.018 sec (  0.310%)

================
 final structure:
================
76
 xtb: 6.7.1 (edcfbbe)
C            8.37991946410243       -3.10921640135015        0.07926307875371
C            7.54388467900028       -2.07205363258931       -0.53174151206309
O            7.57432588867348       -1.87705716341737       -1.84034110139883
N            6.73396758801037       -0.86116127294809       -2.20297241671239
C            6.15594084505639       -0.42770652298597       -1.12248918671648
C            5.31998722228706        0.81439905556040       -1.04178050342747
O            5.90133456555134        1.85650084883004       -0.74480211899634
N            4.02633814425169        0.70816559186481       -1.31621296852781
C            3.13715409869579        1.83183028584378       -1.09817821234042
C            2.28673018526913        1.55993015336871        0.14157850987619
N            1.53376531039050        0.33062565603746       -0.05689318314302
C            0.57093239238068        0.10227267651676        1.01427752666005
C           -0.43745978125388        1.22771531370210        1.10010060064134
C           -0.92979713550584        1.63383547808470        2.33345962412801
C           -1.89697623864844        2.61706109426451        2.41008454161044
C           -2.38021157791883        3.22740310541987        1.25599688592813
C           -3.42766246837398        4.27154225983602        1.40606424359611
O           -4.21875691541961        4.27225391296887        2.34665135296505
N           -3.44609167147355        5.22191070764217        0.44698296160043
C           -4.39267197563366        6.29554484966646        0.43415678457343
C           -5.09162726401983        6.58140991555751       -0.90647013490259
O           -4.56709689830760        7.91741348805640       -0.93321106156745
C           -3.82903677979175        7.71902967599395        0.28168370568424
C           -1.89368892222707        2.81308200288556        0.01775115801362
C           -0.93790152400866        1.81896708310811       -0.05503267721921
C           -0.24848346951503       -1.14664777454129        0.77183273959616
C           -0.68797458003046       -1.46799330162944       -0.50806908003510
C           -1.49189356279130       -2.57022607775921       -0.72198581114083
C           -1.87627893668631       -3.37477375716696        0.34868387298874
C           -2.73211444908254       -4.57952523856601        0.18591957798939
O           -2.62871186918612       -5.56003743662037        0.91946373906727
N           -3.63542309502141       -4.51701479620163       -0.81565933518276
C           -4.54657073942605       -5.58076054574721       -1.11067632425007
C           -6.03687827290311       -5.21213156348314       -1.21459338561360
O           -6.08885331421994       -5.66636405575212       -2.57504450499007
C           -4.68727917224375       -5.97652382658953       -2.59087740448449
C           -1.41747255869749       -3.06558953298002        1.62585465518326
C           -0.61832703265584       -1.95853757956176        1.83608902693642
C            2.46535085353193       -0.77445131964866       -0.20359597373627
C            3.31246752084438       -0.54074742068015       -1.45752550349707
C            6.63410960042442       -1.16580981315212        0.00716189638786
N            6.21450923538404       -1.02387699195106        1.33004177734115
O            6.80856246590679       -1.64269910954192        2.19905266843438
O            5.25181622628963       -0.29956102002156        1.54673558914524
H            7.87856211056256       -3.52865799240657        0.94842056393213
H            8.61872713211357       -3.87257766215628       -0.65506533085831
H            9.30964691784366       -2.66045094824654        0.43063845632656
H            3.74279652779738        2.72777968559087       -0.96218714837626
H            2.49675087777565        1.93843656712081       -1.97507053382346
H            2.95131584572518        1.48481592434257        1.02108068364505
H            1.59559740780531        2.38774379168350        0.29760285840802
H            1.08505139159875        0.00835937252927        1.98933239504181
H           -0.55830138796082        1.17903387682093        3.23947152843273
H           -2.29199920561769        2.93304908933852        3.36397725704903
H           -2.73455367443366        5.21968193200048       -0.26901031406295
H           -5.06094456213183        6.15174293679158        1.28422854558082
H           -6.18194873746781        6.57615818168528       -0.88947059738501
H           -4.72495706875293        5.99375638445723       -1.75109606769717
H           -2.75202256596067        7.77156481777765        0.10603809004960
H           -4.11871887956006        8.43459874945743        1.05193587739715
H           -2.28293231104320        3.23559047970436       -0.89536742766764
H           -0.56133970553618        1.49954678354770       -1.01245198221878
H           -0.38145348665698       -0.85270604037091       -1.33754930110188
H           -1.79036716057550       -2.81775658186271       -1.72869725491006
H           -3.73131896799403       -3.66201978072745       -1.34380894486344
H           -4.32067870587118       -6.40292257954096       -0.43029877834082
H           -6.71672920711851       -5.77490016084231       -0.57404002056319
H           -6.25217380156489       -4.14331004718335       -1.14340546370199
H           -4.50881845797030       -7.02620000200334       -2.82617275864297
H           -4.14686182824568       -5.33565538614059       -3.29123116726255
H           -1.70232525508868       -3.70756765921936        2.44591079970740
H           -0.27717705547187       -1.72863238248335        2.83438857242898
H            3.13193856772486       -0.85154144467041        0.67529333186838
H            1.91084744224122       -1.70750448994099       -0.30461094057707
H            4.01195008858135       -1.36107819703390       -1.60998768425210
H            2.65658163431253       -0.45880021845861       -2.32653936042435

 Bond Distances (Angstroems)
 ---------------------------
C1-C2=1.4656         C1-H45=1.0875        C1-H46=1.0858        C1-H47=1.0905        C2-C1=1.4656         C2-O3=1.3234         
C2-C41=1.3926        O3-C2=1.3234         O3-N4=1.3674         N4-O3=1.3674         N4-C5=1.2998         C5-N4=1.2998         
C5-C6=1.4994         C5-C41=1.4316        C6-C5=1.4994         C6-O7=1.2297         C6-N8=1.3267         O7-C6=1.2297         
N8-C6=1.3267         N8-C9=1.4494         N8-C40=1.4455        C9-N8=1.4494         C9-C10=1.5278        C9-H48=1.0900        
C9-H49=1.0911        C10-C9=1.5278        C10-N11=1.4552       C10-H50=1.1049       C10-H51=1.0896       N11-C10=1.4552       
N11-C12=1.4583       N11-C39=1.4528       C12-N11=1.4583       C12-C13=1.5136       C12-C26=1.5133       C12-H52=1.1063       
C13-C12=1.5136       C13-C14=1.3887       C13-C25=1.3908       C14-C13=1.3887       C14-C15=1.3813       C14-H53=1.0797       
C15-C14=1.3813       C15-C16=1.3921       C15-H54=1.0797       C16-C15=1.3921       C16-C17=1.4866       C16-C24=1.3934       
C17-C16=1.4866       C17-O18=1.2290       C17-N19=1.3503       O18-C17=1.2290       N19-C17=1.3503       N19-C20=1.4314       
N19-H55=1.0094       C20-N19=1.4314       C20-C21=1.5387       C20-C23=1.5386       C20-H56=1.0908       C21-C20=1.5387       
C21-O22=1.4355       C21-H57=1.0905       C21-H58=1.0923       O22-C21=1.4355       O22-C23=1.4353       C23-C20=1.5386       
C23-O22=1.4353       C23-H59=1.0925       C23-H60=1.0905       C24-C16=1.3934       C24-C25=1.3810       C24-H61=1.0788       
C25-C13=1.3908       C25-C24=1.3810       C25-H62=1.0773       C26-C12=1.5133       C26-C27=1.3909       C26-C38=1.3887       
C27-C26=1.3909       C27-C28=1.3809       C27-H63=1.0773       C28-C27=1.3809       C28-C29=1.3933       C28-H64=1.0788       
C29-C28=1.3933       C29-C30=1.4867       C29-C37=1.3919       C30-C29=1.4867       C30-O31=1.2289       C30-N32=1.3502       
O31-C30=1.2289       N32-C30=1.3502       N32-C33=1.4314       N32-H65=1.0095       C33-N32=1.4314       C33-C34=1.5387       
C33-C36=1.5386       C33-H66=1.0908       C34-C33=1.5387       C34-O35=1.4352       C34-H67=1.0905       C34-H68=1.0926       
O35-C34=1.4352       O35-C36=1.4356       C36-C33=1.5386       C36-O35=1.4356       C36-H69=1.0904       C36-H70=1.0924       
C37-C29=1.3919       C37-C38=1.3814       C37-H71=1.0797       C38-C26=1.3887       C38-C37=1.3814       C38-H72=1.0797       
C39-N11=1.4528       C39-C40=1.5312       C39-H73=1.1058       C39-H74=1.0901       C40-N8=1.4455        C40-C39=1.5312       
C40-H75=1.0888       C40-H76=1.0918       C41-C2=1.3926        C41-C5=1.4316        C41-N42=1.3951       N42-C41=1.3951       
N42-O43=1.2211       N42-O44=1.2241       O43-N42=1.2211       O44-N42=1.2241       H45-C1=1.0875        H46-C1=1.0858        
H47-C1=1.0905        H48-C9=1.0900        H49-C9=1.0911        H50-C10=1.1049       H51-C10=1.0896       H52-C12=1.1063       
H53-C14=1.0797       H54-C15=1.0797       H55-N19=1.0094       H56-C20=1.0908       H57-C21=1.0905       H58-C21=1.0923       
H59-C23=1.0925       H60-C23=1.0905       H61-C24=1.0788       H62-C25=1.0773       H63-C27=1.0773       H64-C28=1.0788       
H65-N32=1.0095       H66-C33=1.0908       H67-C34=1.0905       H68-C34=1.0926       H69-C36=1.0904       H70-C36=1.0924       
H71-C37=1.0797       H72-C38=1.0797       H73-C39=1.1058       H74-C39=1.0901       H75-C40=1.0888       H76-C40=1.0918       
 C  H  Rav=1.0889 sigma=0.0076  Rmin=1.0773  Rmax=1.1063    30
 C  C  Rav=1.4484 sigma=0.0644  Rmin=1.3809  Rmax=1.5387    26
 N  H  Rav=1.0095 sigma=0.0001  Rmin=1.0094  Rmax=1.0095     2
 N  C  Rav=1.4038 sigma=0.0547  Rmin=1.2998  Rmax=1.4583    12
 O  C  Rav=1.3441 sigma=0.0958  Rmin=1.2289  Rmax=1.4356     8
 O  N  Rav=1.2708 sigma=0.0683  Rmin=1.2211  Rmax=1.3674     3

 selected bond angles (degree)
 --------------------
H45-C1-C2=110.07               H46-C1-C2=109.94               H46-C1-H45=111.76              H47-C1-C2=109.23               
H47-C1-H45=107.11              H47-C1-H46=108.65              O3-C2-C1=120.22                C41-C2-C1=132.21               
C41-C2-O3=107.56               N4-O3-C2=110.95                C5-N4-O3=107.49                C6-C5-N4=124.68                
C41-C5-N4=109.60               C41-C5-C6=124.81               O7-C6-C5=116.84                N8-C6-C5=117.79                
N8-C6-O7=125.37                C9-N8-C6=120.33                C40-N8-C6=124.82               C40-N8-C9=112.43               
C10-C9-N8=109.00               H48-C9-N8=108.37               H48-C9-C10=110.75              H49-C9-N8=108.36               
H49-C9-C10=110.05              H49-C9-H48=110.25              N11-C10-C9=109.13              H50-C10-C9=108.86              
H50-C10-N11=111.25             H51-C10-C9=109.51              H51-C10-N11=109.46             H51-C10-H50=108.61             

 selected dihedral angles (degree)
 ---------------------------------
O3-C2-C1-H45=212.44           O3-C2-C1-H46=335.97           O3-C2-C1-H47= 95.10           C41-C2-C1-H45= 32.00          
C41-C2-C1-H46=155.53          C41-C2-C1-H47=274.66          N4-O3-C2-C1=180.52            N4-O3-C2-C41=  0.86           
C5-N4-O3-C2=359.03            C6-C5-N4-O3=170.16            C41-C5-N4-O3=  0.68           O7-C6-C5-N4=268.73            
O7-C6-C5-C41= 76.64           N8-C6-C5-N4= 87.62            N8-C6-C5-C41=255.53           C9-N8-C6-C5=172.43            
C9-N8-C6-O7=351.21            C40-N8-C6-C5= 11.45           C40-N8-C6-O7=190.23           C10-C9-N8-C6=254.01           
C10-C9-N8-C40= 57.19          H48-C9-N8-C6= 14.63           H48-C9-N8-C40=177.80          H49-C9-N8-C6=134.26           
H49-C9-N8-C40=297.43          N11-C10-C9-N8=301.35          N11-C10-C9-H48=182.21         N11-C10-C9-H49= 60.05         
H50-C10-C9-N8= 62.93          H50-C10-C9-H48=303.79         H50-C10-C9-H49=181.63         H51-C10-C9-N8=181.54          
H51-C10-C9-H48= 62.40         H51-C10-C9-H49=300.24         
           -------------------------------------------------
          |                Final Singlepoint                |
           -------------------------------------------------

          ...................................................
          :                      SETUP                      :
          :.................................................:
          :  # basis functions                 208          :
          :  # atomic orbitals                 208          :
          :  # shells                          120          :
          :  # electrons                       230          :
          :  max. iterations                   250          :
          :  Hamiltonian                  GFN2-xTB          :
          :  restarted?                      false          :
          :  GBSA solvation                   true          :
          :  PC potential                    false          :
          :  electronic temp.          300.0000000     K    :
          :  accuracy                    1.0000000          :
          :  -> integral cutoff          0.2500000E+02      :
          :  -> integral neglect         0.1000000E-07      :
          :  -> SCF convergence          0.1000000E-05 Eh   :
          :  -> wf. convergence          0.1000000E-03 e    :
          :  Broyden damping             0.4000000          :
          :  net charge                          0          :
          :  unpaired electrons                  0          :
          ...................................................

 iter      E             dE          RMSdq      gap      omega  full diag
   1   -132.1296954 -0.132130E+03  0.160E-04    0.77       0.0  T
   2   -132.1296954 -0.165500E-09  0.101E-04    0.77     113.4  T
   3   -132.1296954 -0.275122E-10  0.651E-05    0.77     176.1  T

   *** convergence criteria satisfied after 3 iterations ***

         #    Occupation            Energy/Eh            Energy/eV
      -------------------------------------------------------------
         1        2.0000           -0.8020225             -21.8241
       ...           ...                  ...                  ...
       109        2.0000           -0.4105517             -11.1717
       110        2.0000           -0.4100131             -11.1570
       111        2.0000           -0.4080097             -11.1025
       112        2.0000           -0.4038081             -10.9882
       113        2.0000           -0.4012795             -10.9194
       114        2.0000           -0.3992535             -10.8642
       115        2.0000           -0.3690583             -10.0426 (HOMO)
       116        0.0000           -0.3406969              -9.2708 (LUMO)
       117                         -0.2820060              -7.6738
       118                         -0.2687949              -7.3143
       119                         -0.2579386              -7.0189
       120                         -0.2370869              -6.4515
       ...                                ...                  ...
       208                          0.6572257              17.8840
      -------------------------------------------------------------
                  HL-Gap            0.0283614 Eh            0.7718 eV
             Fermi-level           -0.3548776 Eh           -9.6567 eV

 SCC (total)                   0 d,  0 h,  0 min,  0.051 sec
 SCC setup                      ...        0 min,  0.001 sec (  2.830%)
 Dispersion                     ...        0 min,  0.002 sec (  3.487%)
 classical contributions        ...        0 min,  0.000 sec (  0.359%)
 integral evaluation            ...        0 min,  0.005 sec ( 10.522%)
 iterations                     ...        0 min,  0.019 sec ( 37.124%)
 molecular gradient             ...        0 min,  0.022 sec ( 44.122%)
 printout                       ...        0 min,  0.001 sec (  1.497%)

         :::::::::::::::::::::::::::::::::::::::::::::::::::::
         ::                     SUMMARY                     ::
         :::::::::::::::::::::::::::::::::::::::::::::::::::::
         :: total energy            -130.556387365108 Eh    ::
         :: total w/o Gsasa/hb      -130.553024667475 Eh    ::
         :: gradient norm              0.000440061612 Eh/a0 ::
         :: HOMO-LUMO gap              0.771752851780 eV    ::
         ::.................................................::
         :: SCC energy              -132.129047284148 Eh    ::
         :: -> isotropic ES            0.291688940317 Eh    ::
         :: -> anisotropic ES          0.004989925454 Eh    ::
         :: -> anisotropic XC          0.040254887684 Eh    ::
         :: -> dispersion             -0.087485906576 Eh    ::
         :: -> Gsolv                  -0.060972557073 Eh    ::
         ::    -> Gelec               -0.057609859441 Eh    ::
         ::    -> Gsasa                0.005488648821 Eh    ::
         ::    -> Ghb                 -0.009932106151 Eh    ::
         ::    -> Gshift               0.001080759698 Eh    ::
         :: repulsion energy           1.572659919040 Eh    ::
         :: add. restraining           0.000000000000 Eh    ::
         :: total charge               0.000000000000 e     ::
         :::::::::::::::::::::::::::::::::::::::::::::::::::::

           -------------------------------------------------
          |                Property Printout                |
           -------------------------------------------------

    * Orbital Energies and Occupations

         #    Occupation            Energy/Eh            Energy/eV
      -------------------------------------------------------------
         1        2.0000           -0.8020225             -21.8241
       ...           ...                  ...                  ...
       103        2.0000           -0.4253293             -11.5738
       104        2.0000           -0.4188360             -11.3971
       105        2.0000           -0.4171394             -11.3509
       106        2.0000           -0.4161867             -11.3250
       107        2.0000           -0.4134021             -11.2492
       108        2.0000           -0.4108796             -11.1806
       109        2.0000           -0.4105517             -11.1717
       110        2.0000           -0.4100131             -11.1570
       111        2.0000           -0.4080097             -11.1025
       112        2.0000           -0.4038081             -10.9882
       113        2.0000           -0.4012795             -10.9194
       114        2.0000           -0.3992535             -10.8642
       115        2.0000           -0.3690583             -10.0426 (HOMO)
       116        0.0000           -0.3406969              -9.2708 (LUMO)
       117                         -0.2820060              -7.6738
       118                         -0.2687949              -7.3143
       119                         -0.2579386              -7.0189
       120                         -0.2370869              -6.4515
       121                         -0.2354195              -6.4061
       122                         -0.2323917              -6.3237
       123                         -0.2058958              -5.6027
       124                         -0.1975261              -5.3750
       125                         -0.1858004              -5.0559
       126                         -0.1032072              -2.8084
       ...                                ...                  ...
       208                          0.6572257              17.8840
      -------------------------------------------------------------
                  HL-Gap            0.0283614 Eh            0.7718 eV
             Fermi-level           -0.3548776 Eh           -9.6567 eV

     #   Z          covCN         q      C6AA      α(0)
     1   6 C        3.754    -0.162    23.705     6.943
     2   6 C        2.986     0.180    24.140     8.060
     3   8 O        1.821    -0.087    15.634     5.340
     4   7 N        1.947    -0.135    24.695     7.369
     5   6 C        3.013     0.072    26.368     8.423
     6   6 C        2.767     0.276    22.328     7.739
     7   8 O        0.859    -0.510    23.999     6.568
     8   7 N        2.740    -0.053    22.272     7.009
     9   6 C        3.765    -0.017    20.923     6.520
    10   6 C        3.772     0.003    20.563     6.462
    11   7 N        2.734    -0.165    24.573     7.362
    12   6 C        3.820     0.038    19.929     6.353
    13   6 C        2.985     0.017    27.622     8.621
    14   6 C        2.922    -0.038    28.934     8.821
    15   6 C        2.925    -0.022    28.559     8.764
    16   6 C        2.975    -0.025    28.615     8.775
    17   6 C        2.761     0.275    22.347     7.742
    18   8 O        0.859    -0.524    24.315     6.611
    19   7 N        2.688    -0.181    24.915     7.413
    20   6 C        3.831     0.037    19.925     6.351
    21   6 C        4.012     0.062    19.466     6.268
    22   8 O        1.736    -0.362    20.097     6.053
    23   6 C        4.012     0.062    19.461     6.267
    24   6 C        2.920    -0.037    28.929     8.820
    25   6 C        2.922    -0.037    28.930     8.820
    26   6 C        2.985     0.017    27.633     8.623
    27   6 C        2.922    -0.038    28.938     8.822
    28   6 C        2.920    -0.038    28.934     8.821
    29   6 C        2.976    -0.025    28.615     8.775
    30   6 C        2.761     0.275    22.345     7.741
    31   8 O        0.858    -0.523    24.303     6.610
    32   7 N        2.688    -0.181    24.913     7.413
    33   6 C        3.830     0.037    19.926     6.351
    34   6 C        4.012     0.062    19.459     6.267
    35   8 O        1.736    -0.361    20.093     6.052
    36   6 C        4.012     0.062    19.468     6.268
    37   6 C        2.925    -0.022    28.564     8.765
    38   6 C        2.922    -0.038    28.936     8.821
    39   6 C        3.772     0.002    20.574     6.464
    40   6 C        3.758    -0.019    20.968     6.528
    41   6 C        2.959    -0.034    28.842     8.809
    42   7 N        2.756     0.562    13.356     5.428
    43   8 O        0.932    -0.433    22.309     6.334
    44   8 O        0.933    -0.446    22.591     6.374
    45   1 H        0.925     0.125     1.576     1.963
    46   1 H        0.925     0.129     1.543     1.942
    47   1 H        0.924     0.145     1.427     1.868
    48   1 H        0.925     0.081     1.970     2.195
    49   1 H        0.924     0.094     1.844     2.124
    50   1 H        0.922     0.018     2.768     2.602
    51   1 H        0.925     0.063     2.164     2.300
    52   1 H        0.922     0.019     2.752     2.594
    53   1 H        0.926     0.044     2.402     2.423
    54   1 H        0.926     0.048     2.340     2.392
    55   1 H        0.860     0.220     1.011     1.575
    56   1 H        0.924     0.077     2.009     2.217
    57   1 H        0.924     0.060     2.196     2.317
    58   1 H        0.924     0.064     2.153     2.294
    59   1 H        0.924     0.061     2.186     2.312
    60   1 H        0.924     0.058     2.220     2.330
    61   1 H        0.926     0.063     2.164     2.300
    62   1 H        0.926     0.080     1.983     2.202
    63   1 H        0.926     0.079     1.985     2.203
    64   1 H        0.926     0.063     2.162     2.299
    65   1 H        0.860     0.220     1.011     1.575
    66   1 H        0.924     0.077     2.008     2.216
    67   1 H        0.924     0.058     2.220     2.330
    68   1 H        0.924     0.061     2.191     2.315
    69   1 H        0.924     0.061     2.190     2.314
    70   1 H        0.924     0.064     2.149     2.293
    71   1 H        0.926     0.048     2.346     2.395
    72   1 H        0.926     0.043     2.405     2.425
    73   1 H        0.922     0.021     2.722     2.580
    74   1 H        0.925     0.063     2.160     2.298
    75   1 H        0.925     0.064     2.150     2.293
    76   1 H        0.924     0.102     1.769     2.080

 Mol. C6AA /au·bohr⁶  :      66807.554150
 Mol. C8AA /au·bohr⁸  :    1565931.274484
 Mol. α(0) /au        :        394.306608


Wiberg/Mayer (AO) data.
largest (>0.10) Wiberg bond orders for each atom

 ---------------------------------------------------------------------------
     #   Z sym  total        # sym  WBO       # sym  WBO       # sym  WBO
 ---------------------------------------------------------------------------
     1   6 C    3.962 --     2 C    1.065    46 H    0.960    45 H    0.950
                            47 H    0.913
     2   6 C    3.914 --    41 C    1.386     3 O    1.221     1 C    1.065
                             4 N    0.120
     3   8 O    2.492 --     2 C    1.221     4 N    1.060
     4   7 N    2.951 --     5 C    1.616     3 O    1.060     2 C    0.120
     5   6 C    3.969 --     4 N    1.616    41 C    1.202     6 C    0.939
     6   6 C    3.960 --     7 O    1.581     8 N    1.337     5 C    0.939
     7   8 O    1.948 --     6 C    1.581     8 N    0.209
     8   7 N    3.564 --     6 C    1.337    40 C    0.980     9 C    0.973
                             7 O    0.209
     9   6 C    3.954 --    10 C    0.993     8 N    0.973    48 H    0.966
                            49 H    0.961
    10   6 C    3.985 --    11 N    1.002     9 C    0.993    51 H    0.964
                            50 H    0.963
    11   7 N    3.128 --    39 C    1.006    10 C    1.002    12 C    0.982
    12   6 C    3.983 --    11 N    0.982    26 C    0.976    13 C    0.975
                            52 H    0.949
    13   6 C    3.984 --    14 C    1.409    25 C    1.394    12 C    0.975
                            16 C    0.101
    14   6 C    3.989 --    15 C    1.452    13 C    1.409    53 H    0.967
                            24 C    0.104
    15   6 C    3.988 --    14 C    1.452    16 C    1.393    54 H    0.967
                            25 C    0.106
    16   6 C    3.983 --    15 C    1.393    24 C    1.384    17 C    0.998
                            13 C    0.101
    17   6 C    3.940 --    18 O    1.608    19 N    1.259    16 C    0.998
    18   8 O    1.929 --    17 C    1.608    19 N    0.186
    19   7 N    3.462 --    17 C    1.259    20 C    1.010    55 H    0.916
                            18 O    0.186
    20   6 C    3.965 --    19 N    1.010    23 C    0.979    21 C    0.978
                            56 H    0.961
    21   6 C    3.939 --    20 C    0.978    57 H    0.973    22 O    0.971
                            58 H    0.970
    22   8 O    2.007 --    23 C    0.972    21 C    0.971
    23   6 C    3.941 --    20 C    0.979    60 H    0.973    22 O    0.972
                            59 H    0.970
    24   6 C    3.988 --    25 C    1.462    16 C    1.384    61 H    0.962
                            14 C    0.104
    25   6 C    3.986 --    24 C    1.462    13 C    1.394    62 H    0.961
                            15 C    0.106
    26   6 C    3.984 --    38 C    1.409    27 C    1.394    12 C    0.976
                            29 C    0.101
    27   6 C    3.986 --    28 C    1.462    26 C    1.394    63 H    0.961
                            37 C    0.106
    28   6 C    3.988 --    27 C    1.462    29 C    1.384    64 H    0.962
                            38 C    0.104
    29   6 C    3.983 --    37 C    1.393    28 C    1.384    30 C    0.997
                            26 C    0.101
    30   6 C    3.941 --    31 O    1.609    32 N    1.259    29 C    0.997
    31   8 O    1.929 --    30 C    1.609    32 N    0.186
    32   7 N    3.463 --    30 C    1.259    33 C    1.009    65 H    0.917
                            31 O    0.186
    33   6 C    3.965 --    32 N    1.009    34 C    0.979    36 C    0.978
                            66 H    0.961
    34   6 C    3.941 --    33 C    0.979    67 H    0.973    35 O    0.972
                            68 H    0.970
    35   8 O    2.007 --    34 C    0.972    36 C    0.971
    36   6 C    3.939 --    33 C    0.978    69 H    0.973    35 O    0.971
                            70 H    0.970
    37   6 C    3.988 --    38 C    1.451    29 C    1.393    71 H    0.968
                            27 C    0.106
    38   6 C    3.989 --    37 C    1.451    26 C    1.409    72 H    0.967
                            28 C    0.104
    39   6 C    3.986 --    11 N    1.006    40 C    0.990    74 H    0.964
                            73 H    0.956
    40   6 C    3.957 --    39 C    0.990     8 N    0.980    75 H    0.965
                            76 H    0.960
    41   6 C    3.935 --     2 C    1.386     5 C    1.202    42 N    1.045
    42   7 N    3.913 --    43 O    1.412    44 O    1.403    41 C    1.045
    43   8 O    1.884 --    42 N    1.412    44 O    0.319
    44   8 O    1.883 --    42 N    1.403    43 O    0.319
    45   1 H    0.984 --     1 C    0.950
    46   1 H    0.982 --     1 C    0.960
    47   1 H    0.979 --     1 C    0.913
    48   1 H    0.993 --     9 C    0.966
    49   1 H    0.991 --     9 C    0.961
    50   1 H    0.999 --    10 C    0.963
    51   1 H    0.996 --    10 C    0.964
    52   1 H    0.998 --    12 C    0.949
    53   1 H    0.998 --    14 C    0.967
    54   1 H    0.997 --    15 C    0.967
    55   1 H    0.952 --    19 N    0.916
    56   1 H    0.994 --    20 C    0.961
    57   1 H    0.996 --    21 C    0.973
    58   1 H    0.996 --    21 C    0.970
    59   1 H    0.996 --    23 C    0.970
    60   1 H    0.996 --    23 C    0.973
    61   1 H    0.996 --    24 C    0.962
    62   1 H    0.993 --    25 C    0.961
    63   1 H    0.993 --    27 C    0.961
    64   1 H    0.996 --    28 C    0.962
    65   1 H    0.952 --    32 N    0.917
    66   1 H    0.994 --    33 C    0.961
    67   1 H    0.996 --    34 C    0.973
    68   1 H    0.996 --    34 C    0.970
    69   1 H    0.996 --    36 C    0.973
    70   1 H    0.996 --    36 C    0.970
    71   1 H    0.997 --    37 C    0.968
    72   1 H    0.998 --    38 C    0.967
    73   1 H    0.999 --    39 C    0.956
    74   1 H    0.995 --    39 C    0.964
    75   1 H    0.995 --    40 C    0.965
    76   1 H    0.990 --    40 C    0.960
 ---------------------------------------------------------------------------

Topologies differ in total number of bonds
Writing topology from bond orders to xtbtopo.mol

molecular dipole:
                 x           y           z       tot (Debye)
 q only:        0.765      -1.031      -3.654
   full:        1.086      -1.021      -2.959       8.422
molecular quadrupole (traceless):
                xx          xy          yy          xz          yz          zz
 q only:        2.674     -47.207      -9.000      -2.027       6.651       6.326
  q+dip:        2.811     -44.983     -12.874       4.194       6.971      10.062
   full:        5.323     -43.798     -11.700       4.294       7.915       6.377

           -------------------------------------------------
          |                Geometry Summary                 |
           -------------------------------------------------

      molecular mass/u    :      604.6116396
   center of mass at/Å    :        0.3765324      -0.0370799       0.0077102
  moments of inertia/u·Å² :        0.8853287E+04   0.1311334E+05   0.1989961E+05
rotational constants/cm⁻¹ :        0.1904110E-02   0.1285533E-02   0.8471336E-03

 * 76 selected distances

     #   Z          #   Z                                           value/Å
     1   6 C        2   6 C                                       1.4656015
     2   6 C        3   8 O                                       1.3233985
     3   8 O        4   7 N                                       1.3673874
     4   7 N        5   6 C                                       1.2997855
     6   6 C        7   8 O                                       1.2296899
     6   6 C        8   7 N                                       1.3266978
     8   7 N        9   6 C                                       1.4494172
     9   6 C       10   6 C                                       1.5277918
    10   6 C       11   7 N                                       1.4551760
    11   7 N       12   6 C                                       1.4582865
    13   6 C       14   6 C                                       1.3887061
    14   6 C       15   6 C                                       1.3813181
    15   6 C       16   6 C                                       1.3921036
    17   6 C       18   8 O                                       1.2290384
    17   6 C       19   7 N                                       1.3503248
    19   7 N       20   6 C                                       1.4313872
    20   6 C       21   6 C                                       1.5386807
    21   6 C       22   8 O                                       1.4355323
    20   6 C       23   6 C                                       1.5385845
    22   8 O       23   6 C                                       1.4352904
    16   6 C       24   6 C                                       1.3934199
    13   6 C       25   6 C                                       1.3908105
    24   6 C       25   6 C                                       1.3809750
    26   6 C       27   6 C                                       1.3908862
    27   6 C       28   6 C                                       1.3809285
    28   6 C       29   6 C                                       1.3933352
    30   6 C       31   8 O                                       1.2288953
    30   6 C       32   7 N                                       1.3501980
    32   7 N       33   6 C                                       1.4313562
    33   6 C       34   6 C                                       1.5387342 (max)
    34   6 C       35   8 O                                       1.4352199
    33   6 C       36   6 C                                       1.5386433
    35   8 O       36   6 C                                       1.4355697
    29   6 C       37   6 C                                       1.3918562
    26   6 C       38   6 C                                       1.3887372
    37   6 C       38   6 C                                       1.3814472
    11   7 N       39   6 C                                       1.4527797
     8   7 N       40   6 C                                       1.4454635
    39   6 C       40   6 C                                       1.5311969
     2   6 C       41   6 C                                       1.3926183
     5   6 C       41   6 C                                       1.4316263
    41   6 C       42   7 N                                       1.3950702
    42   7 N       43   8 O                                       1.2210734
    42   7 N       44   8 O                                       1.2240784
     1   6 C       45   1 H                                       1.0875318
     1   6 C       46   1 H                                       1.0858121
     1   6 C       47   1 H                                       1.0905267
     9   6 C       48   1 H                                       1.0899642
     9   6 C       49   1 H                                       1.0910644
    10   6 C       50   1 H                                       1.1049165
    10   6 C       51   1 H                                       1.0896255
    12   6 C       52   1 H                                       1.1062867
    14   6 C       53   1 H                                       1.0796811
    15   6 C       54   1 H                                       1.0797236
    19   7 N       55   1 H                                       1.0094245 (min)
    20   6 C       56   1 H                                       1.0908205
    21   6 C       57   1 H                                       1.0904667
    21   6 C       58   1 H                                       1.0923264
    23   6 C       59   1 H                                       1.0925068
    23   6 C       60   1 H                                       1.0905244
    24   6 C       61   1 H                                       1.0788001
    25   6 C       62   1 H                                       1.0772558
    27   6 C       63   1 H                                       1.0772981
    28   6 C       64   1 H                                       1.0788077
    32   7 N       65   1 H                                       1.0095319
    33   6 C       66   1 H                                       1.0908215
    34   6 C       67   1 H                                       1.0905112
    34   6 C       68   1 H                                       1.0926113
    36   6 C       69   1 H                                       1.0904276
    36   6 C       70   1 H                                       1.0923639
    37   6 C       71   1 H                                       1.0797080
    38   6 C       72   1 H                                       1.0797416
    39   6 C       73   1 H                                       1.1057706
    39   6 C       74   1 H                                       1.0900764
    40   6 C       75   1 H                                       1.0887899
    40   6 C       76   1 H                                       1.0918273

 * 6 distinct bonds (by element types)

   Z      Z             #   av. dist./Å        max./Å        min./Å
   1 H    6 C          30     1.0888863     1.1062867     1.0772558
   6 C    6 C          21     1.4360953     1.5387342     1.3809285
   1 H    7 N           2     1.0094782     1.0095319     1.0094245
   6 C    7 N          12     1.4038285     1.4582865     1.2997855
   6 C    8 O           8     1.3440793     1.4355697     1.2288953
   7 N    8 O           3     1.2708464     1.3673874     1.2210734


optimized geometry written to: xtbopt.xyz


           -------------------------------------------------
          | TOTAL ENERGY             -130.556387365108 Eh   |
          | GRADIENT NORM               0.000440061612 Eh/α |
          | HOMO-LUMO GAP               0.771752851780 eV   |
           -------------------------------------------------
########################################################################
[WARNING] Runtime exception occurred
-2- restart_readRestart: Dimension missmatch in restart file.
-1- restart_readRestart: Number of electron missmatch in restart file.
########################################################################

------------------------------------------------------------------------
 * finished run on 2026/08/28 at 18:28:24.926     
------------------------------------------------------------------------
 total:
 * wall-time:     0 d,  0 h,  0 min,  6.141 sec
 *  cpu-time:     0 d,  0 h,  0 min, 41.875 sec
 * ratio c/w:     6.819 speedup
 SCF:
 * wall-time:     0 d,  0 h,  0 min,  0.109 sec
 *  cpu-time:     0 d,  0 h,  0 min,  0.734 sec
 * ratio c/w:     6.752 speedup
 ANC optimizer:
 * wall-time:     0 d,  0 h,  0 min,  5.985 sec
 *  cpu-time:     0 d,  0 h,  0 min, 40.969 sec
 * ratio c/w:     6.846 speedup

