76
 energy: -130.556387365108 gnorm: 0.000440061612 xtb: 6.7.1 (edcfbbe)
C            8.37991946410243       -3.10921640135015        0.07926307875371
C            7.54388467900028       -2.07205363258931       -0.53174151206309
O            7.57432588867348       -1.87705716341737       -1.84034110139883
N            6.73396758801037       -0.86116127294809       -2.20297241671239
C            6.15594084505639       -0.42770652298597       -1.12248918671648
C            5.31998722228706        0.81439905556040       -1.04178050342747
O            5.90133456555134        1.85650084883004       -0.74480211899634
N            4.02633814425169        0.70816559186481       -1.31621296852781
C            3.13715409869579        1.83183028584378       -1.09817821234042
C            2.28673018526913        1.55993015336871        0.14157850987619
N            1.53376531039050        0.33062565603746       -0.05689318314302
C            0.57093239238068        0.10227267651676        1.01427752666005
C           -0.43745978125388        1.22771531370210        1.10010060064134
C           -0.92979713550584        1.63383547808470        2.33345962412801
C           -1.89697623864844        2.61706109426451        2.41008454161044
C           -2.38021157791883        3.22740310541987        1.25599688592813
C           -3.42766246837398        4.27154225983602        1.40606424359611
O           -4.21875691541961        4.27225391296887        2.34665135296505
N           -3.44609167147355        5.22191070764217        0.44698296160043
C           -4.39267197563366        6.29554484966646        0.43415678457343
C           -5.09162726401983        6.58140991555751       -0.90647013490259
O           -4.56709689830760        7.91741348805640       -0.93321106156745
C           -3.82903677979175        7.71902967599395        0.28168370568424
C           -1.89368892222707        2.81308200288556        0.01775115801362
C           -0.93790152400866        1.81896708310811       -0.05503267721921
C           -0.24848346951503       -1.14664777454129        0.77183273959616
C           -0.68797458003046       -1.46799330162944       -0.50806908003510
C           -1.49189356279130       -2.57022607775921       -0.72198581114083
C           -1.87627893668631       -3.37477375716696        0.34868387298874
C           -2.73211444908254       -4.57952523856601        0.18591957798939
O           -2.62871186918612       -5.56003743662037        0.91946373906727
N           -3.63542309502141       -4.51701479620163       -0.81565933518276
C           -4.54657073942605       -5.58076054574721       -1.11067632425007
C           -6.03687827290311       -5.21213156348314       -1.21459338561360
O           -6.08885331421994       -5.66636405575212       -2.57504450499007
C           -4.68727917224375       -5.97652382658953       -2.59087740448449
C           -1.41747255869749       -3.06558953298002        1.62585465518326
C           -0.61832703265584       -1.95853757956176        1.83608902693642
C            2.46535085353193       -0.77445131964866       -0.20359597373627
C            3.31246752084438       -0.54074742068015       -1.45752550349707
C            6.63410960042442       -1.16580981315212        0.00716189638786
N            6.21450923538404       -1.02387699195106        1.33004177734115
O            6.80856246590679       -1.64269910954192        2.19905266843438
O            5.25181622628963       -0.29956102002156        1.54673558914524
H            7.87856211056256       -3.52865799240657        0.94842056393213
H            8.61872713211357       -3.87257766215628       -0.65506533085831
H            9.30964691784366       -2.66045094824654        0.43063845632656
H            3.74279652779738        2.72777968559087       -0.96218714837626
H            2.49675087777565        1.93843656712081       -1.97507053382346
H            2.95131584572518        1.48481592434257        1.02108068364505
H            1.59559740780531        2.38774379168350        0.29760285840802
H            1.08505139159875        0.00835937252927        1.98933239504181
H           -0.55830138796082        1.17903387682093        3.23947152843273
H           -2.29199920561769        2.93304908933852        3.36397725704903
H           -2.73455367443366        5.21968193200048       -0.26901031406295
H           -5.06094456213183        6.15174293679158        1.28422854558082
H           -6.18194873746781        6.57615818168528       -0.88947059738501
H           -4.72495706875293        5.99375638445723       -1.75109606769717
H           -2.75202256596067        7.77156481777765        0.10603809004960
H           -4.11871887956006        8.43459874945743        1.05193587739715
H           -2.28293231104320        3.23559047970436       -0.89536742766764
H           -0.56133970553618        1.49954678354770       -1.01245198221878
H           -0.38145348665698       -0.85270604037091       -1.33754930110188
H           -1.79036716057550       -2.81775658186271       -1.72869725491006
H           -3.73131896799403       -3.66201978072745       -1.34380894486344
H           -4.32067870587118       -6.40292257954096       -0.43029877834082
H           -6.71672920711851       -5.77490016084231       -0.57404002056319
H           -6.25217380156489       -4.14331004718335       -1.14340546370199
H           -4.50881845797030       -7.02620000200334       -2.82617275864297
H           -4.14686182824568       -5.33565538614059       -3.29123116726255
H           -1.70232525508868       -3.70756765921936        2.44591079970740
H           -0.27717705547187       -1.72863238248335        2.83438857242898
H            3.13193856772486       -0.85154144467041        0.67529333186838
H            1.91084744224122       -1.70750448994099       -0.30461094057707
H            4.01195008858135       -1.36107819703390       -1.60998768425210
H            2.65658163431253       -0.45880021845861       -2.32653936042435
