66

C     -5.274304   -6.189825   -0.809438
N     -4.596876   -5.118530   -0.123069
C     -3.518594   -4.485761   -0.707867
O     -3.032136   -4.825447   -1.780614
C     -2.973167   -3.305119    0.017315
C     -3.057503   -3.185869    1.408845
C     -2.531832   -2.060242    2.043361
C     -1.914578   -1.056849    1.293938
C     -1.799333   -1.166387   -0.102745
C     -1.140004   -0.072199   -0.953656
C     -2.148328    1.065902   -1.168766
C     -2.908911    1.110962   -2.349793
C     -3.859432    2.113531   -2.548923
C     -4.062477    3.087740   -1.572155
C     -3.310355    3.069572   -0.392808
C     -3.560557    4.128967    0.624372
O     -4.648132    4.692385    0.673461
N     -2.501352    4.446429    1.451680
C     -2.604498    5.542752    2.381598
C     -2.368546    2.052452   -0.188158
N      0.173455    0.396936   -0.410743
C      0.800743    1.387902   -1.326783
C      2.163697    1.884306   -0.812809
N      3.086472    0.791144   -0.519079
C      4.448052    1.118111   -0.458011
O      4.851370    2.257291   -0.690886
C      5.415582    0.068607   -0.140468
N      5.365491   -1.156844   -0.696219
O      6.497161   -1.823567   -0.261644
C      7.229914   -1.006838    0.543520
C      8.478871   -1.569074    1.091376
C      6.576023    0.196319    0.652972
N      6.982713    1.306816    1.435468
O      6.090567    1.924374    2.027532
O      8.197796    1.524420    1.511039
C      2.496186   -0.293416    0.270595
C      1.125688   -0.738441   -0.273538
C     -2.337462   -2.303711   -0.729856
H     -5.897715   -6.724567   -0.089270
H     -4.547333   -6.874305   -1.254905
H     -5.900778   -5.761351   -1.596285
H     -5.105697   -4.631071    0.601913
H     -3.505482   -3.968805    2.013763
H     -2.596149   -1.964852    3.124741
H     -1.506359   -0.189258    1.808217
H     -0.928111   -0.509716   -1.940967
H     -2.775618    0.353943   -3.120522
H     -4.448767    2.132181   -3.462597
H     -4.809946    3.862864   -1.730731
H     -1.574780    4.138219    1.191023
H     -1.797695    5.455199    3.112799
H     -3.572570    5.519857    2.889273
H     -2.504649    6.481168    1.829724
H     -1.809149    2.002688    0.741974
H      0.934934    0.947528   -2.324196
H      0.165384    2.271730   -1.443927
H      2.606976    2.552367   -1.560162
H      2.033832    2.463354    0.110363
H      8.550428   -1.378206    2.166573
H      9.347062   -1.118552    0.600915
H      8.527089   -2.652002    0.939550
H      3.154636   -1.161309    0.321279
H      2.389251    0.081318    1.296766
H      1.269770   -1.231558   -1.244470
H      0.740708   -1.491432    0.421535
H     -2.270675   -2.414233   -1.811416
