      -----------------------------------------------------------      
     |                   =====================                   |     
     |                           x T B                           |     
     |                   =====================                   |     
     |                         S. Grimme                         |     
     |          Mulliken Center for Theoretical Chemistry        |     
     |                    University of Bonn                     |     
      -----------------------------------------------------------      

   * xtb version 6.7.1 (edcfbbe) compiled by 'VssAdministrator@runnervm171ch' on 2026-06-10

   xtb is free software: you can redistribute it and/or modify it under
   the terms of the GNU Lesser General Public License as published by
   the Free Software Foundation, either version 3 of the License, or
   (at your option) any later version.
   
   xtb is distributed in the hope that it will be useful,
   but WITHOUT ANY WARRANTY; without even the implied warranty of
   MERCHANTABILITY or FITNESS FOR A PARTICULAR PURPOSE.  See the
   GNU Lesser General Public License for more details.
   
   Cite this work as:
   * C. Bannwarth, E. Caldeweyher, S. Ehlert, A. Hansen, P. Pracht,
     J. Seibert, S. Spicher, S. Grimme, WIREs Comput. Mol. Sci., 2020, 11,
     e01493. DOI: 10.1002/wcms.1493
   
   for GFN2-xTB:
   * C. Bannwarth, S. Ehlert and S. Grimme., J. Chem. Theory Comput., 2019,
     15, 1652-1671. DOI: 10.1021/acs.jctc.8b01176
   for GFN1-xTB:
   * S. Grimme, C. Bannwarth, P. Shushkov, J. Chem. Theory Comput., 2017,
     13, 1989-2009. DOI: 10.1021/acs.jctc.7b00118
   for GFN0-xTB:
   * P. Pracht, E. Caldeweyher, S. Ehlert, S. Grimme, ChemRxiv, 2019, preprint.
     DOI: 10.26434/chemrxiv.8326202.v1
   for GFN-FF:
   * S. Spicher and S. Grimme, Angew. Chem. Int. Ed., 2020, 59, 15665-15673.
     DOI: 10.1002/anie.202004239
   
   for ALPB and GBSA implicit solvation:
   * S. Ehlert, M. Stahn, S. Spicher, S. Grimme, J. Chem. Theory Comput.,
     2021, 17, 4250-4261. DOI: 10.1021/acs.jctc.1c00471
   
   for ddCOSMO and CPCM-X implicit solvation:
   * M. Stahn, S. Ehlert, S. Grimme, J. Phys. Chem. A,
     2023, XX, XXXX-XXXX. DOI: 10.1021/acs.jpca.3c04382
   
   for DFT-D4:
   * E. Caldeweyher, C. Bannwarth and S. Grimme, J. Chem. Phys., 2017,
     147, 034112. DOI: 10.1063/1.4993215
   * E. Caldeweyher, S. Ehlert, A. Hansen, H. Neugebauer, S. Spicher,
     C. Bannwarth and S. Grimme, J. Chem. Phys., 2019, 150, 154122.
     DOI: 10.1063/1.5090222
   * E. Caldeweyher, J.-M. Mewes, S. Ehlert and S. Grimme, Phys. Chem. Chem. Phys.
     2020, 22, 8499-8512. DOI: 10.1039/D0CP00502A
   
   for sTDA-xTB:
   * S. Grimme and C. Bannwarth, J. Chem. Phys., 2016, 145, 054103.
     DOI: 10.1063/1.4959605
   
   in the mass-spec context:
   * V. Asgeirsson, C. Bauer and S. Grimme, Chem. Sci., 2017, 8, 4879.
     DOI: 10.1039/c7sc00601b
   * J. Koopman and S. Grimme, ACS Omega 2019, 4, 12, 15120-15133.
     DOI: 10.1021/acsomega.9b02011
   
   for metadynamics refer to:
   * S. Grimme, J. Chem. Theory Comput., 2019, 155, 2847-2862
     DOI: 10.1021/acs.jctc.9b00143
   
   for SPH calculations refer to:
   * S. Spicher and S. Grimme, J. Chem. Theory Comput., 2021, 17, 1701-1714
     DOI: 10.1021/acs.jctc.0c01306
   
   for ONIOM refer to:
   * C. Plett, A. Katbashev, S. Ehlert, S. Grimme, M. Bursch,
     Phys. Chem. Chem. Phys., 2023, 25, 17860-17868. DOI: 10.1039/D3CP02178E
   
   for DIPRO refer to:
   * J. Kohn, N. Gildemeister, S. Grimme, D. Fazzi, A. Hansen,
     J. Chem. Phys., 2023, just accepted.
   
   for PTB refer to:
   * S. Grimme, M. Mueller, A. Hansen, J. Chem. Phys., 2023, 158, 124111.
     DOI: 10.1063/5.0137838
   
   with help from (in alphabetical order)
   P. Atkinson, C. Bannwarth, F. Bohle, G. Brandenburg, E. Caldeweyher
   M. Checinski, S. Dohm, S. Ehlert, S. Ehrlich, I. Gerasimov, C. Hölzer
   A. Katbashev, J. Kohn, J. Koopman, C. Lavigne, S. Lehtola, F. März, M. Müller,
   F. Musil, H. Neugebauer, J. Pisarek, C. Plett, P. Pracht, F. Pultar,
   J. Seibert, P. Shushkov, S. Spicher, M. Stahn, M. Steiner, T. Strunk,
   J. Stückrath, T. Rose, and J. Unsleber
   
 * started run on 2026/08/28 at 18:28:25.004     
   ID    Z sym.   atoms
    1    6 C      1, 3, 5-16, 19, 20, 22, 23, 25, 27, 30-32, 36-38
    2    7 N      2, 18, 21, 24, 28, 33
    3    8 O      4, 17, 26, 29, 34, 35
    4    1 H      39-66

           -------------------------------------------------
          |                Calculation Setup                |
           -------------------------------------------------

          program call               : C:\Users\Christian\Miniconda3\Library\bin\xtb.exe S04.xyz --gfn 2 --opt --alpb water
          coordinate file            : S04.xyz
          omp threads                :                    12


           -------------------------------------------------
          |                 G F N 2 - x T B                 |
           -------------------------------------------------

        Reference                      10.1021/acs.jctc.8b01176
      * Hamiltonian:
        H0-scaling (s, p, d)           1.850000    2.230000    2.230000
        zeta-weighting                 0.500000
      * Dispersion:
        s8                             2.700000
        a1                             0.520000
        a2                             5.000000
        s9                             5.000000
      * Repulsion:
        kExp                           1.500000    1.000000
        rExp                           1.000000
      * Coulomb:
        alpha                          2.000000
        third order                    shell-resolved
        anisotropic                    true
        a3                             3.000000
        a5                             4.000000
        cn-shift                       1.200000
        cn-exp                         4.000000
        max-rad                        5.000000

      * Solvation model:               ALPB
        Solvent                        water
        Parameter file                 internal GFN2-xTB/ALPB
        Dielectric constant                8.0200E+01
        Reference state                gsolv [1 M gas/solution]
        Free energy shift                  1.0808E-03 Eh       6.7819E-01 kcal/mol
        Temperature                        2.9815E+02 K
        Density                            1.0000E+00 kg/L
        Solvent mass                       1.8000E+01 g/mol
        Interaction kernel             P16
        Born radius scaling (c1)           1.4744E+00
        Born radii integrator          GBOBC
        Born offset                        0.0000E+00 a0       0.0000E+00 AA
        H-bond correction              true
        Ion screening                  false
        Surface tension                    1.0000E-05 Eh       1.5569E+01 dyn/cm
        Grid points                               230 per atom

          ...................................................
          :                      SETUP                      :
          :.................................................:
          :  # basis functions                 180          :
          :  # atomic orbitals                 180          :
          :  # shells                          104          :
          :  # electrons                       198          :
          :  max. iterations                   250          :
          :  Hamiltonian                  GFN2-xTB          :
          :  restarted?                      false          :
          :  GBSA solvation                   true          :
          :  PC potential                    false          :
          :  electronic temp.          300.0000000     K    :
          :  accuracy                    1.0000000          :
          :  -> integral cutoff          0.2500000E+02      :
          :  -> integral neglect         0.1000000E-07      :
          :  -> SCF convergence          0.1000000E-05 Eh   :
          :  -> wf. convergence          0.1000000E-03 e    :
          :  Broyden damping             0.4000000          :
          :  net charge                          0          :
          :  unpaired electrons                  0          :
          ...................................................

 iter      E             dE          RMSdq      gap      omega  full diag
   1   -112.8651105 -0.112865E+03  0.461E+00    1.85       0.0  T
   2   -113.1364482 -0.271338E+00  0.245E+00    1.19       1.0  T
   3   -113.1451127 -0.866459E-02  0.120E+00    0.76       1.0  T
   4   -113.1513295 -0.621673E-02  0.474E-01    0.56       1.0  T
   5   -113.1589356 -0.760618E-02  0.937E-02    0.46       1.0  T
   6   -113.1590313 -0.956771E-04  0.475E-02    0.47       1.0  T
   7   -113.1590425 -0.111539E-04  0.222E-02    0.49       1.0  T
   8   -113.1590515 -0.906978E-05  0.815E-03    0.50       1.5  T
   9   -113.1590529 -0.133776E-05  0.426E-03    0.50       2.9  T
  10   -113.1590531 -0.206434E-06  0.207E-03    0.50       5.9  T
  11   -113.1590531 -0.536024E-07  0.878E-04    0.50      14.0  T
  12   -113.1590532 -0.173645E-07  0.372E-04    0.50      33.1  T

   *** convergence criteria satisfied after 12 iterations ***

         #    Occupation            Energy/Eh            Energy/eV
      -------------------------------------------------------------
         1        2.0000           -0.7948106             -21.6279
       ...           ...                  ...                  ...
        93        2.0000           -0.4039036             -10.9908
        94        2.0000           -0.4025911             -10.9551
        95        2.0000           -0.4008166             -10.9068
        96        2.0000           -0.3987522             -10.8506
        97        2.0000           -0.3941017             -10.7241
        98        2.0000           -0.3930402             -10.6952
        99        1.9999           -0.3653807              -9.9425 (HOMO)
       100        0.0001           -0.3469143              -9.4400 (LUMO)
       101                         -0.3073759              -8.3641
       102                         -0.2610064              -7.1023
       103                         -0.2602872              -7.0828
       104                         -0.2554234              -6.9504
       ...                                ...                  ...
       180                          0.6449066              17.5488
      -------------------------------------------------------------
                  HL-Gap            0.0184664 Eh            0.5025 eV
             Fermi-level           -0.3561475 Eh           -9.6913 eV

 SCC (total)                   0 d,  0 h,  0 min,  0.081 sec
 SCC setup                      ...        0 min,  0.001 sec (  1.661%)
 Dispersion                     ...        0 min,  0.002 sec (  2.497%)
 classical contributions        ...        0 min,  0.000 sec (  0.177%)
 integral evaluation            ...        0 min,  0.005 sec (  5.732%)
 iterations                     ...        0 min,  0.055 sec ( 68.349%)
 molecular gradient             ...        0 min,  0.017 sec ( 20.877%)
 printout                       ...        0 min,  0.001 sec (  0.675%)

         :::::::::::::::::::::::::::::::::::::::::::::::::::::
         ::                     SUMMARY                     ::
         :::::::::::::::::::::::::::::::::::::::::::::::::::::
         :: total energy            -111.821938758574 Eh    ::
         :: total w/o Gsasa/hb      -111.817537387869 Eh    ::
         :: gradient norm              0.129747420656 Eh/a0 ::
         :: HOMO-LUMO gap              0.502495898876 eV    ::
         ::.................................................::
         :: SCC energy              -113.158476971303 Eh    ::
         :: -> isotropic ES            0.235292762485 Eh    ::
         :: -> anisotropic ES          0.010116902434 Eh    ::
         :: -> anisotropic XC          0.046963679604 Eh    ::
         :: -> dispersion             -0.074136798213 Eh    ::
         :: -> Gsolv                  -0.052236808568 Eh    ::
         ::    -> Gelec               -0.047835437863 Eh    ::
         ::    -> Gsasa                0.003991794896 Eh    ::
         ::    -> Ghb                 -0.009473925299 Eh    ::
         ::    -> Gshift               0.001080759698 Eh    ::
         :: repulsion energy           1.336538212728 Eh    ::
         :: add. restraining           0.000000000000 Eh    ::
         :: total charge              -0.000000000000 e     ::
         :::::::::::::::::::::::::::::::::::::::::::::::::::::

      ----------------------------------------------------------- 
     |                   =====================                   |
     |                        A N C O P T                        |
     |                   =====================                   |
     |               Approximate Normal Coordinate               |
     |                Rational Function Optimizer                |
      ----------------------------------------------------------- 
      ----------------------------------------------------------- 
     |                   =====================                   |
     |                        A N C O P T                        |
     |                   =====================                   |
     |               Approximate Normal Coordinate               |
     |                Rational Function Optimizer                |
      ----------------------------------------------------------- 

          ...................................................
          :                      SETUP                      :
          :.................................................:
          :   optimization level            normal          :
          :   max. optcycles                   200          :
          :   ANC micro-cycles                  20          :
          :   degrees of freedom               192          :
          :.................................................:
          :   RF solver                   davidson          :
          :   write xtbopt.log                true          :
          :   linear?                        false          :
          :   energy convergence         0.5000000E-05 Eh   :
          :   grad. convergence          0.1000000E-02 Eh/α :
          :   maxmium RF displ.          1.0000000          :
          :   Hlow (freq-cutoff)         0.1000000E-01      :
          :   Hmax (freq-cutoff)         5.0000000          :
          :   S6 in model hess.         20.0000000          :
          ...................................................

generating ANC from exact Hessian ...
Using Lindh-Hessian (1995)
 Shifting diagonal of input Hessian by    9.9126104585562976E-003
 Lowest  eigenvalues of input Hessian
    0.000000    0.000000    0.000000    0.000000    0.000000    0.000000
    0.010000    0.010023    0.010076    0.010260    0.010276    0.010624
    0.010726    0.010946    0.011124    0.011600    0.012165    0.012573
 Highest eigenvalues
    1.968036    2.176229    2.248960    2.268555    2.269771    2.522822


........................................................................
.............................. CYCLE    1 ..............................
........................................................................

 iter      E             dE          RMSdq      gap      omega  full diag
   1   -113.1590532 -0.113159E+03  0.169E-04    0.50       0.0  T
   2   -113.1590532 -0.403233E-09  0.110E-04    0.50     111.7  T
   3   -113.1590532 -0.128580E-09  0.755E-05    0.50     163.1  T
     SCC iter.                  ...        0 min,  0.016 sec
     gradient                   ...        0 min,  0.016 sec
 * total energy  :  -111.8219388 Eh     change       -0.1531816E-08 Eh
   gradient norm :     0.1297449 Eh/α   predicted     0.0000000E+00 (-100.00%)
   displ. norm   :     0.3571892 α      lambda       -0.2332180E-01
   maximum displ.:     0.1194521 α      in ANC's #61, #17, #19, ...

........................................................................
.............................. CYCLE    2 ..............................
........................................................................

 iter      E             dE          RMSdq      gap      omega  full diag
   1   -113.2246124 -0.113225E+03  0.200E-01    0.73       0.0  T
   2   -113.2251285 -0.516153E-03  0.118E-01    0.78       1.0  T
   3   -113.2251602 -0.316417E-04  0.586E-02    0.78       1.0  T
   4   -113.2251739 -0.137083E-04  0.166E-02    0.79       1.0  T
   5   -113.2251850 -0.110973E-04  0.520E-03    0.79       2.4  T
   6   -113.2251854 -0.399711E-06  0.260E-03    0.79       4.7  T
   7   -113.2251854 -0.340271E-07  0.116E-03    0.79      10.6  T
   8   -113.2251854 -0.212611E-07  0.419E-04    0.79      29.4  T
   9   -113.2251854 -0.391005E-08  0.203E-04    0.79      60.7  T
     SCC iter.                  ...        0 min,  0.045 sec
     gradient                   ...        0 min,  0.015 sec
 * total energy  :  -111.8381993 Eh     change       -0.1626050E-01 Eh
   gradient norm :     0.0562672 Eh/α   predicted    -0.1316642E-01 ( -19.03%)
   displ. norm   :     0.4142802 α      lambda       -0.8899902E-02
   maximum displ.:     0.2109611 α      in ANC's #17, #19, #16, ...

........................................................................
.............................. CYCLE    3 ..............................
........................................................................

 iter      E             dE          RMSdq      gap      omega  full diag
   1   -113.2643585 -0.113264E+03  0.155E-01    0.86       0.0  T
   2   -113.2648303 -0.471876E-03  0.893E-02    0.91       1.0  T
   3   -113.2648683 -0.379435E-04  0.477E-02    0.92       1.0  T
   4   -113.2648691 -0.773786E-06  0.156E-02    0.92       1.0  T
   5   -113.2648788 -0.976071E-05  0.403E-03    0.92       3.1  T
   6   -113.2648790 -0.203219E-06  0.203E-03    0.92       6.1  T
   7   -113.2648790 -0.251230E-07  0.953E-04    0.92      12.9  T
   8   -113.2648791 -0.124276E-07  0.350E-04    0.92      35.2  T
     SCC iter.                  ...        0 min,  0.034 sec
     gradient                   ...        0 min,  0.016 sec
 * total energy  :  -111.8433982 Eh     change       -0.5198983E-02 Eh
   gradient norm :     0.0210314 Eh/α   predicted    -0.5213689E-02 (   0.28%)
   displ. norm   :     0.4199339 α      lambda       -0.3791995E-02
   maximum displ.:     0.2535706 α      in ANC's #17, #19, #16, ...

........................................................................
.............................. CYCLE    4 ..............................
........................................................................

 iter      E             dE          RMSdq      gap      omega  full diag
   1   -113.2745332 -0.113275E+03  0.113E-01    0.85       0.0  T
   2   -113.2746474 -0.114158E-03  0.635E-02    0.90       1.0  T
   3   -113.2746511 -0.366109E-05  0.293E-02    0.91       1.0  T
   4   -113.2746569 -0.578878E-05  0.807E-03    0.91       1.5  T
   5   -113.2746596 -0.278860E-05  0.288E-03    0.91       4.3  T
   6   -113.2746597 -0.735852E-07  0.134E-03    0.91       9.2  T
   7   -113.2746597 -0.136345E-07  0.576E-04    0.91      21.4  T
   8   -113.2746597 -0.630327E-08  0.216E-04    0.91      56.9  T
     SCC iter.                  ...        0 min,  0.042 sec
     gradient                   ...        0 min,  0.016 sec
 * total energy  :  -111.8456595 Eh     change       -0.2261257E-02 Eh
   gradient norm :     0.0262581 Eh/α   predicted    -0.2230348E-02 (  -1.37%)
   displ. norm   :     0.4596048 α      lambda       -0.3019799E-02
   maximum displ.:     0.2854690 α      in ANC's #17, #26, #16, ...

........................................................................
.............................. CYCLE    5 ..............................
........................................................................

 iter      E             dE          RMSdq      gap      omega  full diag
   1   -113.2746503 -0.113275E+03  0.102E-01    0.84       0.0  T
   2   -113.2746882 -0.378949E-04  0.590E-02    0.87       1.0  T
   3   -113.2746864  0.181855E-05  0.189E-02    0.88       1.0  T
   4   -113.2746940 -0.762301E-05  0.583E-03    0.88       2.1  T
   5   -113.2746951 -0.103110E-05  0.280E-03    0.88       4.4  T
   6   -113.2746951 -0.532424E-07  0.113E-03    0.88      10.9  T
   7   -113.2746951 -0.137513E-07  0.425E-04    0.88      28.9  T
   8   -113.2746951 -0.419871E-08  0.182E-04    0.88      67.7  T
     SCC iter.                  ...        0 min,  0.031 sec
     gradient                   ...        0 min,  0.016 sec
 * total energy  :  -111.8479542 Eh     change       -0.2294723E-02 Eh
   gradient norm :     0.0198445 Eh/α   predicted    -0.1828851E-02 ( -20.30%)
   displ. norm   :     0.5149398 α      lambda       -0.2343198E-02
   maximum displ.:     0.3284772 α      in ANC's #17, #26, #16, ...

........................................................................
.............................. CYCLE    6 ..............................
........................................................................

 iter      E             dE          RMSdq      gap      omega  full diag
   1   -113.2741457 -0.113274E+03  0.110E-01    0.81       0.0  T
   2   -113.2741764 -0.307355E-04  0.650E-02    0.82       1.0  T
   3   -113.2741733  0.311649E-05  0.187E-02    0.83       1.0  T
   4   -113.2741832 -0.995421E-05  0.508E-03    0.83       2.4  T
   5   -113.2741837 -0.415943E-06  0.280E-03    0.83       4.4  T
   6   -113.2741837 -0.458713E-07  0.867E-04    0.83      14.2  T
   7   -113.2741837 -0.136473E-07  0.335E-04    0.83      36.7  T
     SCC iter.                  ...        0 min,  0.039 sec
     gradient                   ...        0 min,  0.016 sec
 * total energy  :  -111.8496812 Eh     change       -0.1726942E-02 Eh
   gradient norm :     0.0185001 Eh/α   predicted    -0.1482264E-02 ( -14.17%)
   displ. norm   :     0.4980838 α      lambda       -0.1672665E-02
   maximum displ.:     0.3101473 α      in ANC's #17, #22, #26, ...

........................................................................
.............................. CYCLE    7 ..............................
........................................................................

 iter      E             dE          RMSdq      gap      omega  full diag
   1   -113.2756671 -0.113276E+03  0.102E-01    0.84       0.0  T
   2   -113.2756860 -0.189061E-04  0.597E-02    0.84       1.0  T
   3   -113.2756811  0.483951E-05  0.169E-02    0.84       1.0  T
   4   -113.2756904 -0.930782E-05  0.410E-03    0.84       3.0  T
   5   -113.2756907 -0.298894E-06  0.206E-03    0.84       6.0  T
   6   -113.2756908 -0.220262E-07  0.780E-04    0.84      15.8  T
   7   -113.2756908 -0.506702E-08  0.262E-04    0.84      47.0  T
     SCC iter.                  ...        0 min,  0.031 sec
     gradient                   ...        0 min,  0.016 sec
 * total energy  :  -111.8510014 Eh     change       -0.1320244E-02 Eh
   gradient norm :     0.0170259 Eh/α   predicted    -0.1043817E-02 ( -20.94%)
   displ. norm   :     0.5369947 α      lambda       -0.1610802E-02
   maximum displ.:     0.3104354 α      in ANC's #17, #25, #7, ...

........................................................................
.............................. CYCLE    8 ..............................
........................................................................

 iter      E             dE          RMSdq      gap      omega  full diag
   1   -113.2805118 -0.113281E+03  0.104E-01    0.84       0.0  T
   2   -113.2805324 -0.206497E-04  0.613E-02    0.83       1.0  T
   3   -113.2805255  0.690422E-05  0.184E-02    0.83       1.0  T
   4   -113.2805383 -0.127949E-04  0.420E-03    0.83       2.9  T
   5   -113.2805385 -0.210671E-06  0.224E-03    0.83       5.5  T
   6   -113.2805386 -0.316853E-07  0.781E-04    0.83      15.8  T
   7   -113.2805386 -0.787584E-08  0.297E-04    0.83      41.5  T
     SCC iter.                  ...        0 min,  0.038 sec
     gradient                   ...        0 min,  0.015 sec
 * total energy  :  -111.8522666 Eh     change       -0.1265148E-02 Eh
   gradient norm :     0.0134871 Eh/α   predicted    -0.1037649E-02 ( -17.98%)
   displ. norm   :     0.5790586 α      lambda       -0.1409157E-02
   maximum displ.:     0.3011682 α      in ANC's #17, #7, #25, ...

........................................................................
.............................. CYCLE    9 ..............................
........................................................................

 iter      E             dE          RMSdq      gap      omega  full diag
   1   -113.2828150 -0.113283E+03  0.121E-01    0.85       0.0  T
   2   -113.2828633 -0.483254E-04  0.695E-02    0.85       1.0  T
   3   -113.2828613  0.203660E-05  0.232E-02    0.84       1.0  T
   4   -113.2828700 -0.874838E-05  0.494E-03    0.84       2.5  T
   5   -113.2828707 -0.657963E-06  0.246E-03    0.85       5.0  T
   6   -113.2828707 -0.383211E-07  0.955E-04    0.85      12.9  T
   7   -113.2828707 -0.110597E-07  0.352E-04    0.85      34.9  T
     SCC iter.                  ...        0 min,  0.030 sec
     gradient                   ...        0 min,  0.015 sec
 * total energy  :  -111.8532228 Eh     change       -0.9562025E-03 Eh
   gradient norm :     0.0171035 Eh/α   predicted    -0.9408356E-03 (  -1.61%)
   displ. norm   :     0.4904989 α      lambda       -0.1266113E-02
   maximum displ.:     0.2198232 α      in ANC's #17, #7, #31, ...

........................................................................
.............................. CYCLE   10 ..............................
........................................................................

 iter      E             dE          RMSdq      gap      omega  full diag
   1   -113.2898866 -0.113290E+03  0.950E-02    0.84       0.0  T
   2   -113.2899510 -0.643953E-04  0.555E-02    0.83       1.0  T
   3   -113.2899535 -0.249152E-05  0.235E-02    0.83       1.0  T
   4   -113.2899604 -0.693040E-05  0.401E-03    0.83       3.1  T
   5   -113.2899607 -0.215655E-06  0.213E-03    0.83       5.8  T
   6   -113.2899607 -0.351618E-07  0.894E-04    0.83      13.8  T
   7   -113.2899607 -0.118985E-07  0.395E-04    0.83      31.2  T
     SCC iter.                  ...        0 min,  0.037 sec
     gradient                   ...        0 min,  0.016 sec
 * total energy  :  -111.8538642 Eh     change       -0.6414902E-03 Eh
   gradient norm :     0.0150658 Eh/α   predicted    -0.7853658E-03 (  22.43%)
   displ. norm   :     0.4507558 α      lambda       -0.7293582E-03
   maximum displ.:     0.2223686 α      in ANC's #17, #7, #31, ...

........................................................................
.............................. CYCLE   11 ..............................
........................................................................

 iter      E             dE          RMSdq      gap      omega  full diag
   1   -113.2823264 -0.113282E+03  0.949E-02    0.73       0.0  T
   2   -113.2823745 -0.481472E-04  0.548E-02    0.74       1.0  T
   3   -113.2823750 -0.460488E-06  0.202E-02    0.75       1.0  T
   4   -113.2823807 -0.568275E-05  0.542E-03    0.76       2.3  T
   5   -113.2823815 -0.785634E-06  0.263E-03    0.76       4.7  T
   6   -113.2823815 -0.787486E-07  0.135E-03    0.76       9.1  T
   7   -113.2823815 -0.157914E-07  0.454E-04    0.76      27.1  T
   8   -113.2823816 -0.458017E-08  0.177E-04    0.76      69.7  T
     SCC iter.                  ...        0 min,  0.034 sec
     gradient                   ...        0 min,  0.014 sec
 * total energy  :  -111.8541531 Eh     change       -0.2888295E-03 Eh
   gradient norm :     0.0179929 Eh/α   predicted    -0.4387886E-03 (  51.92%)
   displ. norm   :     0.2315665 α      lambda       -0.8572364E-03
   maximum displ.:     0.1109236 α      in ANC's #7, #14, #29, ...

........................................................................
.............................. CYCLE   12 ..............................
........................................................................

 iter      E             dE          RMSdq      gap      omega  full diag
   1   -113.2870721 -0.113287E+03  0.630E-02    0.88       0.0  T
   2   -113.2871519 -0.797753E-04  0.342E-02    0.87       1.0  T
   3   -113.2871570 -0.504867E-05  0.188E-02    0.86       1.0  T
   4   -113.2871578 -0.835000E-06  0.661E-03    0.86       1.9  T
   5   -113.2871585 -0.732094E-06  0.230E-03    0.85       5.4  T
   6   -113.2871586 -0.105596E-06  0.117E-03    0.85      10.6  T
   7   -113.2871586 -0.760798E-08  0.491E-04    0.85      25.1  T
   8   -113.2871586 -0.402858E-08  0.207E-04    0.85      59.6  T
     SCC iter.                  ...        0 min,  0.039 sec
     gradient                   ...        0 min,  0.014 sec
 * total energy  :  -111.8544553 Eh     change       -0.3021840E-03 Eh
   gradient norm :     0.0178989 Eh/α   predicted    -0.4516030E-03 (  49.45%)
   displ. norm   :     0.1470297 α      lambda       -0.4975562E-03
   maximum displ.:     0.0710071 α      in ANC's #7, #31, #5, ...

........................................................................
.............................. CYCLE   13 ..............................
........................................................................

 iter      E             dE          RMSdq      gap      omega  full diag
   1   -113.2893719 -0.113289E+03  0.349E-02    0.81       0.0  T
   2   -113.2893950 -0.230907E-04  0.192E-02    0.81       1.0  T
   3   -113.2893970 -0.197211E-05  0.104E-02    0.82       1.2  T
   4   -113.2893974 -0.381787E-06  0.269E-03    0.82       4.6  T
   5   -113.2893975 -0.128791E-06  0.118E-03    0.82      10.5  T
   6   -113.2893975 -0.144123E-07  0.570E-04    0.82      21.6  T
   7   -113.2893975 -0.335903E-08  0.261E-04    0.82      47.2  T
     SCC iter.                  ...        0 min,  0.030 sec
     gradient                   ...        0 min,  0.016 sec
 * total energy  :  -111.8547852 Eh     change       -0.3299574E-03 Eh
   gradient norm :     0.0073999 Eh/α   predicted    -0.2541578E-03 ( -22.97%)
   displ. norm   :     0.3614092 α      lambda       -0.3847554E-03
   maximum displ.:     0.1810399 α      in ANC's #7, #31, #17, ...

........................................................................
.............................. CYCLE   14 ..............................
........................................................................

 iter      E             dE          RMSdq      gap      omega  full diag
   1   -113.2868390 -0.113287E+03  0.624E-02    0.79       0.0  T
   2   -113.2868726 -0.336541E-04  0.347E-02    0.79       1.0  T
   3   -113.2868744 -0.176810E-05  0.152E-02    0.79       1.0  T
   4   -113.2868755 -0.112876E-05  0.280E-03    0.79       4.4  T
   5   -113.2868757 -0.140414E-06  0.152E-03    0.79       8.1  T
   6   -113.2868757 -0.193299E-07  0.611E-04    0.79      20.1  T
   7   -113.2868757 -0.623361E-08  0.267E-04    0.79      46.0  T
     SCC iter.                  ...        0 min,  0.036 sec
     gradient                   ...        0 min,  0.015 sec
 * total energy  :  -111.8550057 Eh     change       -0.2205263E-03 Eh
   gradient norm :     0.0094529 Eh/α   predicted    -0.2175077E-03 (  -1.37%)
   displ. norm   :     0.2423637 α      lambda       -0.2525899E-03
   maximum displ.:     0.1393922 α      in ANC's #7, #6, #14, ...

........................................................................
.............................. CYCLE   15 ..............................
........................................................................

 iter      E             dE          RMSdq      gap      omega  full diag
   1   -113.2893811 -0.113289E+03  0.380E-02    0.77       0.0  T
   2   -113.2893940 -0.128395E-04  0.215E-02    0.78       1.0  T
   3   -113.2893946 -0.609455E-06  0.904E-03    0.78       1.4  T
   4   -113.2893949 -0.308228E-06  0.174E-03    0.78       7.1  T
   5   -113.2893949 -0.545524E-07  0.948E-04    0.78      13.0  T
   6   -113.2893950 -0.919864E-08  0.366E-04    0.78      33.7  T
     SCC iter.                  ...        0 min,  0.026 sec
     gradient                   ...        0 min,  0.016 sec
 * total energy  :  -111.8551431 Eh     change       -0.1373084E-03 Eh
   gradient norm :     0.0091087 Eh/α   predicted    -0.1337192E-03 (  -2.61%)
   displ. norm   :     0.2210292 α      lambda       -0.1983488E-03
   maximum displ.:     0.1212112 α      in ANC's #7, #6, #31, ...

........................................................................
.............................. CYCLE   16 ..............................
........................................................................

 iter      E             dE          RMSdq      gap      omega  full diag
   1   -113.2887882 -0.113289E+03  0.339E-02    0.81       0.0  T
   2   -113.2887974 -0.918284E-05  0.193E-02    0.81       1.0  T
   3   -113.2887977 -0.359077E-06  0.829E-03    0.81       1.5  T
   4   -113.2887980 -0.291041E-06  0.211E-03    0.81       5.8  T
   5   -113.2887981 -0.138902E-06  0.893E-04    0.81      13.8  T
   6   -113.2887981 -0.672536E-08  0.424E-04    0.81      29.0  T
     SCC iter.                  ...        0 min,  0.032 sec
     gradient                   ...        0 min,  0.016 sec
 * total energy  :  -111.8552592 Eh     change       -0.1161192E-03 Eh
   gradient norm :     0.0054441 Eh/α   predicted    -0.1040212E-03 ( -10.42%)
   displ. norm   :     0.1476230 α      lambda       -0.1185284E-03
   maximum displ.:     0.0717403 α      in ANC's #7, #6, #8, ...

........................................................................
.............................. CYCLE   17 ..............................
........................................................................

 iter      E             dE          RMSdq      gap      omega  full diag
   1   -113.2908085 -0.113291E+03  0.241E-02    0.83       0.0  T
   2   -113.2908162 -0.769093E-05  0.130E-02    0.83       1.0  T
   3   -113.2908164 -0.282140E-06  0.660E-03    0.83       1.9  T
   4   -113.2908165 -0.310612E-07  0.151E-03    0.82       8.1  T
   5   -113.2908166 -0.886697E-07  0.566E-04    0.82      21.8  T
   6   -113.2908166 -0.292921E-08  0.273E-04    0.82      45.0  T
     SCC iter.                  ...        0 min,  0.026 sec
     gradient                   ...        0 min,  0.017 sec
 * total energy  :  -111.8553284 Eh     change       -0.6927709E-04 Eh
   gradient norm :     0.0050728 Eh/α   predicted    -0.6056282E-04 ( -12.58%)
   displ. norm   :     0.2233882 α      lambda       -0.1279554E-03
   maximum displ.:     0.1147567 α      in ANC's #7, #6, #8, ...

........................................................................
.............................. CYCLE   18 ..............................
........................................................................

 iter      E             dE          RMSdq      gap      omega  full diag
   1   -113.2893369 -0.113289E+03  0.283E-02    0.81       0.0  T
   2   -113.2893398 -0.290871E-05  0.167E-02    0.81       1.0  T
   3   -113.2893394  0.461881E-06  0.629E-03    0.82       2.0  T
   4   -113.2893404 -0.101954E-05  0.137E-03    0.82       9.0  T
   5   -113.2893404 -0.421106E-07  0.622E-04    0.82      19.8  T
   6   -113.2893404 -0.248983E-08  0.275E-04    0.82      44.7  T
     SCC iter.                  ...        0 min,  0.033 sec
     gradient                   ...        0 min,  0.015 sec
 * total energy  :  -111.8554207 Eh     change       -0.9220265E-04 Eh
   gradient norm :     0.0060655 Eh/α   predicted    -0.6717215E-04 ( -27.15%)
   displ. norm   :     0.3244201 α      lambda       -0.1825493E-03
   maximum displ.:     0.1516287 α      in ANC's #8, #7, #6, ...

........................................................................
.............................. CYCLE   19 ..............................
........................................................................

 iter      E             dE          RMSdq      gap      omega  full diag
   1   -113.2894836 -0.113289E+03  0.431E-02    0.81       0.0  T
   2   -113.2894869 -0.327511E-05  0.253E-02    0.81       1.0  T
   3   -113.2894862  0.718766E-06  0.651E-03    0.81       1.9  T
   4   -113.2894875 -0.133079E-05  0.180E-03    0.81       6.9  T
   5   -113.2894876 -0.786555E-07  0.835E-04    0.81      14.7  T
   6   -113.2894876 -0.274200E-08  0.316E-04    0.81      38.9  T
     SCC iter.                  ...        0 min,  0.025 sec
     gradient                   ...        0 min,  0.018 sec
 * total energy  :  -111.8555419 Eh     change       -0.1212780E-03 Eh
   gradient norm :     0.0064450 Eh/α   predicted    -0.1008825E-03 ( -16.82%)
   displ. norm   :     0.3708847 α      lambda       -0.1730084E-03
   maximum displ.:     0.1551766 α      in ANC's #7, #8, #6, ...

........................................................................
.............................. CYCLE   20 ..............................
........................................................................

 iter      E             dE          RMSdq      gap      omega  full diag
   1   -113.2873669 -0.113287E+03  0.483E-02    0.81       0.0  T
   2   -113.2873695 -0.263625E-05  0.282E-02    0.81       1.0  T
   3   -113.2873692  0.288661E-06  0.485E-03    0.81       2.5  T
   4   -113.2873700 -0.790133E-06  0.176E-03    0.81       7.0  T
   5   -113.2873701 -0.615656E-07  0.877E-04    0.81      14.0  T
   6   -113.2873701 -0.479154E-08  0.286E-04    0.81      43.0  T
     SCC iter.                  ...        0 min,  0.034 sec
     gradient                   ...        0 min,  0.017 sec
 * total energy  :  -111.8556233 Eh     change       -0.8140920E-04 Eh
   gradient norm :     0.0071238 Eh/α   predicted    -0.9840501E-04 (  20.88%)
   displ. norm   :     0.1293857 α      lambda       -0.1135339E-03
   maximum displ.:     0.0610057 α      in ANC's #8, #4, #9, ...
 * RMSD in coord.:     0.6531609 α      energy gain  -0.3368458E-01 Eh

generating ANC from exact Hessian ...
Using Lindh-Hessian (1995)
 Shifting diagonal of input Hessian by    9.9067460603785677E-003
 Lowest  eigenvalues of input Hessian
    0.000000    0.000000    0.000000    0.000000    0.000000    0.000000
    0.010000    0.010043    0.010099    0.010276    0.010299    0.010567
    0.010743    0.011143    0.011377    0.011704    0.012422    0.012994
 Highest eigenvalues
    2.069910    2.309604    2.317588    2.323130    2.349547    2.638223


........................................................................
.............................. CYCLE   21 ..............................
........................................................................

 iter      E             dE          RMSdq      gap      omega  full diag
   1   -113.2890934 -0.113289E+03  0.215E-02    0.81       0.0  T
   2   -113.2890946 -0.119135E-05  0.124E-02    0.82       1.0  T
   3   -113.2890944  0.150973E-06  0.357E-03    0.81       3.4  T
   4   -113.2890947 -0.316517E-06  0.985E-04    0.81      12.5  T
   5   -113.2890947 -0.235082E-07  0.431E-04    0.81      28.6  T
     SCC iter.                  ...        0 min,  0.026 sec
     gradient                   ...        0 min,  0.019 sec
 * total energy  :  -111.8556953 Eh     change       -0.7198595E-04 Eh
   gradient norm :     0.0042441 Eh/α   predicted     0.0000000E+00 (-100.00%)
   displ. norm   :     0.0384388 α      lambda       -0.4302839E-04
   maximum displ.:     0.0152424 α      in ANC's #14, #9, #15, ...

........................................................................
.............................. CYCLE   22 ..............................
........................................................................

 iter      E             dE          RMSdq      gap      omega  full diag
   1   -113.2901667 -0.113290E+03  0.963E-03    0.82       0.0  T
   2   -113.2901670 -0.322462E-06  0.566E-03    0.82       2.2  T
   3   -113.2901670  0.513218E-07  0.186E-03    0.82       6.6  T
   4   -113.2901671 -0.955318E-07  0.531E-04    0.82      23.2  T
   5   -113.2901671 -0.942146E-08  0.212E-04    0.82      57.9  T
     SCC iter.                  ...        0 min,  0.022 sec
     gradient                   ...        0 min,  0.015 sec
 * total energy  :  -111.8557335 Eh     change       -0.3820668E-04 Eh
   gradient norm :     0.0020781 Eh/α   predicted    -0.2374654E-04 ( -37.85%)
   displ. norm   :     0.1086748 α      lambda       -0.7499470E-04
   maximum displ.:     0.0439197 α      in ANC's #14, #9, #5, ...

........................................................................
.............................. CYCLE   23 ..............................
........................................................................

 iter      E             dE          RMSdq      gap      omega  full diag
   1   -113.2912702 -0.113291E+03  0.232E-02    0.82       0.0  T
   2   -113.2912712 -0.925430E-06  0.136E-02    0.82       1.0  T
   3   -113.2912708  0.348989E-06  0.364E-03    0.82       3.4  T
   4   -113.2912714 -0.557920E-06  0.921E-04    0.82      13.4  T
   5   -113.2912714 -0.193838E-07  0.445E-04    0.82      27.7  T
     SCC iter.                  ...        0 min,  0.024 sec
     gradient                   ...        0 min,  0.017 sec
 * total energy  :  -111.8557797 Eh     change       -0.4620919E-04 Eh
   gradient norm :     0.0023402 Eh/α   predicted    -0.3794039E-04 ( -17.89%)
   displ. norm   :     0.0950244 α      lambda       -0.3572000E-04
   maximum displ.:     0.0375485 α      in ANC's #14, #9, #5, ...

........................................................................
.............................. CYCLE   24 ..............................
........................................................................

 iter      E             dE          RMSdq      gap      omega  full diag
   1   -113.2911152 -0.113291E+03  0.184E-02    0.82       0.0  T
   2   -113.2911154 -0.267156E-06  0.108E-02    0.82       1.1  T
   3   -113.2911154  0.572437E-07  0.191E-03    0.82       6.4  T
   4   -113.2911155 -0.152533E-06  0.636E-04    0.82      19.4  T
   5   -113.2911155 -0.351655E-08  0.321E-04    0.82      38.4  T
     SCC iter.                  ...        0 min,  0.026 sec
     gradient                   ...        0 min,  0.015 sec
 * total energy  :  -111.8558018 Eh     change       -0.2204270E-04 Eh
   gradient norm :     0.0029960 Eh/α   predicted    -0.1802160E-04 ( -18.24%)
   displ. norm   :     0.1430726 α      lambda       -0.4456464E-04
   maximum displ.:     0.0550372 α      in ANC's #9, #14, #15, ...

........................................................................
.............................. CYCLE   25 ..............................
........................................................................

 iter      E             dE          RMSdq      gap      omega  full diag
   1   -113.2903150 -0.113290E+03  0.258E-02    0.81       0.0  T
   2   -113.2903153 -0.377394E-06  0.151E-02    0.81       1.0  T
   3   -113.2903154 -0.418492E-07  0.179E-03    0.81       6.9  T
   4   -113.2903155 -0.989507E-07  0.821E-04    0.81      15.0  T
   5   -113.2903155 -0.638656E-08  0.369E-04    0.81      33.4  T
     SCC iter.                  ...        0 min,  0.022 sec
     gradient                   ...        0 min,  0.017 sec
 * total energy  :  -111.8558344 Eh     change       -0.3256789E-04 Eh
   gradient norm :     0.0029867 Eh/α   predicted    -0.2273911E-04 ( -30.18%)
   displ. norm   :     0.1798438 α      lambda       -0.5364014E-04
   maximum displ.:     0.0683517 α      in ANC's #9, #15, #5, ...

........................................................................
.............................. CYCLE   26 ..............................
........................................................................

 iter      E             dE          RMSdq      gap      omega  full diag
   1   -113.2891263 -0.113289E+03  0.314E-02    0.80       0.0  T
   2   -113.2891269 -0.603181E-06  0.185E-02    0.81       1.0  T
   3   -113.2891269 -0.797900E-08  0.227E-03    0.81       5.4  T
   4   -113.2891271 -0.200859E-06  0.999E-04    0.81      12.3  T
   5   -113.2891271 -0.132449E-07  0.445E-04    0.81      27.7  T
     SCC iter.                  ...        0 min,  0.030 sec
     gradient                   ...        0 min,  0.015 sec
 * total energy  :  -111.8558721 Eh     change       -0.3771217E-04 Eh
   gradient norm :     0.0031031 Eh/α   predicted    -0.2769155E-04 ( -26.57%)
   displ. norm   :     0.1321861 α      lambda       -0.4391899E-04
   maximum displ.:     0.0509887 α      in ANC's #5, #15, #9, ...

........................................................................
.............................. CYCLE   27 ..............................
........................................................................

 iter      E             dE          RMSdq      gap      omega  full diag
   1   -113.2889538 -0.113289E+03  0.234E-02    0.80       0.0  T
   2   -113.2889542 -0.390416E-06  0.138E-02    0.81       1.0  T
   3   -113.2889539  0.286440E-06  0.286E-03    0.81       4.3  T
   4   -113.2889544 -0.439014E-06  0.678E-04    0.81      18.2  T
   5   -113.2889544 -0.301748E-08  0.314E-04    0.81      39.2  T
     SCC iter.                  ...        0 min,  0.022 sec
     gradient                   ...        0 min,  0.016 sec
 * total energy  :  -111.8559038 Eh     change       -0.3172934E-04 Eh
   gradient norm :     0.0030085 Eh/α   predicted    -0.2235341E-04 ( -29.55%)
   displ. norm   :     0.1310540 α      lambda       -0.3691718E-04
   maximum displ.:     0.0545391 α      in ANC's #5, #15, #13, ...

........................................................................
.............................. CYCLE   28 ..............................
........................................................................

 iter      E             dE          RMSdq      gap      omega  full diag
   1   -113.2893471 -0.113289E+03  0.232E-02    0.81       0.0  T
   2   -113.2893474 -0.348255E-06  0.136E-02    0.81       1.0  T
   3   -113.2893472  0.247744E-06  0.276E-03    0.81       4.5  T
   4   -113.2893475 -0.382822E-06  0.655E-04    0.81      18.8  T
   5   -113.2893475 -0.294102E-08  0.294E-04    0.81      41.8  T
     SCC iter.                  ...        0 min,  0.026 sec
     gradient                   ...        0 min,  0.017 sec
 * total energy  :  -111.8559313 Eh     change       -0.2746762E-04 Eh
   gradient norm :     0.0024012 Eh/α   predicted    -0.1878006E-04 ( -31.63%)
   displ. norm   :     0.1652027 α      lambda       -0.3321238E-04
   maximum displ.:     0.0707006 α      in ANC's #5, #15, #11, ...

........................................................................
.............................. CYCLE   29 ..............................
........................................................................

 iter      E             dE          RMSdq      gap      omega  full diag
   1   -113.2895800 -0.113290E+03  0.286E-02    0.82       0.0  T
   2   -113.2895805 -0.490065E-06  0.168E-02    0.82       1.0  T
   3   -113.2895804  0.129481E-06  0.257E-03    0.82       4.8  T
   4   -113.2895807 -0.292273E-06  0.850E-04    0.82      14.5  T
   5   -113.2895807 -0.718047E-08  0.387E-04    0.82      31.8  T
     SCC iter.                  ...        0 min,  0.021 sec
     gradient                   ...        0 min,  0.015 sec
 * total energy  :  -111.8559552 Eh     change       -0.2396471E-04 Eh
   gradient norm :     0.0020246 Eh/α   predicted    -0.1706068E-04 ( -28.81%)
   displ. norm   :     0.1304059 α      lambda       -0.2862083E-04
   maximum displ.:     0.0611174 α      in ANC's #5, #15, #11, ...

........................................................................
.............................. CYCLE   30 ..............................
........................................................................

 iter      E             dE          RMSdq      gap      omega  full diag
   1   -113.2907787 -0.113291E+03  0.225E-02    0.82       0.0  T
   2   -113.2907792 -0.430063E-06  0.131E-02    0.82       1.0  T
   3   -113.2907792  0.166744E-07  0.184E-03    0.82       6.7  T
   4   -113.2907793 -0.118495E-06  0.725E-04    0.82      17.0  T
   5   -113.2907793 -0.828216E-08  0.342E-04    0.82      36.0  T
     SCC iter.                  ...        0 min,  0.024 sec
     gradient                   ...        0 min,  0.017 sec
 * total energy  :  -111.8559738 Eh     change       -0.1854735E-04 Eh
   gradient norm :     0.0018027 Eh/α   predicted    -0.1455754E-04 ( -21.51%)
   displ. norm   :     0.3814685 α      lambda       -0.2938282E-04
   maximum displ.:     0.1659949 α      in ANC's #5, #15, #11, ...

........................................................................
.............................. CYCLE   31 ..............................
........................................................................

 iter      E             dE          RMSdq      gap      omega  full diag
   1   -113.2875905 -0.113288E+03  0.657E-02    0.82       0.0  T
   2   -113.2875936 -0.309719E-05  0.384E-02    0.82       1.0  T
   3   -113.2875939 -0.259870E-06  0.431E-03    0.82       2.9  T
   4   -113.2875944 -0.546760E-06  0.202E-03    0.82       6.1  T
   5   -113.2875945 -0.481155E-07  0.101E-03    0.82      12.2  T
   6   -113.2875945 -0.934281E-08  0.271E-04    0.82      45.4  T
   7   -113.2875945 -0.151728E-08  0.119E-04    0.82     103.7  T
     SCC iter.                  ...        0 min,  0.033 sec
     gradient                   ...        0 min,  0.015 sec
 * total energy  :  -111.8559533 Eh     change        0.2042472E-04 Eh
   gradient norm :     0.0057854 Eh/α   predicted    -0.1564220E-04 (-176.58%)
   displ. norm   :     0.1216172 α      lambda       -0.7613435E-04
   maximum displ.:     0.0487754 α      in ANC's #15, #9, #5, ...

........................................................................
.............................. CYCLE   32 ..............................
........................................................................

 iter      E             dE          RMSdq      gap      omega  full diag
   1   -113.2900998 -0.113290E+03  0.222E-02    0.82       0.0  T
   2   -113.2901005 -0.688320E-06  0.129E-02    0.82       1.0  T
   3   -113.2901005  0.396233E-07  0.217E-03    0.82       5.7  T
   4   -113.2901006 -0.138480E-06  0.778E-04    0.82      15.8  T
   5   -113.2901006 -0.118521E-07  0.393E-04    0.82      31.3  T
     SCC iter.                  ...        0 min,  0.024 sec
     gradient                   ...        0 min,  0.016 sec
 * total energy  :  -111.8559974 Eh     change       -0.4407751E-04 Eh
   gradient norm :     0.0019257 Eh/α   predicted    -0.3863089E-04 ( -12.36%)
   displ. norm   :     0.0478263 α      lambda       -0.1103647E-04
   maximum displ.:     0.0217354 α      in ANC's #9, #5, #12, ...

........................................................................
.............................. CYCLE   33 ..............................
........................................................................

 iter      E             dE          RMSdq      gap      omega  full diag
   1   -113.2909488 -0.113291E+03  0.929E-03    0.82       0.0  T
   2   -113.2909490 -0.190191E-06  0.535E-03    0.82       2.3  T
   3   -113.2909490  0.182626E-07  0.124E-03    0.82       9.9  T
   4   -113.2909490 -0.450949E-07  0.351E-04    0.82      35.1  T
   5   -113.2909490 -0.266449E-08  0.169E-04    0.82      72.6  T
     SCC iter.                  ...        0 min,  0.028 sec
     gradient                   ...        0 min,  0.016 sec
 * total energy  :  -111.8560075 Eh     change       -0.1006791E-04 Eh
   gradient norm :     0.0010190 Eh/α   predicted    -0.5528787E-05 ( -45.09%)
   displ. norm   :     0.0661618 α      lambda       -0.5761866E-05
   maximum displ.:     0.0316624 α      in ANC's #5, #11, #3, ...

........................................................................
.............................. CYCLE   34 ..............................
........................................................................

 iter      E             dE          RMSdq      gap      omega  full diag
   1   -113.2908287 -0.113291E+03  0.118E-02    0.82       0.0  T
   2   -113.2908288 -0.980094E-07  0.685E-03    0.82       1.8  T
   3   -113.2908288 -0.517878E-08  0.873E-04    0.82      14.1  T
   4   -113.2908289 -0.273231E-07  0.366E-04    0.82      33.6  T
     SCC iter.                  ...        0 min,  0.018 sec
     gradient                   ...        0 min,  0.017 sec
 * total energy  :  -111.8560145 Eh     change       -0.7017349E-05 Eh
   gradient norm :     0.0008148 Eh/α   predicted    -0.2891259E-05 ( -58.80%)
   displ. norm   :     0.1520532 α      lambda       -0.9053580E-05
   maximum displ.:     0.0739827 α      in ANC's #5, #11, #3, ...

........................................................................
.............................. CYCLE   35 ..............................
........................................................................

 iter      E             dE          RMSdq      gap      omega  full diag
   1   -113.2902086 -0.113290E+03  0.268E-02    0.82       0.0  T
   2   -113.2902090 -0.422692E-06  0.155E-02    0.82       1.0  T
   3   -113.2902091 -0.111362E-06  0.147E-03    0.82       8.4  T
   4   -113.2902092 -0.398934E-07  0.789E-04    0.82      15.6  T
   5   -113.2902092 -0.526123E-08  0.267E-04    0.82      46.1  T
     SCC iter.                  ...        0 min,  0.028 sec
     gradient                   ...        0 min,  0.017 sec
 * total energy  :  -111.8560236 Eh     change       -0.9103874E-05 Eh
   gradient norm :     0.0009485 Eh/α   predicted    -0.4579812E-05 ( -49.69%)
   displ. norm   :     0.1541193 α      lambda        0.1869704E-05
   maximum displ.:     0.0750322 α      in ANC's #5, #11, #3, ...

........................................................................
.............................. CYCLE   36 ..............................
........................................................................

 iter      E             dE          RMSdq      gap      omega  full diag
   1   -113.2891845 -0.113289E+03  0.272E-02    0.82       0.0  T
   2   -113.2891850 -0.472595E-06  0.158E-02    0.82       1.0  T
   3   -113.2891851 -0.115409E-06  0.153E-03    0.82       8.1  T
   4   -113.2891852 -0.436129E-07  0.808E-04    0.82      15.2  T
   5   -113.2891852 -0.525664E-08  0.302E-04    0.82      40.8  T
     SCC iter.                  ...        0 min,  0.022 sec
     gradient                   ...        0 min,  0.015 sec
 * total energy  :  -111.8560213 Eh     change        0.2320787E-05 Eh
   gradient norm :     0.0022277 Eh/α   predicted     0.9441140E-06 ( -59.32%)
   displ. norm   :     0.0446604 α      lambda       -0.8768032E-05
   maximum displ.:     0.0194829 α      in ANC's #11, #5, #15, ...

........................................................................
.............................. CYCLE   37 ..............................
........................................................................

 iter      E             dE          RMSdq      gap      omega  full diag
   1   -113.2899153 -0.113290E+03  0.797E-03    0.82       0.0  T
   2   -113.2899154 -0.738803E-07  0.464E-03    0.82       2.7  T
   3   -113.2899154  0.829311E-08  0.812E-04    0.82      15.1  T
   4   -113.2899154 -0.228103E-07  0.271E-04    0.82      45.4  T
     SCC iter.                  ...        0 min,  0.023 sec
     gradient                   ...        0 min,  0.018 sec
 * total energy  :  -111.8560278 Eh     change       -0.6497208E-05 Eh
   gradient norm :     0.0013094 Eh/α   predicted    -0.4397349E-05 ( -32.32%)
   displ. norm   :     0.0625546 α      lambda       -0.9056677E-05
   maximum displ.:     0.0310951 α      in ANC's #15, #11, #4, ...

........................................................................
.............................. CYCLE   38 ..............................
........................................................................

 iter      E             dE          RMSdq      gap      omega  full diag
   1   -113.2910903 -0.113291E+03  0.114E-02    0.82       0.0  T
   2   -113.2910905 -0.146458E-06  0.668E-03    0.82       1.8  T
   3   -113.2910904  0.697059E-07  0.158E-03    0.82       7.8  T
   4   -113.2910905 -0.104551E-06  0.342E-04    0.82      36.0  T
   5   -113.2910905 -0.197647E-08  0.171E-04    0.82      72.2  T
     SCC iter.                  ...        0 min,  0.025 sec
     gradient                   ...        0 min,  0.015 sec
 * total energy  :  -111.8560354 Eh     change       -0.7640876E-05 Eh
   gradient norm :     0.0009652 Eh/α   predicted    -0.4540433E-05 ( -40.58%)
   displ. norm   :     0.0725232 α      lambda       -0.4884603E-05
   maximum displ.:     0.0329017 α      in ANC's #3, #5, #4, ...

........................................................................
.............................. CYCLE   39 ..............................
........................................................................

 iter      E             dE          RMSdq      gap      omega  full diag
   1   -113.2911369 -0.113291E+03  0.138E-02    0.82       0.0  T
   2   -113.2911370 -0.119143E-06  0.802E-03    0.82       1.5  T
   3   -113.2911370 -0.273751E-07  0.858E-04    0.82      14.3  T
   4   -113.2911371 -0.184315E-07  0.451E-04    0.82      27.3  T
     SCC iter.                  ...        0 min,  0.020 sec
     gradient                   ...        0 min,  0.016 sec
 * total energy  :  -111.8560414 Eh     change       -0.5983661E-05 Eh
   gradient norm :     0.0010940 Eh/α   predicted    -0.2449006E-05 ( -59.07%)
   displ. norm   :     0.1585379 α      lambda       -0.9866914E-05
   maximum displ.:     0.0725185 α      in ANC's #3, #5, #4, ...

........................................................................
.............................. CYCLE   40 ..............................
........................................................................

 iter      E             dE          RMSdq      gap      omega  full diag
   1   -113.2906385 -0.113291E+03  0.300E-02    0.82       0.0  T
   2   -113.2906391 -0.548152E-06  0.174E-02    0.82       1.0  T
   3   -113.2906392 -0.175550E-06  0.175E-03    0.82       7.0  T
   4   -113.2906393 -0.532291E-07  0.100E-03    0.82      12.3  T
   5   -113.2906393 -0.987802E-08  0.281E-04    0.82      43.8  T
     SCC iter.                  ...        0 min,  0.033 sec
     gradient                   ...        0 min,  0.017 sec
 * total energy  :  -111.8560522 Eh     change       -0.1077652E-04 Eh
   gradient norm :     0.0006923 Eh/α   predicted    -0.4992233E-05 ( -53.67%)
   displ. norm   :     0.1681012 α      lambda       -0.6382816E-05
   maximum displ.:     0.0831599 α      in ANC's #5, #3, #8, ...

........................................................................
.............................. CYCLE   41 ..............................
........................................................................

 iter      E             dE          RMSdq      gap      omega  full diag
   1   -113.2901372 -0.113290E+03  0.309E-02    0.82       0.0  T
   2   -113.2901378 -0.620673E-06  0.179E-02    0.82       1.0  T
   3   -113.2901380 -0.228411E-06  0.165E-03    0.82       7.5  T
   4   -113.2901381 -0.197044E-07  0.917E-04    0.82      13.4  T
   5   -113.2901381 -0.784513E-08  0.286E-04    0.82      43.0  T
     SCC iter.                  ...        0 min,  0.024 sec
     gradient                   ...        0 min,  0.016 sec
 * total energy  :  -111.8560594 Eh     change       -0.7162246E-05 Eh
   gradient norm :     0.0008295 Eh/α   predicted    -0.3234768E-05 ( -54.84%)
   displ. norm   :     0.1252086 α      lambda       -0.4763162E-05
   maximum displ.:     0.0632529 α      in ANC's #5, #3, #4, ...

........................................................................
.............................. CYCLE   42 ..............................
........................................................................

 iter      E             dE          RMSdq      gap      omega  full diag
   1   -113.2901905 -0.113290E+03  0.227E-02    0.82       0.0  T
   2   -113.2901909 -0.370468E-06  0.131E-02    0.82       1.0  T
   3   -113.2901910 -0.118484E-06  0.132E-03    0.82       9.3  T
   4   -113.2901910 -0.227327E-07  0.739E-04    0.82      16.7  T
   5   -113.2901910 -0.390386E-08  0.268E-04    0.82      45.9  T
     SCC iter.                  ...        0 min,  0.028 sec
     gradient                   ...        0 min,  0.016 sec
 * total energy  :  -111.8560655 Eh     change       -0.6156653E-05 Eh
   gradient norm :     0.0007795 Eh/α   predicted    -0.2401690E-05 ( -60.99%)
   displ. norm   :     0.1866288 α      lambda       -0.8573899E-05
   maximum displ.:     0.0968453 α      in ANC's #5, #3, #4, ...
 * RMSD in coord.:     0.2468968 α      energy gain  -0.4421719E-03 Eh

generating ANC from exact Hessian ...
Using Lindh-Hessian (1995)
 Shifting diagonal of input Hessian by    9.9073681747404371E-003
 Lowest  eigenvalues of input Hessian
    0.000000    0.000000    0.000000    0.000000    0.000000    0.000000
    0.010000    0.010040    0.010097    0.010284    0.010294    0.010564
    0.010741    0.011143    0.011365    0.011737    0.012416    0.012925
 Highest eigenvalues
    2.071128    2.314166    2.319062    2.321468    2.349555    2.640864


........................................................................
.............................. CYCLE   43 ..............................
........................................................................

 iter      E             dE          RMSdq      gap      omega  full diag
   1   -113.2903800 -0.113290E+03  0.336E-02    0.81       0.0  T
   2   -113.2903808 -0.834221E-06  0.194E-02    0.81       1.0  T
   3   -113.2903811 -0.290989E-06  0.201E-03    0.81       6.1  T
   4   -113.2903811 -0.471822E-07  0.115E-03    0.81      10.7  T
   5   -113.2903812 -0.138592E-07  0.335E-04    0.81      36.8  T
   6   -113.2903812 -0.279852E-08  0.113E-04    0.81     108.8  T
     SCC iter.                  ...        0 min,  0.029 sec
     gradient                   ...        0 min,  0.017 sec
 * total energy  :  -111.8560755 Eh     change       -0.9951017E-05 Eh
   gradient norm :     0.0007126 Eh/α   predicted     0.0000000E+00 (-100.00%)
   displ. norm   :     0.0181545 α      lambda       -0.2698794E-05
   maximum displ.:     0.0113229 α      in ANC's #9, #4, #16, ...

........................................................................
.............................. CYCLE   44 ..............................
........................................................................

 iter      E             dE          RMSdq      gap      omega  full diag
   1   -113.2907682 -0.113291E+03  0.388E-03    0.82       0.0  T
   2   -113.2907683 -0.373075E-07  0.222E-03    0.82       5.5  T
   3   -113.2907683  0.197105E-08  0.550E-04    0.82      22.4  T
   4   -113.2907683 -0.639689E-08  0.167E-04    0.82      73.6  T
     SCC iter.                  ...        0 min,  0.018 sec
     gradient                   ...        0 min,  0.016 sec
 * total energy  :  -111.8560784 Eh     change       -0.2967489E-05 Eh
   gradient norm :     0.0003993 Eh/α   predicted    -0.1368994E-05 ( -53.87%)
   displ. norm   :     0.0585672 α      lambda       -0.6071551E-05
   maximum displ.:     0.0350458 α      in ANC's #9, #4, #16, ...

   *** GEOMETRY OPTIMIZATION CONVERGED AFTER 44 ITERATIONS ***

------------------------------------------------------------------------
 total energy gain   :        -0.0341397 Eh      -21.4230 kcal/mol
 total RMSD          :         0.7448369 a0        0.3942 Å
 total power (kW/mol):        -2.0371294 (step)  -35.7498 (real)
------------------------------------------------------------------------

 ANCopt (total)                0 d,  0 h,  0 min,  2.507 sec
 optimizer setup                ...        0 min,  0.000 sec (  0.019%)
 model hessian                  ...        0 min,  0.118 sec (  4.699%)
 ANC generation                 ...        0 min,  0.009 sec (  0.373%)
 coordinate transformation      ...        0 min,  0.002 sec (  0.065%)
 single point calculation       ...        0 min,  2.338 sec ( 93.257%)
 optimization log               ...        0 min,  0.022 sec (  0.887%)
 hessian update                 ...        0 min,  0.005 sec (  0.206%)
 rational function              ...        0 min,  0.009 sec (  0.360%)

================
 final structure:
================
66
 xtb: 6.7.1 (edcfbbe)
C           -5.31734070768076       -5.98073987316442       -0.72659164863519
N           -4.57978651797475       -4.87025867160102       -0.17088604760560
C           -3.47255259425176       -4.36632943079771       -0.73556501906677
O           -2.99509800302971       -4.80929332195179       -1.78189838899929
C           -2.85252696234551       -3.21382751871780       -0.02063718735211
C           -2.88095904270463       -3.08039953083851        1.36400434685818
C           -2.26510285441597       -1.99358904756039        1.96042351413497
C           -1.63108471838832       -1.03512510884267        1.19038632375208
C           -1.58123383793332       -1.16601419606343       -0.19276073532206
C           -0.93265696807870       -0.10405771526352       -1.05431837880107
C           -1.98774620098683        0.96551186955928       -1.24332257248719
C           -2.80031521251892        0.95178986780312       -2.36907286318470
C           -3.81489286266233        1.88326977057132       -2.51242526783596
C           -4.01844145584508        2.84005234486902       -1.53659380691006
C           -3.19704456159950        2.87940791374606       -0.41317084012115
C           -3.46167717601848        3.93467155313818        0.60825229226956
O           -4.59315677031568        4.38639257556374        0.79228453507028
N           -2.38870447469195        4.36103537053108        1.29024506352532
C           -2.44788115998387        5.38935028456946        2.30245318006913
C           -2.19215861970242        1.93046385594622       -0.26612424435355
N            0.27335400143706        0.43272792892374       -0.43222193440209
C            0.86777277928076        1.49521614402321       -1.22855170625303
C            2.02662249650366        2.11717486822683       -0.45224275590949
N            3.00300877015336        1.09085116809598       -0.15200176345380
C            4.22201211211992        1.13744733169033       -0.66916607160255
O            4.66522588875728        2.05237172762542       -1.36155792795545
C            5.15526375983610        0.00858040142287       -0.35121235210624
N            5.23748257115635       -1.09862701962836       -1.02848095513628
O            6.32492359715155       -1.78443711607123       -0.56369406236770
C            6.94174327317178       -1.10238596945501        0.38868274732017
C            8.14161650151894       -1.64818126654762        1.02916544719373
C            6.23281130415903        0.07912936486744        0.58634550182599
N            6.47095669366062        1.10353871408999        1.50663996360145
O            5.60556960389804        1.95326011149748        1.64880066126489
O            7.52272175644422        1.08860154214069        2.12410418607341
C            2.43969594506747       -0.01667420575319        0.58469092886465
C            1.26947398776304       -0.60270221771289       -0.20661838577889
C           -2.18858545000430       -2.26073961194671       -0.78570249212979
H           -5.35437351602859       -6.80435392747476       -0.01382666499700
H           -4.80039633386688       -6.30535528486989       -1.62815204298714
H           -6.33192004739334       -5.67519944956832       -0.98121187678030
H           -4.95772647637459       -4.43066593753705        0.65374791616345
H           -3.34845034254718       -3.83262621583314        1.98019272463237
H           -2.28100628464758       -1.89401237745667        3.03455705349942
H           -1.15157746734282       -0.19126003115901        1.65812525647719
H           -0.69937192036317       -0.54747200241282       -2.04078716588750
H           -2.64542502656963        0.20490196519818       -3.13360615100161
H           -4.44711656585332        1.86134407594552       -3.38641872300819
H           -4.80838957549506        3.57073757839933       -1.62496806150385
H           -1.47986185422131        3.99152800609969        1.05926400585427
H           -2.11405463290591        4.99574882549366        3.26232564259912
H           -3.48322942127822        5.71542568234453        2.38608630041174
H           -1.82289873648870        6.23651215332626        2.02096330337407
H           -1.56658040850288        1.91216197863700        0.61137910615670
H            1.24494295905787        1.11286508070675       -2.19402105012677
H            0.11667303674259        2.25823291934202       -1.43266040364515
H            2.51698793671300        2.89631123656409       -1.03606049766775
H            1.66621141449029        2.53166938360933        0.49155843319228
H            8.16701226318592       -1.36114524074407        2.07791911835121
H            9.02710718365907       -1.21818517068486        0.56012808263335
H            8.16878137469760       -2.72659183685799        0.90695194239188
H            3.19472116167002       -0.78196965464866        0.75488158063309
H            2.07861308352427        0.36084224125382        1.54487256013519
H            1.64932136154215       -1.01215015784854       -1.15934288746676
H            0.82005230717786       -1.41567564650960        0.36360263817976
H           -2.15935336352854       -2.39908308030393       -1.85715742366017

 Bond Distances (Angstroems)
 ---------------------------
C1-N2=1.4443         C1-H39=1.0898        C1-H40=1.0888        C1-H41=1.0898        N2-C1=1.4443         N2-C3=1.3412         
N2-H42=1.0080        C3-N2=1.3412         C3-O4=1.2325         C3-C5=1.4912         O4-C3=1.2325         C5-C3=1.4912         
C5-C6=1.3913         C5-C38=1.3909        C6-C5=1.3913         C6-C7=1.3843         C6-H43=1.0789        C7-C6=1.3843         
C7-C8=1.3833         C7-H44=1.0789        C8-C7=1.3833         C8-C9=1.3902         C8-H45=1.0774        C9-C8=1.3902         
C9-C10=1.5135        C9-C38=1.3852        C10-C9=1.5135        C10-C11=1.5142       C10-N21=1.4593       C10-H46=1.1064       
C11-C10=1.5142       C11-C12=1.3884       C11-C20=1.3885       C12-C11=1.3884       C12-C13=1.3848       C12-H47=1.0800       
C13-C12=1.3848       C13-C14=1.3817       C13-H48=1.0789       C14-C13=1.3817       C14-C15=1.3922       C14-H49=1.0797       
C15-C14=1.3922       C15-C16=1.4923       C15-C20=1.3899       C16-C15=1.4923       C16-O17=1.2321       C16-N18=1.3410       
O17-C16=1.2321       N18-C16=1.3410       N18-C19=1.4441       N18-H50=1.0079       C19-N18=1.4441       C19-H51=1.0898       
C19-H52=1.0887       C19-H53=1.0897       C20-C11=1.3885       C20-C15=1.3899       C20-H54=1.0778       N21-C10=1.4593       
N21-C22=1.4548       N21-C37=1.4544       C22-N21=1.4548       C22-C23=1.5272       C22-H55=1.1048       C22-H56=1.0900       
C23-C22=1.5272       C23-N24=1.4480       C23-H57=1.0901       C23-H58=1.0920       N24-C23=1.4480       N24-C25=1.3250       
N24-C36=1.4445       C25-N24=1.3250       C25-O26=1.2300       C25-C27=1.4988       O26-C25=1.2300       C27-C25=1.4988       
C27-N28=1.3005       C27-C32=1.4301       N28-C27=1.3005       N28-O29=1.3671       O29-N28=1.3671       O29-C30=1.3239       
C30-O29=1.3239       C30-C31=1.4655       C30-C32=1.3920       C31-C30=1.4655       C31-H59=1.0876       C31-H60=1.0904       
C31-H61=1.0857       C32-C27=1.4301       C32-C30=1.3920       C32-N33=1.3975       N33-C32=1.3975       N33-O34=1.2211       
N33-O35=1.2197       O34-N33=1.2211       O35-N33=1.2197       C36-N24=1.4445       C36-C37=1.5294       C36-H62=1.0884       
C36-H63=1.0931       C37-N21=1.4544       C37-C36=1.5294       C37-H64=1.1044       C37-H65=1.0900       C38-C5=1.3909        
C38-C9=1.3852        C38-H66=1.0807       H39-C1=1.0898        H40-C1=1.0888        H41-C1=1.0898        H42-N2=1.0080        
H43-C6=1.0789        H44-C7=1.0789        H45-C8=1.0774        H46-C10=1.1064       H47-C12=1.0800       H48-C13=1.0789       
H49-C14=1.0797       H50-N18=1.0079       H51-C19=1.0898       H52-C19=1.0887       H53-C19=1.0897       H54-C20=1.0778       
H55-C22=1.1048       H56-C22=1.0900       H57-C23=1.0901       H58-C23=1.0920       H59-C31=1.0876       H60-C31=1.0904       
H61-C31=1.0857       H62-C36=1.0884       H63-C36=1.0931       H64-C37=1.1044       H65-C37=1.0900       H66-C38=1.0807       
 C  H  Rav=1.0881 sigma=0.0079  Rmin=1.0774  Rmax=1.1064    26
 C  C  Rav=1.4320 sigma=0.0565  Rmin=1.3817  Rmax=1.5294    22
 N  H  Rav=1.0080 sigma=0.0001  Rmin=1.0079  Rmax=1.0080     2
 N  C  Rav=1.4046 sigma=0.0577  Rmin=1.3005  Rmax=1.4593    12
 O  C  Rav=1.2546 sigma=0.0400  Rmin=1.2300  Rmax=1.3239     4
 O  N  Rav=1.2693 sigma=0.0691  Rmin=1.2197  Rmax=1.3671     3

 selected bond angles (degree)
 --------------------
H39-C1-N2=110.29               H40-C1-N2=107.78               H40-C1-H39=109.41              H41-C1-N2=110.47               
H41-C1-H39=109.45              H41-C1-H40=109.40              C3-N2-C1=123.26                H42-N2-C1=117.30               
H42-N2-C3=119.35               O4-C3-N2=122.83                C5-C3-N2=115.58                C5-C3-O4=121.58                
C6-C5-C3=122.87                C38-C5-C3=117.67               C38-C5-C6=119.44               C7-C6-C5=119.67                
H43-C6-C5=120.69               H43-C6-C7=119.61               C8-C7-C6=120.53                H44-C7-C6=119.66               
H44-C7-C8=119.80               C9-C8-C7=120.33                H45-C8-C7=120.33               H45-C8-C9=119.32               
C10-C9-C8=121.04               C38-C9-C8=118.98               C38-C9-C10=119.92              C11-C10-C9=105.55              
N21-C10-C9=111.69              N21-C10-C11=111.67             H46-C10-C9=108.46              H46-C10-C11=108.58             
H46-C10-N21=110.69             

 selected dihedral angles (degree)
 ---------------------------------
C3-N2-C1-H39=120.42           C3-N2-C1-H40=  1.04           C3-N2-C1-H41=241.56           H42-N2-C1-H39=296.91          
H42-N2-C1-H40=177.52          H42-N2-C1-H41= 58.05          O4-C3-N2-C1=  0.26            O4-C3-N2-H42=183.84           
C5-C3-N2-C1=179.65            C5-C3-N2-H42=  3.23           C6-C5-C3-N2= 33.16            C6-C5-C3-O4=212.56            
C38-C5-C3-N2=211.29           C38-C5-C3-O4= 30.69           C7-C6-C5-C3=178.97            C7-C6-C5-C38=  0.87           
H43-C6-C5-C3=  1.09           H43-C6-C5-C38=183.00          C8-C7-C6-C5=  0.49            C8-C7-C6-H43=178.39           
H44-C7-C6-C5=180.45           H44-C7-C6-H43=358.34          C9-C8-C7-C6=358.69            C9-C8-C7-H44=178.74           
H45-C8-C7-C6=180.09           H45-C8-C7-H44=  0.13          C10-C9-C8-C7=177.92           C10-C9-C8-H45=356.54          
C38-C9-C8-C7=  0.74           C38-C9-C8-H45=179.36          C11-C10-C9-C8=277.35          C11-C10-C9-C38= 94.50         
N21-C10-C9-C8= 38.89          N21-C10-C9-C38=216.05         H46-C10-C9-C8=161.14          H46-C10-C9-C38=338.29         
           -------------------------------------------------
          |                Final Singlepoint                |
           -------------------------------------------------

          ...................................................
          :                      SETUP                      :
          :.................................................:
          :  # basis functions                 180          :
          :  # atomic orbitals                 180          :
          :  # shells                          104          :
          :  # electrons                       198          :
          :  max. iterations                   250          :
          :  Hamiltonian                  GFN2-xTB          :
          :  restarted?                      false          :
          :  GBSA solvation                   true          :
          :  PC potential                    false          :
          :  electronic temp.          300.0000000     K    :
          :  accuracy                    1.0000000          :
          :  -> integral cutoff          0.2500000E+02      :
          :  -> integral neglect         0.1000000E-07      :
          :  -> SCF convergence          0.1000000E-05 Eh   :
          :  -> wf. convergence          0.1000000E-03 e    :
          :  Broyden damping             0.4000000          :
          :  net charge                          0          :
          :  unpaired electrons                  0          :
          ...................................................

 iter      E             dE          RMSdq      gap      omega  full diag
   1   -113.2907683 -0.113291E+03  0.742E-05    0.82       0.0  T
   2   -113.2907683 -0.362661E-10  0.449E-05    0.82     274.3  T
   3   -113.2907683 -0.615330E-11  0.281E-05    0.82     438.1  T

   *** convergence criteria satisfied after 3 iterations ***

         #    Occupation            Energy/Eh            Energy/eV
      -------------------------------------------------------------
         1        2.0000           -0.8018424             -21.8192
       ...           ...                  ...                  ...
        93        2.0000           -0.4082014             -11.1077
        94        2.0000           -0.4025696             -10.9545
        95        2.0000           -0.4006361             -10.9019
        96        2.0000           -0.3994646             -10.8700
        97        2.0000           -0.3960364             -10.7767
        98        2.0000           -0.3936942             -10.7130
        99        2.0000           -0.3681479             -10.0178 (HOMO)
       100        0.0000           -0.3381692              -9.2021 (LUMO)
       101                         -0.2823827              -7.6840
       102                         -0.2566416              -6.9836
       103                         -0.2556141              -6.9556
       104                         -0.2379153              -6.4740
       ...                                ...                  ...
       180                          0.6592614              17.9394
      -------------------------------------------------------------
                  HL-Gap            0.0299788 Eh            0.8158 eV
             Fermi-level           -0.3531586 Eh           -9.6099 eV

 SCC (total)                   0 d,  0 h,  0 min,  0.036 sec
 SCC setup                      ...        0 min,  0.001 sec (  3.007%)
 Dispersion                     ...        0 min,  0.001 sec (  3.505%)
 classical contributions        ...        0 min,  0.000 sec (  0.374%)
 integral evaluation            ...        0 min,  0.004 sec ( 11.507%)
 iterations                     ...        0 min,  0.013 sec ( 37.388%)
 molecular gradient             ...        0 min,  0.015 sec ( 41.939%)
 printout                       ...        0 min,  0.001 sec (  2.201%)

         :::::::::::::::::::::::::::::::::::::::::::::::::::::
         ::                     SUMMARY                     ::
         :::::::::::::::::::::::::::::::::::::::::::::::::::::
         :: total energy            -111.856078430257 Eh    ::
         :: total w/o Gsasa/hb      -111.851250013966 Eh    ::
         :: gradient norm              0.000400180350 Eh/a0 ::
         :: HOMO-LUMO gap              0.815764561792 eV    ::
         ::.................................................::
         :: SCC energy              -113.289917599632 Eh    ::
         :: -> isotropic ES            0.249732987165 Eh    ::
         :: -> anisotropic ES          0.007609481491 Eh    ::
         :: -> anisotropic XC          0.042429727417 Eh    ::
         :: -> dispersion             -0.076932326716 Eh    ::
         :: -> Gsolv                  -0.058005751991 Eh    ::
         ::    -> Gelec               -0.053177335700 Eh    ::
         ::    -> Gsasa                0.003901802651 Eh    ::
         ::    -> Ghb                 -0.009810978640 Eh    ::
         ::    -> Gshift               0.001080759698 Eh    ::
         :: repulsion energy           1.433839169375 Eh    ::
         :: add. restraining           0.000000000000 Eh    ::
         :: total charge              -0.000000000000 e     ::
         :::::::::::::::::::::::::::::::::::::::::::::::::::::

           -------------------------------------------------
          |                Property Printout                |
           -------------------------------------------------

    * Orbital Energies and Occupations

         #    Occupation            Energy/Eh            Energy/eV
      -------------------------------------------------------------
         1        2.0000           -0.8018424             -21.8192
       ...           ...                  ...                  ...
        87        2.0000           -0.4337483             -11.8029
        88        2.0000           -0.4282108             -11.6522
        89        2.0000           -0.4246527             -11.5554
        90        2.0000           -0.4148299             -11.2881
        91        2.0000           -0.4137806             -11.2595
        92        2.0000           -0.4131274             -11.2418
        93        2.0000           -0.4082014             -11.1077
        94        2.0000           -0.4025696             -10.9545
        95        2.0000           -0.4006361             -10.9019
        96        2.0000           -0.3994646             -10.8700
        97        2.0000           -0.3960364             -10.7767
        98        2.0000           -0.3936942             -10.7130
        99        2.0000           -0.3681479             -10.0178 (HOMO)
       100        0.0000           -0.3381692              -9.2021 (LUMO)
       101                         -0.2823827              -7.6840
       102                         -0.2566416              -6.9836
       103                         -0.2556141              -6.9556
       104                         -0.2379153              -6.4740
       105                         -0.2356439              -6.4122
       106                         -0.2241792              -6.1002
       107                         -0.2041707              -5.5558
       108                         -0.1856138              -5.0508
       109                         -0.1819201              -4.9503
       110                         -0.1000789              -2.7233
       ...                                ...                  ...
       180                          0.6592614              17.9394
      -------------------------------------------------------------
                  HL-Gap            0.0299788 Eh            0.8158 eV
             Fermi-level           -0.3531586 Eh           -9.6099 eV

     #   Z          covCN         q      C6AA      α(0)
     1   6 C        3.690    -0.060    21.845     6.689
     2   7 N        2.687    -0.173    24.749     7.389
     3   6 C        2.760     0.271    22.427     7.755
     4   8 O        0.858    -0.540    24.678     6.660
     5   6 C        2.975    -0.025    28.614     8.774
     6   6 C        2.921    -0.041    29.023     8.835
     7   6 C        2.918    -0.034    28.849     8.808
     8   6 C        2.924    -0.036    28.906     8.817
     9   6 C        2.982     0.012    27.745     8.640
    10   6 C        3.821     0.038    19.923     6.352
    11   6 C        2.983     0.013    27.722     8.637
    12   6 C        2.924    -0.037    28.917     8.819
    13   6 C        2.917    -0.033    28.815     8.803
    14   6 C        2.926    -0.026    28.650     8.778
    15   6 C        2.975    -0.023    28.566     8.767
    16   6 C        2.760     0.271    22.421     7.754
    17   8 O        0.858    -0.538    24.652     6.657
    18   7 N        2.687    -0.167    24.614     7.368
    19   6 C        3.690    -0.062    21.879     6.694
    20   6 C        2.925    -0.044    29.087     8.844
    21   7 N        2.733    -0.172    24.718     7.384
    22   6 C        3.772     0.004    20.550     6.460
    23   6 C        3.764    -0.015    20.878     6.513
    24   7 N        2.740    -0.052    22.251     7.006
    25   6 C        2.765     0.274    22.361     7.744
    26   8 O        0.859    -0.512    24.059     6.576
    27   6 C        3.015     0.073    26.359     8.422
    28   7 N        1.948    -0.139    24.768     7.380
    29   8 O        1.821    -0.089    15.656     5.343
    30   6 C        2.988     0.181    24.127     8.057
    31   6 C        3.754    -0.162    23.711     6.943
    32   6 C        2.960    -0.035    28.870     8.813
    33   7 N        2.756     0.571    13.253     5.407
    34   8 O        0.933    -0.440    22.464     6.356
    35   8 O        0.932    -0.428    22.204     6.320
    36   6 C        3.756    -0.017    20.938     6.524
    37   6 C        3.772     0.002    20.582     6.465
    38   6 C        2.931    -0.030    28.749     8.793
    39   1 H        0.925     0.074     2.039     2.233
    40   1 H        0.925     0.077     2.009     2.217
    41   1 H        0.925     0.072     2.066     2.248
    42   1 H        0.860     0.216     1.027     1.587
    43   1 H        0.926     0.052     2.293     2.368
    44   1 H        0.926     0.061     2.189     2.313
    45   1 H        0.926     0.070     2.084     2.257
    46   1 H        0.922     0.018     2.766     2.601
    47   1 H        0.926     0.043     2.404     2.425
    48   1 H        0.926     0.050     2.320     2.382
    49   1 H        0.926     0.047     2.364     2.404
    50   1 H        0.860     0.213     1.041     1.598
    51   1 H        0.925     0.076     2.019     2.222
    52   1 H        0.925     0.077     2.011     2.218
    53   1 H        0.925     0.072     2.062     2.246
    54   1 H        0.926     0.070     2.085     2.258
    55   1 H        0.922     0.018     2.764     2.600
    56   1 H        0.925     0.061     2.182     2.310
    57   1 H        0.925     0.081     1.973     2.196
    58   1 H        0.924     0.086     1.922     2.168
    59   1 H        0.925     0.127     1.557     1.951
    60   1 H        0.924     0.145     1.427     1.868
    61   1 H        0.925     0.128     1.549     1.947
    62   1 H        0.925     0.065     2.144     2.290
    63   1 H        0.924     0.094     1.840     2.122
    64   1 H        0.923     0.022     2.700     2.570
    65   1 H        0.925     0.066     2.135     2.285
    66   1 H        0.926     0.039     2.459     2.452

 Mol. C6AA /au·bohr⁶  :      51326.281528
 Mol. C8AA /au·bohr⁸  :    1207296.443727
 Mol. α(0) /au        :        348.683387


Wiberg/Mayer (AO) data.
largest (>0.10) Wiberg bond orders for each atom

 ---------------------------------------------------------------------------
     #   Z sym  total        # sym  WBO       # sym  WBO       # sym  WBO
 ---------------------------------------------------------------------------
     1   6 C    3.956 --     2 N    1.002    40 H    0.978    41 H    0.974
                            39 H    0.973
     2   7 N    3.476 --     3 C    1.299     1 C    1.002    42 H    0.922
                             4 O    0.198
     3   6 C    3.946 --     4 O    1.587     2 N    1.299     5 C    0.989
     4   8 O    1.911 --     3 C    1.587     2 N    0.198
     5   6 C    3.987 --    38 C    1.397     6 C    1.396     3 C    0.989
                             8 C    0.104
     6   6 C    3.987 --     7 C    1.443     5 C    1.396    43 H    0.965
                             9 C    0.105
     7   6 C    3.990 --     8 C    1.443     6 C    1.443    44 H    0.968
                            38 C    0.105
     8   6 C    3.986 --     7 C    1.443     9 C    1.399    45 H    0.963
                             5 C    0.104
     9   6 C    3.985 --    38 C    1.423     8 C    1.399    10 C    0.975
                             6 C    0.105
    10   6 C    3.982 --    21 N    0.982    11 C    0.975     9 C    0.975
                            46 H    0.949
    11   6 C    3.986 --    20 C    1.412    12 C    1.409    10 C    0.975
                            14 C    0.105
    12   6 C    3.989 --    13 C    1.437    11 C    1.409    47 H    0.968
                            15 C    0.103
    13   6 C    3.990 --    14 C    1.449    12 C    1.437    48 H    0.969
                            20 C    0.107
    14   6 C    3.986 --    13 C    1.449    15 C    1.391    49 H    0.968
                            11 C    0.105
    15   6 C    3.987 --    20 C    1.404    14 C    1.391    16 C    0.988
                            12 C    0.103
    16   6 C    3.947 --    17 O    1.588    18 N    1.300    15 C    0.988
    17   8 O    1.913 --    16 C    1.588    18 N    0.199
    18   7 N    3.479 --    16 C    1.300    19 C    1.002    50 H    0.923
                            17 O    0.199
    19   6 C    3.956 --    18 N    1.002    52 H    0.978    53 H    0.974
                            51 H    0.972
    20   6 C    3.987 --    11 C    1.412    15 C    1.404    54 H    0.957
                            13 C    0.107
    21   7 N    3.120 --    37 C    1.004    22 C    1.003    10 C    0.982
    22   6 C    3.985 --    21 N    1.003    23 C    0.993    56 H    0.964
                            55 H    0.963
    23   6 C    3.955 --    22 C    0.993    24 N    0.973    57 H    0.966
                            58 H    0.961
    24   7 N    3.571 --    25 C    1.341    36 C    0.980    23 C    0.973
                            26 O    0.211
    25   6 C    3.960 --    26 O    1.577    24 N    1.341    27 C    0.940
    26   8 O    1.944 --    25 C    1.577    24 N    0.211
    27   6 C    3.970 --    28 N    1.613    32 C    1.206    25 C    0.940
    28   7 N    2.950 --    27 C    1.613    29 O    1.061    30 C    0.121
    29   8 O    2.491 --    30 C    1.218    28 N    1.061
    30   6 C    3.916 --    32 C    1.390    29 O    1.218    31 C    1.065
                            28 N    0.121
    31   6 C    3.961 --    30 C    1.065    61 H    0.961    59 H    0.947
                            60 H    0.914
    32   6 C    3.936 --    30 C    1.390    27 C    1.206    33 N    1.039
    33   7 N    3.916 --    34 O    1.418    35 O    1.417    32 C    1.039
    34   8 O    1.894 --    33 N    1.418    35 O    0.327
    35   8 O    1.892 --    33 N    1.417    34 O    0.327
    36   6 C    3.957 --    37 C    0.992    24 N    0.980    62 H    0.965
                            63 H    0.959
    37   6 C    3.985 --    21 N    1.004    36 C    0.992    65 H    0.964
                            64 H    0.963
    38   6 C    3.988 --     9 C    1.423     5 C    1.397    66 H    0.966
                             7 C    0.105
    39   1 H    0.993 --     1 C    0.973
    40   1 H    0.994 --     1 C    0.978
    41   1 H    0.994 --     1 C    0.974
    42   1 H    0.953 --     2 N    0.922
    43   1 H    0.997 --     6 C    0.965
    44   1 H    0.995 --     7 C    0.968
    45   1 H    0.995 --     8 C    0.963
    46   1 H    0.999 --    10 C    0.949
    47   1 H    0.998 --    12 C    0.968
    48   1 H    0.997 --    13 C    0.969
    49   1 H    0.997 --    14 C    0.968
    50   1 H    0.954 --    18 N    0.923
    51   1 H    0.993 --    19 C    0.972
    52   1 H    0.994 --    19 C    0.978
    53   1 H    0.994 --    19 C    0.974
    54   1 H    0.995 --    20 C    0.957
    55   1 H    1.000 --    22 C    0.963
    56   1 H    0.996 --    22 C    0.964
    57   1 H    0.993 --    23 C    0.966
    58   1 H    0.992 --    23 C    0.961
    59   1 H    0.984 --    31 C    0.947
    60   1 H    0.979 --    31 C    0.914
    61   1 H    0.983 --    31 C    0.961
    62   1 H    0.995 --    36 C    0.965
    63   1 H    0.991 --    36 C    0.959
    64   1 H    0.999 --    37 C    0.963
    65   1 H    0.995 --    37 C    0.964
    66   1 H    0.998 --    38 C    0.966
 ---------------------------------------------------------------------------

Topologies differ in total number of bonds
Writing topology from bond orders to xtbtopo.mol

molecular dipole:
                 x           y           z       tot (Debye)
 q only:       -0.148      -2.628       2.457
   full:        0.147      -2.632       2.301       8.894
molecular quadrupole (traceless):
                xx          xy          yy          xz          yz          zz
 q only:        2.860     -13.712      -4.090      -1.157     -22.537       1.230
  q+dip:        2.613      -8.127      -9.055      -0.884     -24.958       6.442
   full:        4.549      -7.627      -8.851      -1.374     -27.745       4.302

           -------------------------------------------------
          |                Geometry Summary                 |
           -------------------------------------------------

      molecular mass/u    :      520.5381232
   center of mass at/Å    :        0.4702624       0.0883310      -0.0503802
  moments of inertia/u·Å² :        0.4583183E+04   0.9824177E+04   0.1296623E+05
rotational constants/cm⁻¹ :        0.3678149E-02   0.1715933E-02   0.1300119E-02

 * 64 selected distances

     #   Z          #   Z                                           value/Å
     1   6 C        2   7 N                                       1.4442866
     2   7 N        3   6 C                                       1.3411839
     3   6 C        4   8 O                                       1.2324746
     5   6 C        6   6 C                                       1.3913461
     6   6 C        7   6 C                                       1.3842514
     7   6 C        8   6 C                                       1.3833256
     8   6 C        9   6 C                                       1.3902206
    11   6 C       12   6 C                                       1.3884418
    12   6 C       13   6 C                                       1.3847646
    13   6 C       14   6 C                                       1.3817063
    14   6 C       15   6 C                                       1.3922361
    16   6 C       17   8 O                                       1.2321388
    16   6 C       18   7 N                                       1.3409590
    18   7 N       19   6 C                                       1.4441257
    11   6 C       20   6 C                                       1.3884645
    15   6 C       20   6 C                                       1.3899330
    10   6 C       21   7 N                                       1.4593168
    21   7 N       22   6 C                                       1.4547702
    22   6 C       23   6 C                                       1.5272267
    23   6 C       24   7 N                                       1.4480385
    24   7 N       25   6 C                                       1.3249904
    25   6 C       26   8 O                                       1.2300130
    27   6 C       28   7 N                                       1.3005235
    28   7 N       29   8 O                                       1.3670738
    29   8 O       30   6 C                                       1.3238890
    30   6 C       31   6 C                                       1.4655397
    27   6 C       32   6 C                                       1.4300703
    30   6 C       32   6 C                                       1.3919892
    32   6 C       33   7 N                                       1.3975228
    33   7 N       34   8 O                                       1.2211188
    33   7 N       35   8 O                                       1.2197111
    24   7 N       36   6 C                                       1.4445242
    21   7 N       37   6 C                                       1.4543961
    36   6 C       37   6 C                                       1.5293852 (max)
     5   6 C       38   6 C                                       1.3908703
     9   6 C       38   6 C                                       1.3852364
     1   6 C       39   1 H                                       1.0898375
     1   6 C       40   1 H                                       1.0887690
     1   6 C       41   1 H                                       1.0897513
     2   7 N       42   1 H                                       1.0080187
     6   6 C       43   1 H                                       1.0789261
     7   6 C       44   1 H                                       1.0788566
     8   6 C       45   1 H                                       1.0774114
    10   6 C       46   1 H                                       1.1064172
    12   6 C       47   1 H                                       1.0799740
    13   6 C       48   1 H                                       1.0789126
    14   6 C       49   1 H                                       1.0796894
    18   7 N       50   1 H                                       1.0079102 (min)
    19   6 C       51   1 H                                       1.0898246
    19   6 C       52   1 H                                       1.0886992
    19   6 C       53   1 H                                       1.0897353
    20   6 C       54   1 H                                       1.0778197
    22   6 C       55   1 H                                       1.1047991
    22   6 C       56   1 H                                       1.0899569
    23   6 C       57   1 H                                       1.0901170
    23   6 C       58   1 H                                       1.0919994
    31   6 C       59   1 H                                       1.0876208
    31   6 C       60   1 H                                       1.0904066
    31   6 C       61   1 H                                       1.0856536
    36   6 C       62   1 H                                       1.0884417
    36   6 C       63   1 H                                       1.0930913
    37   6 C       64   1 H                                       1.1043622
    37   6 C       65   1 H                                       1.0899807
    38   6 C       66   1 H                                       1.0807448

 * 6 distinct bonds (by element types)

   Z      Z             #   av. dist./Å        max./Å        min./Å
   1 H    6 C          26     1.0881461     1.1064172     1.0774114
   6 C    6 C          17     1.4114710     1.5293852     1.3817063
   1 H    7 N           2     1.0079645     1.0080187     1.0079102
   6 C    7 N          12     1.4045532     1.4593168     1.3005235
   6 C    8 O           4     1.2546289     1.3238890     1.2300130
   7 N    8 O           3     1.2693012     1.3670738     1.2197111


optimized geometry written to: xtbopt.xyz


           -------------------------------------------------
          | TOTAL ENERGY             -111.856078430257 Eh   |
          | GRADIENT NORM               0.000400180350 Eh/α |
          | HOMO-LUMO GAP               0.815764561792 eV   |
           -------------------------------------------------
########################################################################
[WARNING] Runtime exception occurred
-2- restart_readRestart: Dimension missmatch in restart file.
-1- restart_readRestart: Number of electron missmatch in restart file.
########################################################################

------------------------------------------------------------------------
 * finished run on 2026/08/28 at 18:28:27.682     
------------------------------------------------------------------------
 total:
 * wall-time:     0 d,  0 h,  0 min,  2.678 sec
 *  cpu-time:     0 d,  0 h,  0 min, 18.172 sec
 * ratio c/w:     6.786 speedup
 SCF:
 * wall-time:     0 d,  0 h,  0 min,  0.081 sec
 *  cpu-time:     0 d,  0 h,  0 min,  0.719 sec
 * ratio c/w:     8.824 speedup
 ANC optimizer:
 * wall-time:     0 d,  0 h,  0 min,  2.548 sec
 *  cpu-time:     0 d,  0 h,  0 min, 17.234 sec
 * ratio c/w:     6.763 speedup

