66
 energy: -111.856078430257 gnorm: 0.000400180350 xtb: 6.7.1 (edcfbbe)
C           -5.31734070768076       -5.98073987316442       -0.72659164863519
N           -4.57978651797475       -4.87025867160102       -0.17088604760560
C           -3.47255259425176       -4.36632943079771       -0.73556501906677
O           -2.99509800302971       -4.80929332195179       -1.78189838899929
C           -2.85252696234551       -3.21382751871780       -0.02063718735211
C           -2.88095904270463       -3.08039953083851        1.36400434685818
C           -2.26510285441597       -1.99358904756039        1.96042351413497
C           -1.63108471838832       -1.03512510884267        1.19038632375208
C           -1.58123383793332       -1.16601419606343       -0.19276073532206
C           -0.93265696807870       -0.10405771526352       -1.05431837880107
C           -1.98774620098683        0.96551186955928       -1.24332257248719
C           -2.80031521251892        0.95178986780312       -2.36907286318470
C           -3.81489286266233        1.88326977057132       -2.51242526783596
C           -4.01844145584508        2.84005234486902       -1.53659380691006
C           -3.19704456159950        2.87940791374606       -0.41317084012115
C           -3.46167717601848        3.93467155313818        0.60825229226956
O           -4.59315677031568        4.38639257556374        0.79228453507028
N           -2.38870447469195        4.36103537053108        1.29024506352532
C           -2.44788115998387        5.38935028456946        2.30245318006913
C           -2.19215861970242        1.93046385594622       -0.26612424435355
N            0.27335400143706        0.43272792892374       -0.43222193440209
C            0.86777277928076        1.49521614402321       -1.22855170625303
C            2.02662249650366        2.11717486822683       -0.45224275590949
N            3.00300877015336        1.09085116809598       -0.15200176345380
C            4.22201211211992        1.13744733169033       -0.66916607160255
O            4.66522588875728        2.05237172762542       -1.36155792795545
C            5.15526375983610        0.00858040142287       -0.35121235210624
N            5.23748257115635       -1.09862701962836       -1.02848095513628
O            6.32492359715155       -1.78443711607123       -0.56369406236770
C            6.94174327317178       -1.10238596945501        0.38868274732017
C            8.14161650151894       -1.64818126654762        1.02916544719373
C            6.23281130415903        0.07912936486744        0.58634550182599
N            6.47095669366062        1.10353871408999        1.50663996360145
O            5.60556960389804        1.95326011149748        1.64880066126489
O            7.52272175644422        1.08860154214069        2.12410418607341
C            2.43969594506747       -0.01667420575319        0.58469092886465
C            1.26947398776304       -0.60270221771289       -0.20661838577889
C           -2.18858545000430       -2.26073961194671       -0.78570249212979
H           -5.35437351602859       -6.80435392747476       -0.01382666499700
H           -4.80039633386688       -6.30535528486989       -1.62815204298714
H           -6.33192004739334       -5.67519944956832       -0.98121187678030
H           -4.95772647637459       -4.43066593753705        0.65374791616345
H           -3.34845034254718       -3.83262621583314        1.98019272463237
H           -2.28100628464758       -1.89401237745667        3.03455705349942
H           -1.15157746734282       -0.19126003115901        1.65812525647719
H           -0.69937192036317       -0.54747200241282       -2.04078716588750
H           -2.64542502656963        0.20490196519818       -3.13360615100161
H           -4.44711656585332        1.86134407594552       -3.38641872300819
H           -4.80838957549506        3.57073757839933       -1.62496806150385
H           -1.47986185422131        3.99152800609969        1.05926400585427
H           -2.11405463290591        4.99574882549366        3.26232564259912
H           -3.48322942127822        5.71542568234453        2.38608630041174
H           -1.82289873648870        6.23651215332626        2.02096330337407
H           -1.56658040850288        1.91216197863700        0.61137910615670
H            1.24494295905787        1.11286508070675       -2.19402105012677
H            0.11667303674259        2.25823291934202       -1.43266040364515
H            2.51698793671300        2.89631123656409       -1.03606049766775
H            1.66621141449029        2.53166938360933        0.49155843319228
H            8.16701226318592       -1.36114524074407        2.07791911835121
H            9.02710718365907       -1.21818517068486        0.56012808263335
H            8.16878137469760       -2.72659183685799        0.90695194239188
H            3.19472116167002       -0.78196965464866        0.75488158063309
H            2.07861308352427        0.36084224125382        1.54487256013519
H            1.64932136154215       -1.01215015784854       -1.15934288746676
H            0.82005230717786       -1.41567564650960        0.36360263817976
H           -2.15935336352854       -2.39908308030393       -1.85715742366017
