      -----------------------------------------------------------      
     |                   =====================                   |     
     |                           x T B                           |     
     |                   =====================                   |     
     |                         S. Grimme                         |     
     |          Mulliken Center for Theoretical Chemistry        |     
     |                    University of Bonn                     |     
      -----------------------------------------------------------      

   * xtb version 6.7.1 (edcfbbe) compiled by 'VssAdministrator@runnervm171ch' on 2026-06-10

   xtb is free software: you can redistribute it and/or modify it under
   the terms of the GNU Lesser General Public License as published by
   the Free Software Foundation, either version 3 of the License, or
   (at your option) any later version.
   
   xtb is distributed in the hope that it will be useful,
   but WITHOUT ANY WARRANTY; without even the implied warranty of
   MERCHANTABILITY or FITNESS FOR A PARTICULAR PURPOSE.  See the
   GNU Lesser General Public License for more details.
   
   Cite this work as:
   * C. Bannwarth, E. Caldeweyher, S. Ehlert, A. Hansen, P. Pracht,
     J. Seibert, S. Spicher, S. Grimme, WIREs Comput. Mol. Sci., 2020, 11,
     e01493. DOI: 10.1002/wcms.1493
   
   for GFN2-xTB:
   * C. Bannwarth, S. Ehlert and S. Grimme., J. Chem. Theory Comput., 2019,
     15, 1652-1671. DOI: 10.1021/acs.jctc.8b01176
   for GFN1-xTB:
   * S. Grimme, C. Bannwarth, P. Shushkov, J. Chem. Theory Comput., 2017,
     13, 1989-2009. DOI: 10.1021/acs.jctc.7b00118
   for GFN0-xTB:
   * P. Pracht, E. Caldeweyher, S. Ehlert, S. Grimme, ChemRxiv, 2019, preprint.
     DOI: 10.26434/chemrxiv.8326202.v1
   for GFN-FF:
   * S. Spicher and S. Grimme, Angew. Chem. Int. Ed., 2020, 59, 15665-15673.
     DOI: 10.1002/anie.202004239
   
   for ALPB and GBSA implicit solvation:
   * S. Ehlert, M. Stahn, S. Spicher, S. Grimme, J. Chem. Theory Comput.,
     2021, 17, 4250-4261. DOI: 10.1021/acs.jctc.1c00471
   
   for ddCOSMO and CPCM-X implicit solvation:
   * M. Stahn, S. Ehlert, S. Grimme, J. Phys. Chem. A,
     2023, XX, XXXX-XXXX. DOI: 10.1021/acs.jpca.3c04382
   
   for DFT-D4:
   * E. Caldeweyher, C. Bannwarth and S. Grimme, J. Chem. Phys., 2017,
     147, 034112. DOI: 10.1063/1.4993215
   * E. Caldeweyher, S. Ehlert, A. Hansen, H. Neugebauer, S. Spicher,
     C. Bannwarth and S. Grimme, J. Chem. Phys., 2019, 150, 154122.
     DOI: 10.1063/1.5090222
   * E. Caldeweyher, J.-M. Mewes, S. Ehlert and S. Grimme, Phys. Chem. Chem. Phys.
     2020, 22, 8499-8512. DOI: 10.1039/D0CP00502A
   
   for sTDA-xTB:
   * S. Grimme and C. Bannwarth, J. Chem. Phys., 2016, 145, 054103.
     DOI: 10.1063/1.4959605
   
   in the mass-spec context:
   * V. Asgeirsson, C. Bauer and S. Grimme, Chem. Sci., 2017, 8, 4879.
     DOI: 10.1039/c7sc00601b
   * J. Koopman and S. Grimme, ACS Omega 2019, 4, 12, 15120-15133.
     DOI: 10.1021/acsomega.9b02011
   
   for metadynamics refer to:
   * S. Grimme, J. Chem. Theory Comput., 2019, 155, 2847-2862
     DOI: 10.1021/acs.jctc.9b00143
   
   for SPH calculations refer to:
   * S. Spicher and S. Grimme, J. Chem. Theory Comput., 2021, 17, 1701-1714
     DOI: 10.1021/acs.jctc.0c01306
   
   for ONIOM refer to:
   * C. Plett, A. Katbashev, S. Ehlert, S. Grimme, M. Bursch,
     Phys. Chem. Chem. Phys., 2023, 25, 17860-17868. DOI: 10.1039/D3CP02178E
   
   for DIPRO refer to:
   * J. Kohn, N. Gildemeister, S. Grimme, D. Fazzi, A. Hansen,
     J. Chem. Phys., 2023, just accepted.
   
   for PTB refer to:
   * S. Grimme, M. Mueller, A. Hansen, J. Chem. Phys., 2023, 158, 124111.
     DOI: 10.1063/5.0137838
   
   with help from (in alphabetical order)
   P. Atkinson, C. Bannwarth, F. Bohle, G. Brandenburg, E. Caldeweyher
   M. Checinski, S. Dohm, S. Ehlert, S. Ehrlich, I. Gerasimov, C. Hölzer
   A. Katbashev, J. Kohn, J. Koopman, C. Lavigne, S. Lehtola, F. März, M. Müller,
   F. Musil, H. Neugebauer, J. Pisarek, C. Plett, P. Pracht, F. Pultar,
   J. Seibert, P. Shushkov, S. Spicher, M. Stahn, M. Steiner, T. Strunk,
   J. Stückrath, T. Rose, and J. Unsleber
   
 * started run on 2026/08/28 at 18:28:27.762     
   ID    Z sym.   atoms
    1    6 C      1, 3, 5-14, 17, 18, 20, 22, 23, 25, 27, 30-32, 36-39
    2    7 N      2, 16, 21, 24, 28, 33
    3    8 O      4, 15, 26, 29, 34, 35
    4    9 F      19, 40
    5    1 H      41-66

           -------------------------------------------------
          |                Calculation Setup                |
           -------------------------------------------------

          program call               : C:\Users\Christian\Miniconda3\Library\bin\xtb.exe S05.xyz --gfn 2 --opt --alpb water
          coordinate file            : S05.xyz
          omp threads                :                    12


           -------------------------------------------------
          |                 G F N 2 - x T B                 |
           -------------------------------------------------

        Reference                      10.1021/acs.jctc.8b01176
      * Hamiltonian:
        H0-scaling (s, p, d)           1.850000    2.230000    2.230000
        zeta-weighting                 0.500000
      * Dispersion:
        s8                             2.700000
        a1                             0.520000
        a2                             5.000000
        s9                             5.000000
      * Repulsion:
        kExp                           1.500000    1.000000
        rExp                           1.000000
      * Coulomb:
        alpha                          2.000000
        third order                    shell-resolved
        anisotropic                    true
        a3                             3.000000
        a5                             4.000000
        cn-shift                       1.200000
        cn-exp                         4.000000
        max-rad                        5.000000

      * Solvation model:               ALPB
        Solvent                        water
        Parameter file                 internal GFN2-xTB/ALPB
        Dielectric constant                8.0200E+01
        Reference state                gsolv [1 M gas/solution]
        Free energy shift                  1.0808E-03 Eh       6.7819E-01 kcal/mol
        Temperature                        2.9815E+02 K
        Density                            1.0000E+00 kg/L
        Solvent mass                       1.8000E+01 g/mol
        Interaction kernel             P16
        Born radius scaling (c1)           1.4744E+00
        Born radii integrator          GBOBC
        Born offset                        0.0000E+00 a0       0.0000E+00 AA
        H-bond correction              true
        Ion screening                  false
        Surface tension                    1.0000E-05 Eh       1.5569E+01 dyn/cm
        Grid points                               230 per atom

          ...................................................
          :                      SETUP                      :
          :.................................................:
          :  # basis functions                 186          :
          :  # atomic orbitals                 186          :
          :  # shells                          106          :
          :  # electrons                       210          :
          :  max. iterations                   250          :
          :  Hamiltonian                  GFN2-xTB          :
          :  restarted?                      false          :
          :  GBSA solvation                   true          :
          :  PC potential                    false          :
          :  electronic temp.          300.0000000     K    :
          :  accuracy                    1.0000000          :
          :  -> integral cutoff          0.2500000E+02      :
          :  -> integral neglect         0.1000000E-07      :
          :  -> SCF convergence          0.1000000E-05 Eh   :
          :  -> wf. convergence          0.1000000E-03 e    :
          :  Broyden damping             0.4000000          :
          :  net charge                          0          :
          :  unpaired electrons                  0          :
          ...................................................

 iter      E             dE          RMSdq      gap      omega  full diag
   1   -121.2741189 -0.121274E+03  0.473E+00    1.88       0.0  T
   2   -121.5629067 -0.288788E+00  0.261E+00    1.23       1.0  T
   3   -121.5778438 -0.149371E-01  0.131E+00    0.83       1.0  T
   4   -121.5904045 -0.125607E-01  0.556E-01    0.64       1.0  T
   5   -121.5980057 -0.760121E-02  0.125E-01    0.53       1.0  T
   6   -121.5983572 -0.351543E-03  0.615E-02    0.53       1.0  T
   7   -121.5984154 -0.581534E-04  0.272E-02    0.55       1.0  T
   8   -121.5984216 -0.622726E-05  0.918E-03    0.56       1.3  T
   9   -121.5984229 -0.132618E-05  0.466E-03    0.56       2.6  T
  10   -121.5984232 -0.298397E-06  0.204E-03    0.56       6.0  T
  11   -121.5984233 -0.587272E-07  0.945E-04    0.56      13.0  T
  12   -121.5984233 -0.126630E-07  0.385E-04    0.56      32.0  T

   *** convergence criteria satisfied after 12 iterations ***

         #    Occupation            Energy/Eh            Energy/eV
      -------------------------------------------------------------
         1        2.0000           -0.8474228             -23.0595
       ...           ...                  ...                  ...
        99        2.0000           -0.4166852             -11.3386
       100        2.0000           -0.4062235             -11.0539
       101        2.0000           -0.4054750             -11.0335
       102        2.0000           -0.4045333             -11.0079
       103        2.0000           -0.3987088             -10.8494
       104        2.0000           -0.3983651             -10.8401
       105        2.0000           -0.3678222             -10.0090 (HOMO)
       106        0.0000           -0.3470766              -9.4444 (LUMO)
       107                         -0.3076212              -8.3708
       108                         -0.2801474              -7.6232
       109                         -0.2706252              -7.3641
       110                         -0.2554376              -6.9508
       ...                                ...                  ...
       186                          0.6431077              17.4999
      -------------------------------------------------------------
                  HL-Gap            0.0207456 Eh            0.5645 eV
             Fermi-level           -0.3574494 Eh           -9.7267 eV

 SCC (total)                   0 d,  0 h,  0 min,  0.086 sec
 SCC setup                      ...        0 min,  0.002 sec (  1.812%)
 Dispersion                     ...        0 min,  0.003 sec (  3.448%)
 classical contributions        ...        0 min,  0.000 sec (  0.489%)
 integral evaluation            ...        0 min,  0.006 sec (  7.311%)
 iterations                     ...        0 min,  0.059 sec ( 68.370%)
 molecular gradient             ...        0 min,  0.015 sec ( 17.898%)
 printout                       ...        0 min,  0.001 sec (  0.636%)

         :::::::::::::::::::::::::::::::::::::::::::::::::::::
         ::                     SUMMARY                     ::
         :::::::::::::::::::::::::::::::::::::::::::::::::::::
         :: total energy            -120.275210500425 Eh    ::
         :: total w/o Gsasa/hb      -120.271441109497 Eh    ::
         :: gradient norm              0.138964391862 Eh/a0 ::
         :: HOMO-LUMO gap              0.564516634348 eV    ::
         ::.................................................::
         :: SCC energy              -121.598299989865 Eh    ::
         :: -> isotropic ES            0.254890860327 Eh    ::
         :: -> anisotropic ES          0.006200620432 Eh    ::
         :: -> anisotropic XC          0.035150922696 Eh    ::
         :: -> dispersion             -0.074414481204 Eh    ::
         :: -> Gsolv                  -0.051877878555 Eh    ::
         ::    -> Gelec               -0.048108487628 Eh    ::
         ::    -> Gsasa                0.005533021043 Eh    ::
         ::    -> Ghb                 -0.010383171668 Eh    ::
         ::    -> Gshift               0.001080759698 Eh    ::
         :: repulsion energy           1.323089489441 Eh    ::
         :: add. restraining           0.000000000000 Eh    ::
         :: total charge               0.000000000000 e     ::
         :::::::::::::::::::::::::::::::::::::::::::::::::::::

      ----------------------------------------------------------- 
     |                   =====================                   |
     |                        A N C O P T                        |
     |                   =====================                   |
     |               Approximate Normal Coordinate               |
     |                Rational Function Optimizer                |
      ----------------------------------------------------------- 
      ----------------------------------------------------------- 
     |                   =====================                   |
     |                        A N C O P T                        |
     |                   =====================                   |
     |               Approximate Normal Coordinate               |
     |                Rational Function Optimizer                |
      ----------------------------------------------------------- 

          ...................................................
          :                      SETUP                      :
          :.................................................:
          :   optimization level            normal          :
          :   max. optcycles                   200          :
          :   ANC micro-cycles                  20          :
          :   degrees of freedom               192          :
          :.................................................:
          :   RF solver                   davidson          :
          :   write xtbopt.log                true          :
          :   linear?                        false          :
          :   energy convergence         0.5000000E-05 Eh   :
          :   grad. convergence          0.1000000E-02 Eh/α :
          :   maxmium RF displ.          1.0000000          :
          :   Hlow (freq-cutoff)         0.1000000E-01      :
          :   Hmax (freq-cutoff)         5.0000000          :
          :   S6 in model hess.         20.0000000          :
          ...................................................

generating ANC from exact Hessian ...
Using Lindh-Hessian (1995)
 Shifting diagonal of input Hessian by    9.9140698895186299E-003
 Lowest  eigenvalues of input Hessian
    0.000000    0.000000    0.000000    0.000000    0.000000    0.000000
    0.010000    0.010025    0.010040    0.010278    0.010535    0.010798
    0.010840    0.011031    0.011175    0.011371    0.011697    0.013370
 Highest eigenvalues
    2.041861    2.176937    2.250155    2.277772    2.277902    2.523229


........................................................................
.............................. CYCLE    1 ..............................
........................................................................

 iter      E             dE          RMSdq      gap      omega  full diag
   1   -121.5984233 -0.121598E+03  0.163E-04    0.56       0.0  T
   2   -121.5984233 -0.353353E-09  0.105E-04    0.56     116.9  T
   3   -121.5984233 -0.132360E-09  0.717E-05    0.56     171.6  T
     SCC iter.                  ...        0 min,  0.014 sec
     gradient                   ...        0 min,  0.016 sec
 * total energy  :  -120.2752105 Eh     change       -0.2077144E-08 Eh
   gradient norm :     0.1389599 Eh/α   predicted     0.0000000E+00 (-100.00%)
   displ. norm   :     0.3860852 α      lambda       -0.2716192E-01
   maximum displ.:     0.1107648 α      in ANC's #60, #19, #42, ...

........................................................................
.............................. CYCLE    2 ..............................
........................................................................

 iter      E             dE          RMSdq      gap      omega  full diag
   1   -121.6653355 -0.121665E+03  0.221E-01    0.80       0.0  T
   2   -121.6659275 -0.592018E-03  0.132E-01    0.85       1.0  T
   3   -121.6659609 -0.333733E-04  0.637E-02    0.85       1.0  T
   4   -121.6659779 -0.170092E-04  0.182E-02    0.86       1.0  T
   5   -121.6659916 -0.137604E-04  0.565E-03    0.86       2.2  T
   6   -121.6659920 -0.416233E-06  0.270E-03    0.86       4.6  T
   7   -121.6659921 -0.647287E-07  0.113E-03    0.86      10.9  T
   8   -121.6659921 -0.169743E-07  0.507E-04    0.86      24.3  T
   9   -121.6659921 -0.498450E-08  0.243E-04    0.86      50.8  T
     SCC iter.                  ...        0 min,  0.040 sec
     gradient                   ...        0 min,  0.019 sec
 * total energy  :  -120.2945354 Eh     change       -0.1932489E-01 Eh
   gradient norm :     0.0630073 Eh/α   predicted    -0.1562919E-01 ( -19.12%)
   displ. norm   :     0.4253689 α      lambda       -0.1085023E-01
   maximum displ.:     0.1552073 α      in ANC's #19, #17, #18, ...

........................................................................
.............................. CYCLE    3 ..............................
........................................................................

 iter      E             dE          RMSdq      gap      omega  full diag
   1   -121.7050792 -0.121705E+03  0.170E-01    0.93       0.0  T
   2   -121.7055756 -0.496431E-03  0.100E-01    0.99       1.0  T
   3   -121.7056152 -0.395783E-04  0.525E-02    0.99       1.0  T
   4   -121.7056179 -0.268446E-05  0.164E-02    1.00       1.0  T
   5   -121.7056291 -0.112488E-04  0.441E-03    0.99       2.8  T
   6   -121.7056294 -0.225573E-06  0.201E-03    0.99       6.1  T
   7   -121.7056294 -0.383446E-07  0.898E-04    0.99      13.7  T
   8   -121.7056294 -0.975925E-08  0.394E-04    0.99      31.2  T
     SCC iter.                  ...        0 min,  0.035 sec
     gradient                   ...        0 min,  0.016 sec
 * total energy  :  -120.3009821 Eh     change       -0.6446697E-02 Eh
   gradient norm :     0.0214197 Eh/α   predicted    -0.6406727E-02 (  -0.62%)
   displ. norm   :     0.4305431 α      lambda       -0.4188730E-02
   maximum displ.:     0.1746652 α      in ANC's #19, #17, #18, ...

........................................................................
.............................. CYCLE    4 ..............................
........................................................................

 iter      E             dE          RMSdq      gap      omega  full diag
   1   -121.7131659 -0.121713E+03  0.111E-01    0.92       0.0  T
   2   -121.7132637 -0.978000E-04  0.636E-02    0.96       1.0  T
   3   -121.7132664 -0.271379E-05  0.277E-02    0.97       1.0  T
   4   -121.7132723 -0.592120E-05  0.744E-03    0.98       1.7  T
   5   -121.7132747 -0.241094E-05  0.283E-03    0.98       4.4  T
   6   -121.7132748 -0.876159E-07  0.120E-03    0.98      10.2  T
   7   -121.7132748 -0.131899E-07  0.541E-04    0.98      22.8  T
   8   -121.7132748 -0.569925E-08  0.220E-04    0.98      56.0  T
     SCC iter.                  ...        0 min,  0.040 sec
     gradient                   ...        0 min,  0.016 sec
 * total energy  :  -120.3034520 Eh     change       -0.2469930E-02 Eh
   gradient norm :     0.0251746 Eh/α   predicted    -0.2482709E-02 (   0.52%)
   displ. norm   :     0.4692670 α      lambda       -0.3230370E-02
   maximum displ.:     0.1797148 α      in ANC's #17, #19, #18, ...

........................................................................
.............................. CYCLE    5 ..............................
........................................................................

 iter      E             dE          RMSdq      gap      omega  full diag
   1   -121.7125661 -0.121713E+03  0.915E-02    0.92       0.0  T
   2   -121.7126001 -0.340232E-04  0.525E-02    0.94       1.0  T
   3   -121.7126000  0.289298E-07  0.172E-02    0.95       1.0  T
   4   -121.7126049 -0.483609E-05  0.506E-03    0.95       2.4  T
   5   -121.7126057 -0.804376E-06  0.253E-03    0.95       4.9  T
   6   -121.7126057 -0.512367E-07  0.969E-04    0.95      12.7  T
   7   -121.7126058 -0.143567E-07  0.380E-04    0.95      32.4  T
     SCC iter.                  ...        0 min,  0.029 sec
     gradient                   ...        0 min,  0.016 sec
 * total energy  :  -120.3058400 Eh     change       -0.2387942E-02 Eh
   gradient norm :     0.0189245 Eh/α   predicted    -0.1970875E-02 ( -17.47%)
   displ. norm   :     0.4988913 α      lambda       -0.2240987E-02
   maximum displ.:     0.1962879 α      in ANC's #21, #17, #19, ...

........................................................................
.............................. CYCLE    6 ..............................
........................................................................

 iter      E             dE          RMSdq      gap      omega  full diag
   1   -121.7130423 -0.121713E+03  0.976E-02    0.88       0.0  T
   2   -121.7130677 -0.254210E-04  0.573E-02    0.89       1.0  T
   3   -121.7130647  0.300694E-05  0.174E-02    0.90       1.0  T
   4   -121.7130735 -0.878526E-05  0.459E-03    0.90       2.7  T
   5   -121.7130738 -0.333374E-06  0.251E-03    0.90       4.9  T
   6   -121.7130738 -0.351358E-07  0.802E-04    0.90      15.3  T
   7   -121.7130738 -0.110477E-07  0.284E-04    0.90      43.4  T
     SCC iter.                  ...        0 min,  0.034 sec
     gradient                   ...        0 min,  0.017 sec
 * total energy  :  -120.3075105 Eh     change       -0.1670506E-02 Eh
   gradient norm :     0.0186037 Eh/α   predicted    -0.1399381E-02 ( -16.23%)
   displ. norm   :     0.4817006 α      lambda       -0.1673063E-02
   maximum displ.:     0.2114328 α      in ANC's #21, #12, #17, ...

........................................................................
.............................. CYCLE    7 ..............................
........................................................................

 iter      E             dE          RMSdq      gap      omega  full diag
   1   -121.7164580 -0.121716E+03  0.931E-02    0.91       0.0  T
   2   -121.7164761 -0.181238E-04  0.545E-02    0.90       1.0  T
   3   -121.7164708  0.532700E-05  0.171E-02    0.91       1.0  T
   4   -121.7164805 -0.978021E-05  0.393E-03    0.91       3.1  T
   5   -121.7164808 -0.281261E-06  0.195E-03    0.91       6.3  T
   6   -121.7164808 -0.180784E-07  0.787E-04    0.91      15.6  T
   7   -121.7164808 -0.583243E-08  0.266E-04    0.91      46.2  T
     SCC iter.                  ...        0 min,  0.030 sec
     gradient                   ...        0 min,  0.015 sec
 * total energy  :  -120.3088047 Eh     change       -0.1294246E-02 Eh
   gradient norm :     0.0160031 Eh/α   predicted    -0.1030643E-02 ( -20.37%)
   displ. norm   :     0.4945745 α      lambda       -0.1449614E-02
   maximum displ.:     0.2182070 α      in ANC's #21, #12, #22, ...

........................................................................
.............................. CYCLE    8 ..............................
........................................................................

 iter      E             dE          RMSdq      gap      omega  full diag
   1   -121.7217738 -0.121722E+03  0.956E-02    0.90       0.0  T
   2   -121.7217909 -0.171525E-04  0.563E-02    0.89       1.0  T
   3   -121.7217841  0.683089E-05  0.178E-02    0.90       1.0  T
   4   -121.7217963 -0.122558E-04  0.403E-03    0.90       3.1  T
   5   -121.7217965 -0.189707E-06  0.213E-03    0.90       5.8  T
   6   -121.7217966 -0.229020E-07  0.660E-04    0.90      18.6  T
   7   -121.7217966 -0.645144E-08  0.279E-04    0.90      44.2  T
     SCC iter.                  ...        0 min,  0.037 sec
     gradient                   ...        0 min,  0.015 sec
 * total energy  :  -120.3099265 Eh     change       -0.1121809E-02 Eh
   gradient norm :     0.0127831 Eh/α   predicted    -0.9020981E-03 ( -19.59%)
   displ. norm   :     0.5041804 α      lambda       -0.1185014E-02
   maximum displ.:     0.2270644 α      in ANC's #12, #21, #8, ...

........................................................................
.............................. CYCLE    9 ..............................
........................................................................

 iter      E             dE          RMSdq      gap      omega  full diag
   1   -121.7252795 -0.121725E+03  0.100E-01    0.92       0.0  T
   2   -121.7253026 -0.230179E-04  0.582E-02    0.92       1.0  T
   3   -121.7253003  0.231130E-05  0.164E-02    0.92       1.0  T
   4   -121.7253065 -0.628794E-05  0.432E-03    0.92       2.8  T
   5   -121.7253070 -0.489969E-06  0.211E-03    0.92       5.8  T
   6   -121.7253071 -0.267614E-07  0.772E-04    0.92      15.9  T
   7   -121.7253071 -0.464054E-08  0.286E-04    0.92      43.0  T
     SCC iter.                  ...        0 min,  0.032 sec
     gradient                   ...        0 min,  0.016 sec
 * total energy  :  -120.3108027 Eh     change       -0.8761919E-03 Eh
   gradient norm :     0.0117658 Eh/α   predicted    -0.7431380E-03 ( -15.19%)
   displ. norm   :     0.5177663 α      lambda       -0.1052765E-02
   maximum displ.:     0.2511835 α      in ANC's #12, #21, #8, ...

........................................................................
.............................. CYCLE   10 ..............................
........................................................................

 iter      E             dE          RMSdq      gap      omega  full diag
   1   -121.7279031 -0.121728E+03  0.101E-01    0.86       0.0  T
   2   -121.7279474 -0.443451E-04  0.592E-02    0.86       1.0  T
   3   -121.7279474  0.164468E-07  0.206E-02    0.87       1.0  T
   4   -121.7279549 -0.747555E-05  0.466E-03    0.87       2.6  T
   5   -121.7279552 -0.296419E-06  0.248E-03    0.87       5.0  T
   6   -121.7279552 -0.620104E-07  0.102E-03    0.87      12.1  T
   7   -121.7279552 -0.159291E-07  0.368E-04    0.87      33.5  T
   8   -121.7279552 -0.192428E-08  0.131E-04    0.87      94.2  T
     SCC iter.                  ...        0 min,  0.045 sec
     gradient                   ...        0 min,  0.017 sec
 * total energy  :  -120.3114145 Eh     change       -0.6117941E-03 Eh
   gradient norm :     0.0157088 Eh/α   predicted    -0.6675001E-03 (   9.11%)
   displ. norm   :     0.4583342 α      lambda       -0.8245314E-03
   maximum displ.:     0.2352974 α      in ANC's #12, #8, #31, ...

........................................................................
.............................. CYCLE   11 ..............................
........................................................................

 iter      E             dE          RMSdq      gap      omega  full diag
   1   -121.7241323 -0.121724E+03  0.933E-02    0.88       0.0  T
   2   -121.7241660 -0.337009E-04  0.546E-02    0.88       1.0  T
   3   -121.7241651  0.897034E-06  0.188E-02    0.88       1.0  T
   4   -121.7241711 -0.597519E-05  0.355E-03    0.88       3.5  T
   5   -121.7241714 -0.277662E-06  0.197E-03    0.88       6.2  T
   6   -121.7241714 -0.405464E-07  0.830E-04    0.88      14.8  T
   7   -121.7241714 -0.102041E-07  0.340E-04    0.88      36.2  T
     SCC iter.                  ...        0 min,  0.030 sec
     gradient                   ...        0 min,  0.016 sec
 * total energy  :  -120.3119283 Eh     change       -0.5137621E-03 Eh
   gradient norm :     0.0124146 Eh/α   predicted    -0.4988784E-03 (  -2.90%)
   displ. norm   :     0.3221233 α      lambda       -0.6684645E-03
   maximum displ.:     0.1552226 α      in ANC's #12, #8, #14, ...

........................................................................
.............................. CYCLE   12 ..............................
........................................................................

 iter      E             dE          RMSdq      gap      omega  full diag
   1   -121.7312390 -0.121731E+03  0.702E-02    1.00       0.0  T
   2   -121.7312959 -0.568923E-04  0.399E-02    0.99       1.0  T
   3   -121.7312983 -0.242326E-05  0.184E-02    0.97       1.0  T
   4   -121.7313003 -0.195237E-05  0.602E-03    0.97       2.0  T
   5   -121.7313012 -0.865522E-06  0.206E-03    0.97       6.0  T
   6   -121.7313012 -0.597216E-07  0.116E-03    0.97      10.6  T
   7   -121.7313012 -0.100968E-07  0.409E-04    0.97      30.1  T
   8   -121.7313012 -0.252271E-08  0.163E-04    0.97      75.4  T
     SCC iter.                  ...        0 min,  0.045 sec
     gradient                   ...        0 min,  0.016 sec
 * total energy  :  -120.3120269 Eh     change       -0.9860390E-04 Eh
   gradient norm :     0.0231421 Eh/α   predicted    -0.3689163E-03 ( 274.14%)
   displ. norm   :     0.3029842 α      lambda       -0.8331971E-03
   maximum displ.:     0.1453769 α      in ANC's #12, #28, #8, ...

........................................................................
.............................. CYCLE   13 ..............................
........................................................................

 iter      E             dE          RMSdq      gap      omega  full diag
   1   -121.7259068 -0.121726E+03  0.681E-02    0.83       0.0  T
   2   -121.7259505 -0.437035E-04  0.383E-02    0.85       1.0  T
   3   -121.7259533 -0.281506E-05  0.155E-02    0.86       1.0  T
   4   -121.7259545 -0.124574E-05  0.542E-03    0.87       2.3  T
   5   -121.7259554 -0.821033E-06  0.221E-03    0.87       5.6  T
   6   -121.7259554 -0.341952E-07  0.115E-03    0.87      10.7  T
   7   -121.7259554 -0.193543E-07  0.282E-04    0.87      43.7  T
   8   -121.7259554 -0.749097E-09  0.122E-04    0.87     100.7  T
     SCC iter.                  ...        0 min,  0.033 sec
     gradient                   ...        0 min,  0.017 sec
 * total energy  :  -120.3124835 Eh     change       -0.4566798E-03 Eh
   gradient norm :     0.0089465 Eh/α   predicted    -0.4548429E-03 (  -0.40%)
   displ. norm   :     0.1640731 α      lambda       -0.2208777E-03
   maximum displ.:     0.0774998 α      in ANC's #12, #8, #31, ...

........................................................................
.............................. CYCLE   14 ..............................
........................................................................

 iter      E             dE          RMSdq      gap      omega  full diag
   1   -121.7255452 -0.121726E+03  0.382E-02    0.87       0.0  T
   2   -121.7255706 -0.253501E-04  0.202E-02    0.87       1.0  T
   3   -121.7255717 -0.108882E-05  0.107E-02    0.87       1.2  T
   4   -121.7255718 -0.165056E-06  0.164E-03    0.87       7.5  T
   5   -121.7255719 -0.601396E-07  0.930E-04    0.87      13.2  T
   6   -121.7255719 -0.687855E-08  0.377E-04    0.87      32.7  T
     SCC iter.                  ...        0 min,  0.036 sec
     gradient                   ...        0 min,  0.017 sec
 * total energy  :  -120.3126095 Eh     change       -0.1259515E-03 Eh
   gradient norm :     0.0072356 Eh/α   predicted    -0.1134143E-03 (  -9.95%)
   displ. norm   :     0.2074841 α      lambda       -0.2256331E-03
   maximum displ.:     0.0983333 α      in ANC's #5, #8, #12, ...

........................................................................
.............................. CYCLE   15 ..............................
........................................................................

 iter      E             dE          RMSdq      gap      omega  full diag
   1   -121.7286394 -0.121729E+03  0.359E-02    0.87       0.0  T
   2   -121.7286424 -0.302183E-05  0.212E-02    0.87       1.0  T
   3   -121.7286419  0.477463E-06  0.560E-03    0.87       2.2  T
   4   -121.7286429 -0.960817E-06  0.136E-03    0.87       9.0  T
   5   -121.7286430 -0.474983E-07  0.657E-04    0.87      18.7  T
   6   -121.7286430 -0.138519E-08  0.178E-04    0.87      69.2  T
     SCC iter.                  ...        0 min,  0.026 sec
     gradient                   ...        0 min,  0.016 sec
 * total energy  :  -120.3127721 Eh     change       -0.1625601E-03 Eh
   gradient norm :     0.0054271 Eh/α   predicted    -0.1176740E-03 ( -27.61%)
   displ. norm   :     0.3266643 α      lambda       -0.2201587E-03
   maximum displ.:     0.1423076 α      in ANC's #5, #31, #12, ...

........................................................................
.............................. CYCLE   16 ..............................
........................................................................

 iter      E             dE          RMSdq      gap      omega  full diag
   1   -121.7280205 -0.121728E+03  0.567E-02    0.89       0.0  T
   2   -121.7280322 -0.117381E-04  0.328E-02    0.88       1.0  T
   3   -121.7280322  0.974870E-08  0.103E-02    0.88       1.2  T
   4   -121.7280333 -0.107654E-05  0.245E-03    0.88       5.0  T
   5   -121.7280335 -0.196969E-06  0.114E-03    0.88      10.8  T
   6   -121.7280335 -0.612872E-08  0.314E-04    0.88      39.2  T
   7   -121.7280335 -0.603507E-09  0.129E-04    0.88      95.7  T
     SCC iter.                  ...        0 min,  0.038 sec
     gradient                   ...        0 min,  0.016 sec
 * total energy  :  -120.3128944 Eh     change       -0.1222976E-03 Eh
   gradient norm :     0.0076345 Eh/α   predicted    -0.1218270E-03 (  -0.38%)
   displ. norm   :     0.2392033 α      lambda       -0.2149711E-03
   maximum displ.:     0.1507554 α      in ANC's #5, #31, #9, ...

........................................................................
.............................. CYCLE   17 ..............................
........................................................................

 iter      E             dE          RMSdq      gap      omega  full diag
   1   -121.7325846 -0.121733E+03  0.424E-02    0.89       0.0  T
   2   -121.7325945 -0.989410E-05  0.242E-02    0.89       1.0  T
   3   -121.7325946 -0.157091E-06  0.886E-03    0.89       1.4  T
   4   -121.7325951 -0.436065E-06  0.166E-03    0.89       7.4  T
   5   -121.7325952 -0.101056E-06  0.696E-04    0.89      17.7  T
   6   -121.7325952 -0.236373E-08  0.244E-04    0.89      50.4  T
     SCC iter.                  ...        0 min,  0.026 sec
     gradient                   ...        0 min,  0.016 sec
 * total energy  :  -120.3130195 Eh     change       -0.1251727E-03 Eh
   gradient norm :     0.0065659 Eh/α   predicted    -0.1136398E-03 (  -9.21%)
   displ. norm   :     0.2466741 α      lambda       -0.1803812E-03
   maximum displ.:     0.1385844 α      in ANC's #5, #31, #26, ...

........................................................................
.............................. CYCLE   18 ..............................
........................................................................

 iter      E             dE          RMSdq      gap      omega  full diag
   1   -121.7309034 -0.121731E+03  0.413E-02    0.88       0.0  T
   2   -121.7309054 -0.203163E-05  0.242E-02    0.88       1.0  T
   3   -121.7309051  0.293992E-06  0.437E-03    0.88       2.8  T
   4   -121.7309058 -0.714200E-06  0.144E-03    0.88       8.5  T
   5   -121.7309059 -0.503661E-07  0.714E-04    0.88      17.2  T
   6   -121.7309059 -0.290650E-08  0.242E-04    0.88      50.8  T
     SCC iter.                  ...        0 min,  0.034 sec
     gradient                   ...        0 min,  0.017 sec
 * total energy  :  -120.3131688 Eh     change       -0.1492334E-03 Eh
   gradient norm :     0.0064035 Eh/α   predicted    -0.9568449E-04 ( -35.88%)
   displ. norm   :     0.4943646 α      lambda       -0.4451569E-03
   maximum displ.:     0.2980663 α      in ANC's #5, #31, #9, ...

........................................................................
.............................. CYCLE   19 ..............................
........................................................................

 iter      E             dE          RMSdq      gap      omega  full diag
   1   -121.7297217 -0.121730E+03  0.851E-02    0.88       0.0  T
   2   -121.7297335 -0.117193E-04  0.498E-02    0.88       1.0  T
   3   -121.7297324  0.101435E-05  0.988E-03    0.88       1.2  T
   4   -121.7297351 -0.265960E-05  0.258E-03    0.88       4.8  T
   5   -121.7297353 -0.183380E-06  0.134E-03    0.88       9.2  T
   6   -121.7297353 -0.105992E-07  0.432E-04    0.88      28.5  T
   7   -121.7297353 -0.372624E-08  0.176E-04    0.88      69.9  T
     SCC iter.                  ...        0 min,  0.032 sec
     gradient                   ...        0 min,  0.016 sec
 * total energy  :  -120.3134469 Eh     change       -0.2781520E-03 Eh
   gradient norm :     0.0082627 Eh/α   predicted    -0.2769867E-03 (  -0.42%)
   displ. norm   :     0.3804876 α      lambda       -0.2412123E-03
   maximum displ.:     0.2096959 α      in ANC's #5, #31, #7, ...

........................................................................
.............................. CYCLE   20 ..............................
........................................................................

 iter      E             dE          RMSdq      gap      omega  full diag
   1   -121.7270372 -0.121727E+03  0.642E-02    0.89       0.0  T
   2   -121.7270445 -0.733250E-05  0.374E-02    0.89       1.0  T
   3   -121.7270443  0.254391E-06  0.747E-03    0.89       1.6  T
   4   -121.7270454 -0.111492E-05  0.198E-03    0.89       6.2  T
   5   -121.7270455 -0.102501E-06  0.102E-03    0.89      12.0  T
   6   -121.7270455 -0.970003E-08  0.396E-04    0.89      31.1  T
   7   -121.7270455 -0.286084E-08  0.170E-04    0.89      72.3  T
     SCC iter.                  ...        0 min,  0.038 sec
     gradient                   ...        0 min,  0.016 sec
 * total energy  :  -120.3135880 Eh     change       -0.1411025E-03 Eh
   gradient norm :     0.0088722 Eh/α   predicted    -0.1380732E-03 (  -2.15%)
   displ. norm   :     0.2640262 α      lambda       -0.1903674E-03
   maximum displ.:     0.1337976 α      in ANC's #5, #7, #9, ...
 * RMSD in coord.:     0.6478582 α      energy gain  -0.3837752E-01 Eh

generating ANC from exact Hessian ...
Using Lindh-Hessian (1995)
 Shifting diagonal of input Hessian by    9.9013597007187749E-003
 Lowest  eigenvalues of input Hessian
    0.000000    0.000000    0.000000    0.000000    0.000000    0.000000
    0.010000    0.010022    0.010038    0.010282    0.010478    0.010849
    0.010991    0.011172    0.011242    0.011541    0.011861    0.013081
 Highest eigenvalues
    2.107257    2.308723    2.325779    2.327765    2.349589    2.640354


........................................................................
.............................. CYCLE   21 ..............................
........................................................................

 iter      E             dE          RMSdq      gap      omega  full diag
   1   -121.7292354 -0.121729E+03  0.429E-02    0.89       0.0  T
   2   -121.7292376 -0.225887E-05  0.251E-02    0.89       1.0  T
   3   -121.7292371  0.538776E-06  0.501E-03    0.89       2.5  T
   4   -121.7292381 -0.101750E-05  0.139E-03    0.89       8.9  T
   5   -121.7292382 -0.335987E-07  0.711E-04    0.89      17.3  T
   6   -121.7292382 -0.605824E-08  0.259E-04    0.89      47.6  T
     SCC iter.                  ...        0 min,  0.033 sec
     gradient                   ...        0 min,  0.017 sec
 * total energy  :  -120.3137283 Eh     change       -0.1403278E-03 Eh
   gradient norm :     0.0059038 Eh/α   predicted     0.0000000E+00 (-100.00%)
   displ. norm   :     0.0485369 α      lambda       -0.8736482E-04
   maximum displ.:     0.0169952 α      in ANC's #22, #8, #28, ...

........................................................................
.............................. CYCLE   22 ..............................
........................................................................

 iter      E             dE          RMSdq      gap      omega  full diag
   1   -121.7308207 -0.121731E+03  0.139E-02    0.89       0.0  T
   2   -121.7308211 -0.436824E-06  0.823E-03    0.89       1.5  T
   3   -121.7308209  0.163785E-06  0.267E-03    0.89       4.6  T
   4   -121.7308212 -0.269542E-06  0.584E-04    0.89      21.1  T
   5   -121.7308212 -0.705231E-08  0.290E-04    0.89      42.4  T
     SCC iter.                  ...        0 min,  0.022 sec
     gradient                   ...        0 min,  0.014 sec
 * total energy  :  -120.3137995 Eh     change       -0.7113293E-04 Eh
   gradient norm :     0.0029995 Eh/α   predicted    -0.4713491E-04 ( -33.74%)
   displ. norm   :     0.1013672 α      lambda       -0.1002239E-03
   maximum displ.:     0.0403550 α      in ANC's #8, #22, #28, ...

........................................................................
.............................. CYCLE   23 ..............................
........................................................................

 iter      E             dE          RMSdq      gap      omega  full diag
   1   -121.7322265 -0.121732E+03  0.254E-02    0.89       0.0  T
   2   -121.7322274 -0.887894E-06  0.150E-02    0.89       1.0  T
   3   -121.7322269  0.531316E-06  0.426E-03    0.89       2.9  T
   4   -121.7322277 -0.824071E-06  0.930E-04    0.89      13.2  T
   5   -121.7322277 -0.107166E-07  0.506E-04    0.89      24.3  T
     SCC iter.                  ...        0 min,  0.024 sec
     gradient                   ...        0 min,  0.017 sec
 * total energy  :  -120.3138531 Eh     change       -0.5361584E-04 Eh
   gradient norm :     0.0026423 Eh/α   predicted    -0.5062767E-04 (  -5.57%)
   displ. norm   :     0.0744020 α      lambda       -0.4481516E-04
   maximum displ.:     0.0326870 α      in ANC's #8, #15, #6, ...

........................................................................
.............................. CYCLE   24 ..............................
........................................................................

 iter      E             dE          RMSdq      gap      omega  full diag
   1   -121.7320522 -0.121732E+03  0.182E-02    0.89       0.0  T
   2   -121.7320525 -0.281554E-06  0.106E-02    0.89       1.2  T
   3   -121.7320525  0.253688E-07  0.184E-03    0.89       6.7  T
   4   -121.7320526 -0.125626E-06  0.679E-04    0.89      18.1  T
   5   -121.7320526 -0.454409E-08  0.361E-04    0.89      34.1  T
     SCC iter.                  ...        0 min,  0.025 sec
     gradient                   ...        0 min,  0.016 sec
 * total energy  :  -120.3138767 Eh     change       -0.2356733E-04 Eh
   gradient norm :     0.0030901 Eh/α   predicted    -0.2253251E-04 (  -4.39%)
   displ. norm   :     0.0741030 α      lambda       -0.3514218E-04
   maximum displ.:     0.0344034 α      in ANC's #8, #15, #14, ...

........................................................................
.............................. CYCLE   25 ..............................
........................................................................

 iter      E             dE          RMSdq      gap      omega  full diag
   1   -121.7314919 -0.121731E+03  0.176E-02    0.88       0.0  T
   2   -121.7314921 -0.198138E-06  0.102E-02    0.88       1.2  T
   3   -121.7314921  0.171868E-07  0.145E-03    0.88       8.5  T
   4   -121.7314922 -0.912328E-07  0.564E-04    0.88      21.8  T
   5   -121.7314922 -0.333381E-08  0.292E-04    0.88      42.1  T
     SCC iter.                  ...        0 min,  0.021 sec
     gradient                   ...        0 min,  0.017 sec
 * total energy  :  -120.3139072 Eh     change       -0.3052038E-04 Eh
   gradient norm :     0.0024275 Eh/α   predicted    -0.1767513E-04 ( -42.09%)
   displ. norm   :     0.2493403 α      lambda       -0.1023951E-03
   maximum displ.:     0.1123224 α      in ANC's #8, #14, #15, ...

........................................................................
.............................. CYCLE   26 ..............................
........................................................................

 iter      E             dE          RMSdq      gap      omega  full diag
   1   -121.7297884 -0.121730E+03  0.588E-02    0.87       0.0  T
   2   -121.7297902 -0.182964E-05  0.344E-02    0.88       1.0  T
   3   -121.7297899  0.292068E-06  0.464E-03    0.88       2.7  T
   4   -121.7297910 -0.107974E-05  0.177E-03    0.88       6.9  T
   5   -121.7297910 -0.276479E-07  0.863E-04    0.88      14.3  T
   6   -121.7297910 -0.761131E-08  0.281E-04    0.88      43.9  T
     SCC iter.                  ...        0 min,  0.036 sec
     gradient                   ...        0 min,  0.016 sec
 * total energy  :  -120.3139759 Eh     change       -0.6872671E-04 Eh
   gradient norm :     0.0027335 Eh/α   predicted    -0.5442927E-04 ( -20.80%)
   displ. norm   :     0.1947062 α      lambda       -0.5233762E-04
   maximum displ.:     0.0848873 α      in ANC's #8, #14, #5, ...

........................................................................
.............................. CYCLE   27 ..............................
........................................................................

 iter      E             dE          RMSdq      gap      omega  full diag
   1   -121.7291936 -0.121729E+03  0.462E-02    0.87       0.0  T
   2   -121.7291945 -0.857831E-06  0.270E-02    0.88       1.0  T
   3   -121.7291943  0.192348E-06  0.344E-03    0.88       3.6  T
   4   -121.7291949 -0.628492E-06  0.129E-03    0.88       9.5  T
   5   -121.7291949 -0.895845E-08  0.538E-04    0.88      22.9  T
   6   -121.7291949 -0.460216E-08  0.169E-04    0.88      72.9  T
     SCC iter.                  ...        0 min,  0.030 sec
     gradient                   ...        0 min,  0.017 sec
 * total energy  :  -120.3140185 Eh     change       -0.4263697E-04 Eh
   gradient norm :     0.0037002 Eh/α   predicted    -0.2719064E-04 ( -36.23%)
   displ. norm   :     0.3357529 α      lambda       -0.1010752E-03
   maximum displ.:     0.1401708 α      in ANC's #8, #14, #5, ...

........................................................................
.............................. CYCLE   28 ..............................
........................................................................

 iter      E             dE          RMSdq      gap      omega  full diag
   1   -121.7288517 -0.121729E+03  0.796E-02    0.88       0.0  T
   2   -121.7288541 -0.239192E-05  0.464E-02    0.88       1.0  T
   3   -121.7288533  0.757624E-06  0.598E-03    0.88       2.1  T
   4   -121.7288553 -0.198554E-05  0.213E-03    0.88       5.8  T
   5   -121.7288553 -0.231842E-07  0.906E-04    0.88      13.6  T
   6   -121.7288553 -0.137732E-07  0.272E-04    0.88      45.3  T
     SCC iter.                  ...        0 min,  0.036 sec
     gradient                   ...        0 min,  0.016 sec
 * total energy  :  -120.3140910 Eh     change       -0.7249252E-04 Eh
   gradient norm :     0.0049993 Eh/α   predicted    -0.5623589E-04 ( -22.43%)
   displ. norm   :     0.2296067 α      lambda       -0.9101312E-04
   maximum displ.:     0.0940064 α      in ANC's #14, #8, #5, ...

........................................................................
.............................. CYCLE   29 ..............................
........................................................................

 iter      E             dE          RMSdq      gap      omega  full diag
   1   -121.7305228 -0.121731E+03  0.533E-02    0.89       0.0  T
   2   -121.7305243 -0.146963E-05  0.311E-02    0.88       1.0  T
   3   -121.7305237  0.588580E-06  0.446E-03    0.89       2.8  T
   4   -121.7305249 -0.116479E-05  0.148E-03    0.88       8.3  T
   5   -121.7305249 -0.229308E-07  0.760E-04    0.88      16.2  T
   6   -121.7305249 -0.788381E-08  0.245E-04    0.88      50.3  T
     SCC iter.                  ...        0 min,  0.027 sec
     gradient                   ...        0 min,  0.015 sec
 * total energy  :  -120.3141571 Eh     change       -0.6609548E-04 Eh
   gradient norm :     0.0038696 Eh/α   predicted    -0.4790606E-04 ( -27.52%)
   displ. norm   :     0.2573399 α      lambda       -0.7880187E-04
   maximum displ.:     0.1096392 α      in ANC's #14, #5, #8, ...

........................................................................
.............................. CYCLE   30 ..............................
........................................................................

 iter      E             dE          RMSdq      gap      omega  full diag
   1   -121.7311427 -0.121731E+03  0.598E-02    0.89       0.0  T
   2   -121.7311442 -0.151136E-05  0.349E-02    0.89       1.0  T
   3   -121.7311436  0.569338E-06  0.494E-03    0.89       2.5  T
   4   -121.7311449 -0.127997E-05  0.163E-03    0.89       7.6  T
   5   -121.7311449 -0.164781E-07  0.748E-04    0.89      16.4  T
   6   -121.7311449 -0.740204E-08  0.227E-04    0.89      54.2  T
     SCC iter.                  ...        0 min,  0.033 sec
     gradient                   ...        0 min,  0.015 sec
 * total energy  :  -120.3142123 Eh     change       -0.5520530E-04 Eh
   gradient norm :     0.0037918 Eh/α   predicted    -0.4202227E-04 ( -23.88%)
   displ. norm   :     0.1458073 α      lambda       -0.8094246E-04
   maximum displ.:     0.0707504 α      in ANC's #12, #14, #5, ...

........................................................................
.............................. CYCLE   31 ..............................
........................................................................

 iter      E             dE          RMSdq      gap      omega  full diag
   1   -121.7350249 -0.121735E+03  0.297E-02    0.90       0.0  T
   2   -121.7350276 -0.264642E-05  0.175E-02    0.89       1.0  T
   3   -121.7350274  0.196327E-06  0.474E-03    0.89       2.6  T
   4   -121.7350281 -0.684179E-06  0.118E-03    0.89      10.4  T
   5   -121.7350281 -0.108385E-07  0.627E-04    0.89      19.6  T
   6   -121.7350281 -0.581177E-08  0.276E-04    0.89      44.6  T
     SCC iter.                  ...        0 min,  0.027 sec
     gradient                   ...        0 min,  0.016 sec
 * total energy  :  -120.3142368 Eh     change       -0.2445153E-04 Eh
   gradient norm :     0.0049785 Eh/α   predicted    -0.4133350E-04 (  69.04%)
   displ. norm   :     0.2453955 α      lambda       -0.7181970E-04
   maximum displ.:     0.1115839 α      in ANC's #14, #5, #8, ...

........................................................................
.............................. CYCLE   32 ..............................
........................................................................

 iter      E             dE          RMSdq      gap      omega  full diag
   1   -121.7322162 -0.121732E+03  0.583E-02    0.89       0.0  T
   2   -121.7322182 -0.199589E-05  0.340E-02    0.89       1.0  T
   3   -121.7322179  0.342235E-06  0.499E-03    0.89       2.5  T
   4   -121.7322189 -0.103007E-05  0.169E-03    0.89       7.3  T
   5   -121.7322190 -0.365207E-07  0.927E-04    0.89      13.3  T
   6   -121.7322190 -0.911527E-08  0.271E-04    0.89      45.5  T
     SCC iter.                  ...        0 min,  0.035 sec
     gradient                   ...        0 min,  0.016 sec
 * total energy  :  -120.3142763 Eh     change       -0.3949616E-04 Eh
   gradient norm :     0.0034525 Eh/α   predicted    -0.3807507E-04 (  -3.60%)
   displ. norm   :     0.0462473 α      lambda       -0.2956630E-04
   maximum displ.:     0.0182195 α      in ANC's #14, #5, #12, ...

........................................................................
.............................. CYCLE   33 ..............................
........................................................................

 iter      E             dE          RMSdq      gap      omega  full diag
   1   -121.7321534 -0.121732E+03  0.936E-03    0.89       0.0  T
   2   -121.7321536 -0.180924E-06  0.544E-03    0.89       2.3  T
   3   -121.7321536  0.199735E-07  0.126E-03    0.89       9.8  T
   4   -121.7321537 -0.484705E-07  0.340E-04    0.89      36.2  T
   5   -121.7321537 -0.274235E-08  0.173E-04    0.89      71.3  T
     SCC iter.                  ...        0 min,  0.022 sec
     gradient                   ...        0 min,  0.017 sec
 * total energy  :  -120.3143002 Eh     change       -0.2388182E-04 Eh
   gradient norm :     0.0021063 Eh/α   predicted    -0.1481627E-04 ( -37.96%)
   displ. norm   :     0.1542171 α      lambda       -0.4734025E-04
   maximum displ.:     0.0737994 α      in ANC's #14, #5, #12, ...

........................................................................
.............................. CYCLE   34 ..............................
........................................................................

 iter      E             dE          RMSdq      gap      omega  full diag
   1   -121.7322815 -0.121732E+03  0.309E-02    0.88       0.0  T
   2   -121.7322825 -0.985061E-06  0.179E-02    0.89       1.0  T
   3   -121.7322825 -0.232689E-07  0.258E-03    0.88       4.8  T
   4   -121.7322827 -0.208056E-06  0.959E-04    0.88      12.8  T
   5   -121.7322827 -0.868215E-08  0.499E-04    0.88      24.7  T
     SCC iter.                  ...        0 min,  0.027 sec
     gradient                   ...        0 min,  0.017 sec
 * total energy  :  -120.3143297 Eh     change       -0.2951657E-04 Eh
   gradient norm :     0.0021032 Eh/α   predicted    -0.2423607E-04 ( -17.89%)
   displ. norm   :     0.1159433 α      lambda       -0.1875421E-04
   maximum displ.:     0.0624227 α      in ANC's #14, #5, #4, ...

........................................................................
.............................. CYCLE   35 ..............................
........................................................................

 iter      E             dE          RMSdq      gap      omega  full diag
   1   -121.7323176 -0.121732E+03  0.237E-02    0.88       0.0  T
   2   -121.7323180 -0.408484E-06  0.137E-02    0.88       1.0  T
   3   -121.7323180 -0.319623E-07  0.172E-03    0.88       7.2  T
   4   -121.7323181 -0.932019E-07  0.743E-04    0.88      16.6  T
   5   -121.7323181 -0.454523E-08  0.380E-04    0.88      32.4  T
     SCC iter.                  ...        0 min,  0.023 sec
     gradient                   ...        0 min,  0.016 sec
 * total energy  :  -120.3143447 Eh     change       -0.1501056E-04 Eh
   gradient norm :     0.0019513 Eh/α   predicted    -0.9510701E-05 ( -36.64%)
   displ. norm   :     0.3623453 α      lambda       -0.3896722E-04
   maximum displ.:     0.1972554 α      in ANC's #14, #5, #4, ...

........................................................................
.............................. CYCLE   36 ..............................
........................................................................

 iter      E             dE          RMSdq      gap      omega  full diag
   1   -121.7321223 -0.121732E+03  0.742E-02    0.88       0.0  T
   2   -121.7321251 -0.272421E-05  0.430E-02    0.88       1.0  T
   3   -121.7321254 -0.322151E-06  0.494E-03    0.88       2.5  T
   4   -121.7321262 -0.795988E-06  0.226E-03    0.88       5.5  T
   5   -121.7321262 -0.334468E-07  0.842E-04    0.88      14.6  T
   6   -121.7321262 -0.117074E-07  0.267E-04    0.88      46.2  T
     SCC iter.                  ...        0 min,  0.029 sec
     gradient                   ...        0 min,  0.016 sec
 * total energy  :  -120.3143715 Eh     change       -0.2680667E-04 Eh
   gradient norm :     0.0027853 Eh/α   predicted    -0.2062201E-04 ( -23.07%)
   displ. norm   :     0.0921714 α      lambda       -0.3959464E-04
   maximum displ.:     0.0482219 α      in ANC's #8, #26, #2, ...

........................................................................
.............................. CYCLE   37 ..............................
........................................................................

 iter      E             dE          RMSdq      gap      omega  full diag
   1   -121.7346291 -0.121735E+03  0.213E-02    0.89       0.0  T
   2   -121.7346300 -0.935482E-06  0.125E-02    0.89       1.0  T
   3   -121.7346299  0.136313E-06  0.310E-03    0.89       4.0  T
   4   -121.7346301 -0.266485E-06  0.676E-04    0.89      18.2  T
   5   -121.7346302 -0.121996E-07  0.348E-04    0.89      35.4  T
     SCC iter.                  ...        0 min,  0.024 sec
     gradient                   ...        0 min,  0.016 sec
 * total energy  :  -120.3143882 Eh     change       -0.1668632E-04 Eh
   gradient norm :     0.0035198 Eh/α   predicted    -0.1996566E-04 (  19.65%)
   displ. norm   :     0.0752586 α      lambda       -0.2908398E-04
   maximum displ.:     0.0357285 α      in ANC's #14, #6, #4, ...

........................................................................
.............................. CYCLE   38 ..............................
........................................................................

 iter      E             dE          RMSdq      gap      omega  full diag
   1   -121.7340670 -0.121734E+03  0.163E-02    0.89       0.0  T
   2   -121.7340673 -0.248031E-06  0.950E-03    0.89       1.3  T
   3   -121.7340672  0.442351E-07  0.169E-03    0.89       7.3  T
   4   -121.7340674 -0.132141E-06  0.576E-04    0.89      21.4  T
   5   -121.7340674 -0.203909E-08  0.292E-04    0.89      42.1  T
     SCC iter.                  ...        0 min,  0.022 sec
     gradient                   ...        0 min,  0.016 sec
 * total energy  :  -120.3144107 Eh     change       -0.2247972E-04 Eh
   gradient norm :     0.0023751 Eh/α   predicted    -0.1463174E-04 ( -34.91%)
   displ. norm   :     0.1878130 α      lambda       -0.4627185E-04
   maximum displ.:     0.0857122 α      in ANC's #14, #4, #6, ...

........................................................................
.............................. CYCLE   39 ..............................
........................................................................

 iter      E             dE          RMSdq      gap      omega  full diag
   1   -121.7327524 -0.121733E+03  0.367E-02    0.88       0.0  T
   2   -121.7327536 -0.115993E-05  0.214E-02    0.88       1.0  T
   3   -121.7327536 -0.345575E-08  0.303E-03    0.88       4.1  T
   4   -121.7327539 -0.340996E-06  0.119E-03    0.88      10.3  T
   5   -121.7327539 -0.126568E-07  0.583E-04    0.88      21.1  T
   6   -121.7327539 -0.314736E-08  0.153E-04    0.88      80.7  T
     SCC iter.                  ...        0 min,  0.070 sec
     gradient                   ...        0 min,  0.016 sec
 * total energy  :  -120.3144404 Eh     change       -0.2968054E-04 Eh
   gradient norm :     0.0024706 Eh/α   predicted    -0.2395282E-04 ( -19.30%)
   displ. norm   :     0.1131037 α      lambda       -0.1836335E-04
   maximum displ.:     0.0491218 α      in ANC's #4, #6, #14, ...

........................................................................
.............................. CYCLE   40 ..............................
........................................................................

 iter      E             dE          RMSdq      gap      omega  full diag
   1   -121.7324588 -0.121732E+03  0.211E-02    0.88       0.0  T
   2   -121.7324590 -0.278351E-06  0.123E-02    0.88       1.0  T
   3   -121.7324591 -0.319209E-07  0.146E-03    0.88       8.4  T
   4   -121.7324591 -0.678560E-07  0.668E-04    0.88      18.4  T
   5   -121.7324592 -0.364177E-08  0.302E-04    0.88      40.8  T
     SCC iter.                  ...        0 min,  0.028 sec
     gradient                   ...        0 min,  0.017 sec
 * total energy  :  -120.3144539 Eh     change       -0.1350975E-04 Eh
   gradient norm :     0.0020532 Eh/α   predicted    -0.9299705E-05 ( -31.16%)
   displ. norm   :     0.1036930 α      lambda       -0.1767364E-04
   maximum displ.:     0.0466644 α      in ANC's #4, #8, #6, ...

........................................................................
.............................. CYCLE   41 ..............................
........................................................................

 iter      E             dE          RMSdq      gap      omega  full diag
   1   -121.7329437 -0.121733E+03  0.199E-02    0.88       0.0  T
   2   -121.7329440 -0.333758E-06  0.116E-02    0.88       1.1  T
   3   -121.7329440 -0.131560E-07  0.154E-03    0.88       8.0  T
   4   -121.7329441 -0.743305E-07  0.628E-04    0.88      19.6  T
   5   -121.7329441 -0.513829E-08  0.340E-04    0.88      36.2  T
     SCC iter.                  ...        0 min,  0.023 sec
     gradient                   ...        0 min,  0.015 sec
 * total energy  :  -120.3144660 Eh     change       -0.1217595E-04 Eh
   gradient norm :     0.0012760 Eh/α   predicted    -0.8933378E-05 ( -26.63%)
   displ. norm   :     0.1751566 α      lambda       -0.1255175E-04
   maximum displ.:     0.0888834 α      in ANC's #4, #5, #6, ...

........................................................................
.............................. CYCLE   42 ..............................
........................................................................

 iter      E             dE          RMSdq      gap      omega  full diag
   1   -121.7327783 -0.121733E+03  0.333E-02    0.87       0.0  T
   2   -121.7327792 -0.838707E-06  0.193E-02    0.87       1.0  T
   3   -121.7327793 -0.187688E-06  0.205E-03    0.87       6.0  T
   4   -121.7327794 -0.807575E-07  0.102E-03    0.87      12.0  T
   5   -121.7327794 -0.476827E-08  0.442E-04    0.87      27.8  T
   6   -121.7327794 -0.402251E-08  0.118E-04    0.87     104.6  T
     SCC iter.                  ...        0 min,  0.030 sec
     gradient                   ...        0 min,  0.016 sec
 * total energy  :  -120.3144769 Eh     change       -0.1084068E-04 Eh
   gradient norm :     0.0018505 Eh/α   predicted    -0.6362025E-05 ( -41.31%)
   displ. norm   :     0.0935483 α      lambda       -0.1325859E-04
   maximum displ.:     0.0545694 α      in ANC's #4, #6, #5, ...
 * RMSD in coord.:     0.3246469 α      energy gain  -0.8888575E-03 Eh

generating ANC from exact Hessian ...
Using Lindh-Hessian (1995)
 Shifting diagonal of input Hessian by    9.9062348381040687E-003
 Lowest  eigenvalues of input Hessian
    0.000000    0.000000    0.000000    0.000000    0.000000    0.000000
    0.010000    0.010024    0.010038    0.010277    0.010465    0.010765
    0.010958    0.011171    0.011245    0.011521    0.011877    0.012669
 Highest eigenvalues
    2.106280    2.313854    2.331225    2.331521    2.350371    2.640297


........................................................................
.............................. CYCLE   43 ..............................
........................................................................

 iter      E             dE          RMSdq      gap      omega  full diag
   1   -121.7341551 -0.121734E+03  0.201E-02    0.87       0.0  T
   2   -121.7341556 -0.463430E-06  0.116E-02    0.87       1.1  T
   3   -121.7341557 -0.710548E-07  0.145E-03    0.87       8.5  T
   4   -121.7341557 -0.340687E-07  0.681E-04    0.87      18.1  T
   5   -121.7341557 -0.484252E-08  0.373E-04    0.87      33.0  T
     SCC iter.                  ...        0 min,  0.023 sec
     gradient                   ...        0 min,  0.015 sec
 * total energy  :  -120.3144856 Eh     change       -0.8716674E-05 Eh
   gradient norm :     0.0016888 Eh/α   predicted     0.0000000E+00 (-100.00%)
   displ. norm   :     0.0210882 α      lambda       -0.6392869E-05
   maximum displ.:     0.0089762 α      in ANC's #6, #16, #4, ...

........................................................................
.............................. CYCLE   44 ..............................
........................................................................

 iter      E             dE          RMSdq      gap      omega  full diag
   1   -121.7335417 -0.121734E+03  0.597E-03    0.88       0.0  T
   2   -121.7335419 -0.131420E-06  0.342E-03    0.88       3.6  T
   3   -121.7335419  0.318353E-08  0.106E-03    0.88      11.6  T
   4   -121.7335419 -0.153304E-07  0.274E-04    0.88      44.8  T
   5   -121.7335419 -0.251261E-08  0.126E-04    0.88      97.9  T
     SCC iter.                  ...        0 min,  0.030 sec
     gradient                   ...        0 min,  0.016 sec
 * total energy  :  -120.3144921 Eh     change       -0.6480625E-05 Eh
   gradient norm :     0.0005682 Eh/α   predicted    -0.3571093E-05 ( -44.90%)
   displ. norm   :     0.0286547 α      lambda       -0.3245016E-05
   maximum displ.:     0.0142325 α      in ANC's #6, #4, #16, ...

........................................................................
.............................. CYCLE   45 ..............................
........................................................................

 iter      E             dE          RMSdq      gap      omega  full diag
   1   -121.7333920 -0.121733E+03  0.648E-03    0.88       0.0  T
   2   -121.7333920 -0.476343E-07  0.377E-03    0.88       3.3  T
   3   -121.7333920  0.429473E-08  0.655E-04    0.88      18.8  T
   4   -121.7333921 -0.136367E-07  0.211E-04    0.88      58.3  T
     SCC iter.                  ...        0 min,  0.018 sec
     gradient                   ...        0 min,  0.017 sec
 * total energy  :  -120.3144957 Eh     change       -0.3633299E-05 Eh
   gradient norm :     0.0005429 Eh/α   predicted    -0.1624277E-05 ( -55.29%)
   displ. norm   :     0.0574562 α      lambda       -0.4546314E-05
   maximum displ.:     0.0298250 α      in ANC's #6, #4, #15, ...

   *** GEOMETRY OPTIMIZATION CONVERGED AFTER 45 ITERATIONS ***

------------------------------------------------------------------------
 total energy gain   :        -0.0392852 Eh      -24.6518 kcal/mol
 total RMSD          :         0.7888781 a0        0.4175 Å
 total power (kW/mol):        -2.2920733 (step)  -38.5161 (real)
------------------------------------------------------------------------

 ANCopt (total)                0 d,  0 h,  0 min,  2.678 sec
 optimizer setup                ...        0 min,  0.000 sec (  0.019%)
 model hessian                  ...        0 min,  0.110 sec (  4.104%)
 ANC generation                 ...        0 min,  0.009 sec (  0.329%)
 coordinate transformation      ...        0 min,  0.002 sec (  0.060%)
 single point calculation       ...        0 min,  2.516 sec ( 93.933%)
 optimization log               ...        0 min,  0.022 sec (  0.814%)
 hessian update                 ...        0 min,  0.005 sec (  0.195%)
 rational function              ...        0 min,  0.010 sec (  0.388%)

================
 final structure:
================
66
 xtb: 6.7.1 (edcfbbe)
C           -4.79491609814853        6.71284934550332        1.34876870520122
N           -3.95453650602129        5.58499160945028        1.01832007238631
C           -4.25473281629293        4.72014192571058        0.04162600384954
O           -5.25045746104464        4.83623975899704       -0.67268903455895
C           -3.29046848473541        3.59906644226875       -0.18313910409541
C           -3.19787650792812        3.07419351272192       -1.47085869327639
C           -2.34848631435264        2.02567809548031       -1.76424195570304
C           -1.56967510068240        1.45020948093421       -0.76844191208892
C           -0.68340260789688        0.26055539780037       -1.06901424251797
C           -1.47618170290157       -0.94849435799013       -0.62045146489724
C           -2.29709691245541       -1.62382868642515       -1.51503477401100
C           -3.06241757789466       -2.69326892934751       -1.09432111670984
C           -3.05151666577407       -3.11800084669618        0.23295231683719
C           -3.88952323098946       -4.30280889649597        0.59398417560213
O           -4.12501821080366       -5.17668449283622       -0.24003426085832
N           -4.37939306907266       -4.33204424656586        1.83939201936857
C           -5.20799004727081       -5.40952647942348        2.32910106548986
C           -2.21454472183710       -2.43069290995672        1.10482007125245
F           -2.12271324624270       -2.81407864877622        2.41068482702698
C           -1.43710648497014       -1.36468731399777        0.70429332855514
N            0.59343379776897        0.35458283449607       -0.37129124681367
C            1.32127978759964        1.56587046077320       -0.71741344930101
C            2.55457761522854        1.68147591095269        0.17601162675985
N            3.38386992273313        0.50792038988917       -0.00235875295198
C            4.60737522701162        0.60684377257493       -0.50079858029235
O            5.17721997930472        1.66003926791498       -0.78145055930876
C            5.37807452129001       -0.66104365139178       -0.71305165289005
N            5.30704702098428       -1.39740492784587       -1.78275342713065
O            6.29559636721422       -2.33777086968808       -1.70050427586660
C            7.00437844206032       -2.18233805816146       -0.59314054931895
C            8.12738166228196       -3.07872164812861       -0.30483187436114
C            6.46051943361906       -1.10915813108092        0.10714019357398
N            6.83204641191261       -0.58817529920322        1.34928654453416
O            6.08260653915361        0.22196054246564        1.87222619637012
O            7.87416807212783       -0.97793615876347        1.84938387075340
C            2.67774436247851       -0.72332340113460        0.26471045164156
C            1.44209056945986       -0.79737421588381       -0.63339701348141
C           -1.66299474007121        1.94118963082820        0.52784309311232
C           -2.50621965919238        2.99828457975202        0.79586507401274
F           -2.56596528385294        3.43448178603792        2.08682839762083
H           -4.22568838670410        7.63844728747441        1.27060359292878
H           -5.62289368416746        6.73231348519240        0.64201877373414
H           -5.18451070854141        6.61068048096459        2.36186831335138
H           -3.13515076826921        5.45074751186239        1.58921762617193
H           -3.81644762572902        3.51897231771325       -2.23498376889737
H           -2.29474968617454        1.65418722940410       -2.77503867683978
H           -0.53504935603637        0.19974390944894       -2.16194919639665
H           -2.33555041979857       -1.31815907037581       -2.54826332554283
H           -3.68973230033635       -3.23391968612547       -1.78601645001860
H           -4.16146830886511       -3.59656514670752        2.49283674694114
H           -4.73187393467381       -5.89314078611241        3.18166893992223
H           -5.33066430331836       -6.13052201277119        1.52283255931949
H           -6.18402217682778       -5.02742924206153        2.62722142738452
H           -0.79487543807462       -0.87673662227825        1.41796208761536
H            1.64087318849885        1.55678936249519       -1.77414921997166
H            0.68194900247295        2.43339365959060       -0.55702295765132
H            2.25226503710203        1.73624996220694        1.22414278368140
H            3.14559080068838        2.56013324428558       -0.08304421189477
H            7.98557396587450       -4.02669693138794       -0.81495986535107
H            9.05074367465834       -2.62414955883982       -0.66530475899569
H            8.23331021284467       -3.21070656148416        0.76930126036492
H            2.36810090171099       -0.71809069581586        1.31323870146697
H            3.32531113295385       -1.57887434826405        0.08228762761149
H            1.76726245037265       -0.82892323467869       -1.68746434130440
H            0.89180908411683       -1.71162255067352       -0.41242727565532
H           -1.07629363559150        1.51466842217681        1.32355551451532

 Bond Distances (Angstroems)
 ---------------------------
C1-N2=1.4448         C1-H41=1.0894        C1-H42=1.0888        C1-H43=1.0902        N2-C1=1.4448         N2-C3=1.3387         
N2-H44=1.0076        C3-N2=1.3387         C3-O4=1.2309         C3-C5=1.4957         O4-C3=1.2309         C5-C3=1.4957         
C5-C6=1.3937         C5-C39=1.3908        C6-C5=1.3937         C6-C7=1.3809         C6-H45=1.0790        C7-C6=1.3809         
C7-C8=1.3890         C7-H46=1.0782        C8-C7=1.3890         C8-C9=1.5136         C8-C38=1.3893        C9-C8=1.5136         
C9-C10=1.5138        C9-N21=1.4581        C9-H47=1.1046        C10-C9=1.5138        C10-C11=1.3893       C10-C20=1.3891       
C11-C10=1.3893       C11-C12=1.3807       C11-H48=1.0782       C12-C11=1.3807       C12-C13=1.3936       C12-H49=1.0790       
C13-C12=1.3936       C13-C14=1.4954       C13-C18=1.3903       C14-C13=1.4954       C14-O15=1.2307       C14-N16=1.3386       
O15-C14=1.2307       N16-C14=1.3386       N16-C17=1.4448       N16-H50=1.0077       C17-N16=1.4448       C17-H51=1.0897       
C17-H52=1.0886       C17-H53=1.0897       C18-C13=1.3903       C18-F19=1.3641       C18-C20=1.3788       F19-C18=1.3641       
C20-C10=1.3891       C20-C18=1.3788       C20-H54=1.0770       N21-C9=1.4581        N21-C22=1.4549       N21-C37=1.4546       
C22-N21=1.4549       C22-C23=1.5273       C22-H55=1.1040       C22-H56=1.0895       C23-C22=1.5273       C23-N24=1.4480       
C23-H57=1.0922       C23-H58=1.0902       N24-C23=1.4480       N24-C25=1.3248       N24-C36=1.4443       C25-N24=1.3248       
C25-O26=1.2299       C25-C27=1.4989       O26-C25=1.2299       C27-C25=1.4989       C27-N28=1.3006       C27-C32=1.4301       
N28-C27=1.3006       N28-O29=1.3669       O29-N28=1.3669       O29-C30=1.3239       C30-O29=1.3239       C30-C31=1.4655       
C30-C32=1.3921       C31-C30=1.4655       C31-H59=1.0858       C31-H60=1.0905       C31-H61=1.0874       C32-C27=1.4301       
C32-C30=1.3921       C32-N33=1.3973       N33-C32=1.3973       N33-O34=1.2212       N33-O35=1.2198       O34-N33=1.2212       
O35-N33=1.2198       C36-N24=1.4443       C36-C37=1.5294       C36-H62=1.0933       C36-H63=1.0884       C37-N21=1.4546       
C37-C36=1.5294       C37-H64=1.1035       C37-H65=1.0897       C38-C8=1.3893        C38-C39=1.3785       C38-H66=1.0767       
C39-C5=1.3908        C39-C38=1.3785       C39-F40=1.3640       F40-C39=1.3640       H41-C1=1.0894        H42-C1=1.0888        
H43-C1=1.0902        H44-N2=1.0076        H45-C6=1.0790        H46-C7=1.0782        H47-C9=1.1046        H48-C11=1.0782       
H49-C12=1.0790       H50-N16=1.0077       H51-C17=1.0897       H52-C17=1.0886       H53-C17=1.0897       H54-C20=1.0770       
H55-C22=1.1040       H56-C22=1.0895       H57-C23=1.0922       H58-C23=1.0902       H59-C31=1.0858       H60-C31=1.0905       
H61-C31=1.0874       H62-C36=1.0933       H63-C36=1.0884       H64-C37=1.1035       H65-C37=1.0897       H66-C38=1.0767       
 C  H  Rav=1.0885 sigma=0.0078  Rmin=1.0767  Rmax=1.1046    24
 C  C  Rav=1.4321 sigma=0.0571  Rmin=1.3785  Rmax=1.5294    22
 N  H  Rav=1.0077 sigma=0.0000  Rmin=1.0076  Rmax=1.0077     2
 N  C  Rav=1.4041 sigma=0.0581  Rmin=1.3006  Rmax=1.4581    12
 O  C  Rav=1.2539 sigma=0.0404  Rmin=1.2299  Rmax=1.3239     4
 O  N  Rav=1.2693 sigma=0.0690  Rmin=1.2198  Rmax=1.3669     3
 F  C  Rav=1.3640 sigma=0.0001  Rmin=1.3640  Rmax=1.3641     2

 selected bond angles (degree)
 --------------------
H41-C1-N2=110.05               H42-C1-N2=107.93               H42-C1-H41=109.61              H43-C1-N2=110.32               
H43-C1-H41=109.45              H43-C1-H42=109.46              C3-N2-C1=122.74                H44-N2-C1=116.58               
H44-N2-C3=120.64               O4-C3-N2=122.95                C5-C3-N2=116.70                C5-C3-O4=120.33                
C6-C5-C3=117.64                C39-C5-C3=125.56               C39-C5-C6=116.76               C7-C6-C5=121.54                
H45-C6-C5=117.45               H45-C6-C7=121.01               C8-C7-C6=120.47                H46-C7-C6=119.43               
H46-C7-C8=120.09               C9-C8-C7=120.77                C38-C8-C7=119.00               C38-C8-C9=120.16               
C10-C9-C8=105.20               N21-C9-C8=111.53               N21-C9-C10=111.61              H47-C9-C8=108.56               
H47-C9-C10=108.64              H47-C9-N21=111.06              C11-C10-C9=120.46              C20-C10-C9=120.47              
C20-C10-C11=119.01             

 selected dihedral angles (degree)
 ---------------------------------
C3-N2-C1-H41=237.18           C3-N2-C1-H42=356.75           C3-N2-C1-H43=116.30           H44-N2-C1-H41= 59.65          
H44-N2-C1-H42=179.23          H44-N2-C1-H43=298.78          O4-C3-N2-C1=  1.89            O4-C3-N2-H44=179.32           
C5-C3-N2-C1=180.14            C5-C3-N2-H44=357.57           C6-C5-C3-N2=208.71            C6-C5-C3-O4= 27.01            
C39-C5-C3-N2= 31.12           C39-C5-C3-O4=209.41           C7-C6-C5-C3=180.95            C7-C6-C5-C39=358.76           
H45-C6-C5-C3=  0.99           H45-C6-C5-C39=178.79          C8-C7-C6-C5=  0.86            C8-C7-C6-H45=180.82           
H46-C7-C6-C5=180.76           H46-C7-C6-H45=  0.73          C9-C8-C7-C6=177.21            C9-C8-C7-H46=357.31           
C38-C8-C7-C6=  0.30           C38-C8-C7-H46=180.40          C10-C9-C8-C7=261.99           C10-C9-C8-C38= 78.86          
N21-C9-C8-C7=140.82           N21-C9-C8-C38=317.70          H47-C9-C8-C7= 18.13           H47-C9-C8-C38=195.01          
C11-C10-C9-C8= 92.14          C11-C10-C9-N21=213.25         C11-C10-C9-H47=336.04         C20-C10-C9-C8=274.86          
C20-C10-C9-N21= 35.97         C20-C10-C9-H47=158.76         
           -------------------------------------------------
          |                Final Singlepoint                |
           -------------------------------------------------

          ...................................................
          :                      SETUP                      :
          :.................................................:
          :  # basis functions                 186          :
          :  # atomic orbitals                 186          :
          :  # shells                          106          :
          :  # electrons                       210          :
          :  max. iterations                   250          :
          :  Hamiltonian                  GFN2-xTB          :
          :  restarted?                      false          :
          :  GBSA solvation                   true          :
          :  PC potential                    false          :
          :  electronic temp.          300.0000000     K    :
          :  accuracy                    1.0000000          :
          :  -> integral cutoff          0.2500000E+02      :
          :  -> integral neglect         0.1000000E-07      :
          :  -> SCF convergence          0.1000000E-05 Eh   :
          :  -> wf. convergence          0.1000000E-03 e    :
          :  Broyden damping             0.4000000          :
          :  net charge                          0          :
          :  unpaired electrons                  0          :
          ...................................................

 iter      E             dE          RMSdq      gap      omega  full diag
   1   -121.7333921 -0.121733E+03  0.109E-04    0.88       0.0  T
   2   -121.7333921 -0.520828E-10  0.661E-05    0.88     186.3  T
   3   -121.7333921  0.260059E-11  0.377E-05    0.88     326.7  T

   *** convergence criteria satisfied after 3 iterations ***

         #    Occupation            Energy/Eh            Energy/eV
      -------------------------------------------------------------
         1        2.0000           -0.8367035             -22.7679
       ...           ...                  ...                  ...
        99        2.0000           -0.4166381             -11.3373
       100        2.0000           -0.4110730             -11.1859
       101        2.0000           -0.4065301             -11.0622
       102        2.0000           -0.4058658             -11.0442
       103        2.0000           -0.4051972             -11.0260
       104        2.0000           -0.4043532             -11.0030
       105        2.0000           -0.3707197             -10.0878 (HOMO)
       106                         -0.3384831              -9.2106 (LUMO)
       107                         -0.2826025              -7.6900
       108                         -0.2759843              -7.5099
       109                         -0.2630590              -7.1582
       110                         -0.2470756              -6.7233
       ...                                ...                  ...
       186                          0.6491083              17.6631
      -------------------------------------------------------------
                  HL-Gap            0.0322367 Eh            0.8772 eV
             Fermi-level           -0.3546014 Eh           -9.6492 eV

 SCC (total)                   0 d,  0 h,  0 min,  0.039 sec
 SCC setup                      ...        0 min,  0.001 sec (  2.741%)
 Dispersion                     ...        0 min,  0.001 sec (  3.329%)
 classical contributions        ...        0 min,  0.000 sec (  0.390%)
 integral evaluation            ...        0 min,  0.004 sec ( 10.926%)
 iterations                     ...        0 min,  0.015 sec ( 39.029%)
 molecular gradient             ...        0 min,  0.017 sec ( 42.045%)
 printout                       ...        0 min,  0.001 sec (  1.467%)

         :::::::::::::::::::::::::::::::::::::::::::::::::::::
         ::                     SUMMARY                     ::
         :::::::::::::::::::::::::::::::::::::::::::::::::::::
         :: total energy            -120.314495708154 Eh    ::
         :: total w/o Gsasa/hb      -120.310068233730 Eh    ::
         :: gradient norm              0.000542691291 Eh/a0 ::
         :: HOMO-LUMO gap              0.877204372726 eV    ::
         ::.................................................::
         :: SCC energy              -121.733026524410 Eh    ::
         :: -> isotropic ES            0.268170150586 Eh    ::
         :: -> anisotropic ES          0.004452741663 Eh    ::
         :: -> anisotropic XC          0.031948482476 Eh    ::
         :: -> dispersion             -0.076934141904 Eh    ::
         :: -> Gsolv                  -0.056585685708 Eh    ::
         ::    -> Gelec               -0.052158211283 Eh    ::
         ::    -> Gsasa                0.005914971969 Eh    ::
         ::    -> Ghb                 -0.011423206092 Eh    ::
         ::    -> Gshift               0.001080759698 Eh    ::
         :: repulsion energy           1.418530816256 Eh    ::
         :: add. restraining           0.000000000000 Eh    ::
         :: total charge               0.000000000000 e     ::
         :::::::::::::::::::::::::::::::::::::::::::::::::::::

           -------------------------------------------------
          |                Property Printout                |
           -------------------------------------------------

    * Orbital Energies and Occupations

         #    Occupation            Energy/Eh            Energy/eV
      -------------------------------------------------------------
         1        2.0000           -0.8367035             -22.7679
       ...           ...                  ...                  ...
        93        2.0000           -0.4475881             -12.1795
        94        2.0000           -0.4430103             -12.0549
        95        2.0000           -0.4286725             -11.6648
        96        2.0000           -0.4250525             -11.5663
        97        2.0000           -0.4248796             -11.5616
        98        2.0000           -0.4244047             -11.5486
        99        2.0000           -0.4166381             -11.3373
       100        2.0000           -0.4110730             -11.1859
       101        2.0000           -0.4065301             -11.0622
       102        2.0000           -0.4058658             -11.0442
       103        2.0000           -0.4051972             -11.0260
       104        2.0000           -0.4043532             -11.0030
       105        2.0000           -0.3707197             -10.0878 (HOMO)
       106                         -0.3384831              -9.2106 (LUMO)
       107                         -0.2826025              -7.6900
       108                         -0.2759843              -7.5099
       109                         -0.2630590              -7.1582
       110                         -0.2470756              -6.7233
       111                         -0.2438732              -6.6361
       112                         -0.2358499              -6.4178
       113                         -0.2040501              -5.5525
       114                         -0.1994011              -5.4260
       115                         -0.1894920              -5.1563
       116                         -0.1136033              -3.0913
       ...                                ...                  ...
       186                          0.6491083              17.6631
      -------------------------------------------------------------
                  HL-Gap            0.0322367 Eh            0.8772 eV
             Fermi-level           -0.3546014 Eh           -9.6492 eV

     #   Z          covCN         q      C6AA      α(0)
     1   6 C        3.691    -0.062    21.891     6.696
     2   7 N        2.685    -0.167    24.604     7.367
     3   6 C        2.759     0.278    22.295     7.732
     4   8 O        0.859    -0.529    24.441     6.628
     5   6 C        2.968    -0.039    28.977     8.830
     6   6 C        2.932    -0.023    28.569     8.766
     7   6 C        2.920    -0.043    29.070     8.842
     8   6 C        2.989     0.023    27.494     8.601
     9   6 C        3.820     0.035    19.975     6.361
    10   6 C        2.989     0.022    27.504     8.603
    11   6 C        2.920    -0.043    29.072     8.842
    12   6 C        2.932    -0.023    28.568     8.766
    13   6 C        2.968    -0.040    28.979     8.830
    14   6 C        2.759     0.278    22.291     7.732
    15   8 O        0.859    -0.529    24.425     6.626
    16   7 N        2.686    -0.166    24.594     7.365
    17   6 C        3.691    -0.062    21.892     6.696
    18   6 C        2.788     0.166    24.413     8.093
    19   9 F        0.786    -0.259    11.867     4.069
    20   6 C        2.921    -0.056    29.381     8.889
    21   7 N        2.734    -0.167    24.601     7.367
    22   6 C        3.771    -0.001    20.632     6.473
    23   6 C        3.763    -0.016    20.901     6.517
    24   7 N        2.740    -0.051    22.224     7.002
    25   6 C        2.766     0.274    22.361     7.744
    26   8 O        0.859    -0.512    24.043     6.574
    27   6 C        3.014     0.072    26.369     8.423
    28   7 N        1.948    -0.136    24.718     7.372
    29   8 O        1.821    -0.088    15.650     5.342
    30   6 C        2.988     0.180    24.131     8.058
    31   6 C        3.754    -0.163    23.717     6.944
    32   6 C        2.960    -0.035    28.868     8.813
    33   7 N        2.756     0.571    13.253     5.407
    34   8 O        0.933    -0.441    22.483     6.359
    35   8 O        0.932    -0.429    22.223     6.322
    36   6 C        3.756    -0.018    20.942     6.525
    37   6 C        3.772    -0.004    20.679     6.480
    38   6 C        2.921    -0.055    29.375     8.888
    39   6 C        2.788     0.166    24.412     8.093
    40   9 F        0.786    -0.259    11.862     4.068
    41   1 H        0.925     0.077     2.015     2.220
    42   1 H        0.925     0.081     1.972     2.196
    43   1 H        0.924     0.075     2.036     2.231
    44   1 H        0.860     0.220     1.008     1.573
    45   1 H        0.926     0.075     2.028     2.227
    46   1 H        0.926     0.074     2.043     2.235
    47   1 H        0.923     0.042     2.422     2.434
    48   1 H        0.926     0.073     2.047     2.238
    49   1 H        0.926     0.074     2.039     2.233
    50   1 H        0.860     0.219     1.015     1.578
    51   1 H        0.925     0.076     2.024     2.225
    52   1 H        0.925     0.081     1.969     2.194
    53   1 H        0.925     0.076     2.026     2.226
    54   1 H        0.926     0.097     1.811     2.104
    55   1 H        0.923     0.026     2.644     2.543
    56   1 H        0.925     0.063     2.159     2.298
    57   1 H        0.924     0.086     1.922     2.168
    58   1 H        0.925     0.081     1.966     2.193
    59   1 H        0.925     0.129     1.542     1.942
    60   1 H        0.924     0.145     1.423     1.866
    61   1 H        0.925     0.125     1.573     1.962
    62   1 H        0.924     0.091     1.867     2.137
    63   1 H        0.925     0.066     2.129     2.282
    64   1 H        0.923     0.032     2.563     2.504
    65   1 H        0.925     0.067     2.118     2.276
    66   1 H        0.926     0.097     1.814     2.106

 Mol. C6AA /au·bohr⁶  :      52216.242472
 Mol. C8AA /au·bohr⁸  :    1228716.556234
 Mol. α(0) /au        :        349.291874


Wiberg/Mayer (AO) data.
largest (>0.10) Wiberg bond orders for each atom

 ---------------------------------------------------------------------------
     #   Z sym  total        # sym  WBO       # sym  WBO       # sym  WBO
 ---------------------------------------------------------------------------
     1   6 C    3.954 --     2 N    1.000    42 H    0.977    41 H    0.973
                            43 H    0.972
     2   7 N    3.487 --     3 C    1.309     1 C    1.000    44 H    0.922
                             4 O    0.203
     3   6 C    3.952 --     4 O    1.587     2 N    1.309     5 C    0.986
     4   8 O    1.920 --     3 C    1.587     2 N    0.203
     5   6 C    3.982 --     6 C    1.390    39 C    1.358     3 C    0.986
                             8 C    0.101
     6   6 C    3.984 --     7 C    1.454     5 C    1.390    45 H    0.964
                            38 C    0.106
     7   6 C    3.985 --     6 C    1.454     8 C    1.406    46 H    0.963
     8   6 C    3.984 --     7 C    1.406    38 C    1.395     9 C    0.976
                             5 C    0.101
     9   6 C    3.983 --    21 N    0.984    10 C    0.977     8 C    0.976
                            47 H    0.947
    10   6 C    3.984 --    11 C    1.405    20 C    1.397     9 C    0.977
                            13 C    0.102
    11   6 C    3.986 --    12 C    1.455    10 C    1.405    48 H    0.964
    12   6 C    3.984 --    11 C    1.455    13 C    1.389    49 H    0.964
                            20 C    0.105
    13   6 C    3.984 --    12 C    1.389    18 C    1.360    14 C    0.986
                            10 C    0.102
    14   6 C    3.952 --    15 O    1.588    16 N    1.309    13 C    0.986
    15   8 O    1.920 --    14 C    1.588    16 N    0.203
    16   7 N    3.487 --    14 C    1.309    17 C    1.000    50 H    0.923
                            15 O    0.203
    17   6 C    3.954 --    16 N    1.000    52 H    0.977    53 H    0.973
                            51 H    0.972
    18   6 C    3.871 --    20 C    1.419    13 C    1.360    19 F    0.926
    19   9 F    1.055 --    18 C    0.926
    20   6 C    3.982 --    18 C    1.419    10 C    1.397    54 H    0.956
                            12 C    0.105
    21   7 N    3.121 --    37 C    1.003    22 C    1.002     9 C    0.984
    22   6 C    3.984 --    21 N    1.002    23 C    0.994    56 H    0.965
                            55 H    0.963
    23   6 C    3.955 --    22 C    0.994    24 N    0.974    58 H    0.966
                            57 H    0.961
    24   7 N    3.572 --    25 C    1.342    36 C    0.981    23 C    0.974
                            26 O    0.211
    25   6 C    3.960 --    26 O    1.577    24 N    1.342    27 C    0.940
    26   8 O    1.945 --    25 C    1.577    24 N    0.211
    27   6 C    3.970 --    28 N    1.613    32 C    1.206    25 C    0.940
    28   7 N    2.950 --    27 C    1.613    29 O    1.061    30 C    0.121
    29   8 O    2.491 --    30 C    1.219    28 N    1.061
    30   6 C    3.916 --    32 C    1.390    29 O    1.219    31 C    1.065
                            28 N    0.121
    31   6 C    3.962 --    30 C    1.065    59 H    0.959    61 H    0.950
                            60 H    0.913
    32   6 C    3.936 --    30 C    1.390    27 C    1.206    33 N    1.039
    33   7 N    3.916 --    34 O    1.418    35 O    1.417    32 C    1.039
    34   8 O    1.893 --    33 N    1.418    35 O    0.327
    35   8 O    1.892 --    33 N    1.417    34 O    0.327
    36   6 C    3.958 --    37 C    0.992    24 N    0.981    63 H    0.965
                            62 H    0.959
    37   6 C    3.983 --    21 N    1.003    36 C    0.992    65 H    0.965
                            64 H    0.962
    38   6 C    3.983 --    39 C    1.422     8 C    1.395    66 H    0.956
                             6 C    0.106
    39   6 C    3.871 --    38 C    1.422     5 C    1.358    40 F    0.926
    40   9 F    1.056 --    39 C    0.926
    41   1 H    0.993 --     1 C    0.973
    42   1 H    0.993 --     1 C    0.977
    43   1 H    0.993 --     1 C    0.972
    44   1 H    0.951 --     2 N    0.922
    45   1 H    0.994 --     6 C    0.964
    46   1 H    0.994 --     7 C    0.963
    47   1 H    0.997 --     9 C    0.947
    48   1 H    0.994 --    11 C    0.964
    49   1 H    0.994 --    12 C    0.964
    50   1 H    0.952 --    16 N    0.923
    51   1 H    0.993 --    17 C    0.972
    52   1 H    0.993 --    17 C    0.977
    53   1 H    0.993 --    17 C    0.973
    54   1 H    0.990 --    20 C    0.956
    55   1 H    0.999 --    22 C    0.963
    56   1 H    0.995 --    22 C    0.965
    57   1 H    0.992 --    23 C    0.961
    58   1 H    0.993 --    23 C    0.966
    59   1 H    0.982 --    31 C    0.959
    60   1 H    0.979 --    31 C    0.913
    61   1 H    0.984 --    31 C    0.950
    62   1 H    0.992 --    36 C    0.959
    63   1 H    0.995 --    36 C    0.965
    64   1 H    0.999 --    37 C    0.962
    65   1 H    0.995 --    37 C    0.965
    66   1 H    0.990 --    38 C    0.956
 ---------------------------------------------------------------------------

Topologies differ in total number of bonds
Writing topology from bond orders to xtbtopo.mol

molecular dipole:
                 x           y           z       tot (Debye)
 q only:        0.111      -1.229       0.262
   full:        0.524      -1.082       0.465       3.276
molecular quadrupole (traceless):
                xx          xy          yy          xz          yz          zz
 q only:      -25.335     -49.830      15.319     -42.929       1.835      10.016
  q+dip:      -25.571     -46.504       9.887     -43.107       0.649      15.684
   full:      -23.390     -46.165      11.096     -44.504      -0.717      12.294

           -------------------------------------------------
          |                Geometry Summary                 |
           -------------------------------------------------

      molecular mass/u    :      556.5190480
   center of mass at/Å    :        0.3169272      -0.0208854       0.1420591
  moments of inertia/u·Å² :        0.5454163E+04   0.1141217E+05   0.1523201E+05
rotational constants/cm⁻¹ :        0.3090782E-02   0.1477162E-02   0.1106724E-02

 * 62 selected distances

     #   Z          #   Z                                           value/Å
     1   6 C        2   7 N                                       1.4448175
     2   7 N        3   6 C                                       1.3386614
     3   6 C        4   8 O                                       1.2309316
     5   6 C        6   6 C                                       1.3936596
     6   6 C        7   6 C                                       1.3809136
     7   6 C        8   6 C                                       1.3890029
    10   6 C       11   6 C                                       1.3893372
    11   6 C       12   6 C                                       1.3807311
    12   6 C       13   6 C                                       1.3936180
    14   6 C       15   8 O                                       1.2307329
    14   6 C       16   7 N                                       1.3386068
    16   7 N       17   6 C                                       1.4447686
    13   6 C       18   6 C                                       1.3903481
    10   6 C       20   6 C                                       1.3891337
    18   6 C       20   6 C                                       1.3788402
     9   6 C       21   7 N                                       1.4580707
    21   7 N       22   6 C                                       1.4549153
    22   6 C       23   6 C                                       1.5272842
    23   6 C       24   7 N                                       1.4480244
    24   7 N       25   6 C                                       1.3248372
    25   6 C       26   8 O                                       1.2299226
    27   6 C       28   7 N                                       1.3005903
    28   7 N       29   8 O                                       1.3668516
    29   8 O       30   6 C                                       1.3239283
    30   6 C       31   6 C                                       1.4655245
    27   6 C       32   6 C                                       1.4301079
    30   6 C       32   6 C                                       1.3920816
    32   6 C       33   7 N                                       1.3972771
    33   7 N       34   8 O                                       1.2212479
    33   7 N       35   8 O                                       1.2198478
    24   7 N       36   6 C                                       1.4442648
    21   7 N       37   6 C                                       1.4546213
    36   6 C       37   6 C                                       1.5293532 (max)
     8   6 C       38   6 C                                       1.3892895
     5   6 C       39   6 C                                       1.3908395
    38   6 C       39   6 C                                       1.3785188
     1   6 C       41   1 H                                       1.0894318
     1   6 C       42   1 H                                       1.0887706
     1   6 C       43   1 H                                       1.0902263
     2   7 N       44   1 H                                       1.0076401 (min)
     6   6 C       45   1 H                                       1.0790485
     7   6 C       46   1 H                                       1.0782408
     9   6 C       47   1 H                                       1.1046329
    11   6 C       48   1 H                                       1.0781809
    12   6 C       49   1 H                                       1.0790133
    16   7 N       50   1 H                                       1.0076760
    17   6 C       51   1 H                                       1.0896979
    17   6 C       52   1 H                                       1.0885553
    17   6 C       53   1 H                                       1.0897307
    20   6 C       54   1 H                                       1.0769772
    22   6 C       55   1 H                                       1.1040440
    22   6 C       56   1 H                                       1.0895254
    23   6 C       57   1 H                                       1.0922327
    23   6 C       58   1 H                                       1.0901584
    31   6 C       59   1 H                                       1.0858164
    31   6 C       60   1 H                                       1.0904926
    31   6 C       61   1 H                                       1.0873836
    36   6 C       62   1 H                                       1.0933061
    36   6 C       63   1 H                                       1.0883880
    37   6 C       64   1 H                                       1.1035353
    37   6 C       65   1 H                                       1.0897190
    38   6 C       66   1 H                                       1.0767066

 * 6 distinct bonds (by element types)

   Z      Z             #   av. dist./Å        max./Å        min./Å
   1 H    6 C          24     1.0884923     1.1046329     1.0767066
   6 C    6 C          17     1.4110932     1.5293532     1.3785188
   1 H    7 N           2     1.0076581     1.0076760     1.0076401
   6 C    7 N          12     1.4041213     1.4580707     1.3005903
   6 C    8 O           4     1.2538788     1.3239283     1.2299226
   7 N    8 O           3     1.2693157     1.3668516     1.2198478


optimized geometry written to: xtbopt.xyz


           -------------------------------------------------
          | TOTAL ENERGY             -120.314495708154 Eh   |
          | GRADIENT NORM               0.000542691291 Eh/α |
          | HOMO-LUMO GAP               0.877204372726 eV   |
           -------------------------------------------------
########################################################################
[WARNING] Runtime exception occurred
-2- restart_readRestart: Dimension missmatch in restart file.
-1- restart_readRestart: Number of electron missmatch in restart file.
########################################################################

------------------------------------------------------------------------
 * finished run on 2026/08/28 at 18:28:30.634     
------------------------------------------------------------------------
 total:
 * wall-time:     0 d,  0 h,  0 min,  2.872 sec
 *  cpu-time:     0 d,  0 h,  0 min, 19.859 sec
 * ratio c/w:     6.914 speedup
 SCF:
 * wall-time:     0 d,  0 h,  0 min,  0.087 sec
 *  cpu-time:     0 d,  0 h,  0 min,  0.562 sec
 * ratio c/w:     6.469 speedup
 ANC optimizer:
 * wall-time:     0 d,  0 h,  0 min,  2.723 sec
 *  cpu-time:     0 d,  0 h,  0 min, 19.172 sec
 * ratio c/w:     7.042 speedup

