66

C     -5.007629    6.833409    1.433532
N     -4.278298    5.615944    1.186444
C     -4.146770    5.102391   -0.085074
O     -4.691821    5.605571   -1.063119
C     -3.299579    3.888125   -0.255139
C     -3.214658    3.311011   -1.530479
C     -2.433168    2.170740   -1.748788
C     -1.711580    1.583460   -0.696855
C     -0.879844    0.318624   -0.951430
C     -1.700048   -0.906823   -0.524675
C     -2.392905   -1.657193   -1.488408
C     -3.160858   -2.765794   -1.114419
C     -3.259649   -3.148201    0.231297
C     -4.089369   -4.339920    0.567180
O     -4.674121   -4.945486   -0.326213
N     -4.165468   -4.712213    1.891400
C     -5.013906   -5.794813    2.319736
C     -2.577498   -2.396932    1.188063
F     -2.637975   -2.711282    2.491794
C     -1.809246   -1.291086    0.822358
N      0.478371    0.365899   -0.330244
C      1.253234    1.535146   -0.829922
C      2.669680    1.609128   -0.231351
N      3.419390    0.369609   -0.417105
C      4.815377    0.456651   -0.333253
O      5.387998    1.531666   -0.158350
C      5.611874   -0.758935   -0.497146
N      5.357526   -1.668836   -1.456913
O      6.378730   -2.599586   -1.385629
C      7.247833   -2.252281   -0.397529
C      8.403848   -3.145441   -0.192156
C      6.794424   -1.098677    0.194705
N      7.388080   -0.428325    1.294280
O      6.617547    0.036481    2.141498
O      8.623694   -0.421498    1.345614
C      2.673644   -0.836528   -0.049452
C      1.260257   -0.856389   -0.661300
C     -1.805340    2.163945    0.579230
C     -2.586814    3.300589    0.789723
F     -2.623270    3.812251    2.030314
H     -4.369637    7.681411    1.171289
H     -5.918315    6.861878    0.829325
H     -5.262898    6.876927    2.494792
H     -3.728674    5.222171    1.942250
H     -3.763707    3.747533   -2.364093
H     -2.397847    1.745523   -2.750430
H     -0.723308    0.244848   -2.038196
H     -2.345141   -1.385927   -2.541740
H     -3.687287   -3.331761   -1.882215
H     -3.745877   -4.120363    2.599922
H     -4.685394   -6.124322    3.308082
H     -4.958303   -6.626063    1.611813
H     -6.043175   -5.430719    2.374152
H     -1.288836   -0.738073    1.599889
H      1.332084    1.492488   -1.924808
H      0.753037    2.475168   -0.575936
H      2.618071    1.805557    0.847041
H      3.210445    2.443470   -0.692442
H      8.276889   -4.089622   -0.731145
H      9.321456   -2.670028   -0.551677
H      8.528065   -3.380030    0.869511
H      2.609490   -0.850740    1.046251
H      3.199670   -1.745560   -0.342813
H      1.344502   -0.967619   -1.750858
H      0.763725   -1.753828   -0.278533
H     -1.260733    1.743283    1.420502
