66
 energy: -120.314495708154 gnorm: 0.000542691291 xtb: 6.7.1 (edcfbbe)
C           -4.79491609814853        6.71284934550332        1.34876870520122
N           -3.95453650602129        5.58499160945028        1.01832007238631
C           -4.25473281629293        4.72014192571058        0.04162600384954
O           -5.25045746104464        4.83623975899704       -0.67268903455895
C           -3.29046848473541        3.59906644226875       -0.18313910409541
C           -3.19787650792812        3.07419351272192       -1.47085869327639
C           -2.34848631435264        2.02567809548031       -1.76424195570304
C           -1.56967510068240        1.45020948093421       -0.76844191208892
C           -0.68340260789688        0.26055539780037       -1.06901424251797
C           -1.47618170290157       -0.94849435799013       -0.62045146489724
C           -2.29709691245541       -1.62382868642515       -1.51503477401100
C           -3.06241757789466       -2.69326892934751       -1.09432111670984
C           -3.05151666577407       -3.11800084669618        0.23295231683719
C           -3.88952323098946       -4.30280889649597        0.59398417560213
O           -4.12501821080366       -5.17668449283622       -0.24003426085832
N           -4.37939306907266       -4.33204424656586        1.83939201936857
C           -5.20799004727081       -5.40952647942348        2.32910106548986
C           -2.21454472183710       -2.43069290995672        1.10482007125245
F           -2.12271324624270       -2.81407864877622        2.41068482702698
C           -1.43710648497014       -1.36468731399777        0.70429332855514
N            0.59343379776897        0.35458283449607       -0.37129124681367
C            1.32127978759964        1.56587046077320       -0.71741344930101
C            2.55457761522854        1.68147591095269        0.17601162675985
N            3.38386992273313        0.50792038988917       -0.00235875295198
C            4.60737522701162        0.60684377257493       -0.50079858029235
O            5.17721997930472        1.66003926791498       -0.78145055930876
C            5.37807452129001       -0.66104365139178       -0.71305165289005
N            5.30704702098428       -1.39740492784587       -1.78275342713065
O            6.29559636721422       -2.33777086968808       -1.70050427586660
C            7.00437844206032       -2.18233805816146       -0.59314054931895
C            8.12738166228196       -3.07872164812861       -0.30483187436114
C            6.46051943361906       -1.10915813108092        0.10714019357398
N            6.83204641191261       -0.58817529920322        1.34928654453416
O            6.08260653915361        0.22196054246564        1.87222619637012
O            7.87416807212783       -0.97793615876347        1.84938387075340
C            2.67774436247851       -0.72332340113460        0.26471045164156
C            1.44209056945986       -0.79737421588381       -0.63339701348141
C           -1.66299474007121        1.94118963082820        0.52784309311232
C           -2.50621965919238        2.99828457975202        0.79586507401274
F           -2.56596528385294        3.43448178603792        2.08682839762083
H           -4.22568838670410        7.63844728747441        1.27060359292878
H           -5.62289368416746        6.73231348519240        0.64201877373414
H           -5.18451070854141        6.61068048096459        2.36186831335138
H           -3.13515076826921        5.45074751186239        1.58921762617193
H           -3.81644762572902        3.51897231771325       -2.23498376889737
H           -2.29474968617454        1.65418722940410       -2.77503867683978
H           -0.53504935603637        0.19974390944894       -2.16194919639665
H           -2.33555041979857       -1.31815907037581       -2.54826332554283
H           -3.68973230033635       -3.23391968612547       -1.78601645001860
H           -4.16146830886511       -3.59656514670752        2.49283674694114
H           -4.73187393467381       -5.89314078611241        3.18166893992223
H           -5.33066430331836       -6.13052201277119        1.52283255931949
H           -6.18402217682778       -5.02742924206153        2.62722142738452
H           -0.79487543807462       -0.87673662227825        1.41796208761536
H            1.64087318849885        1.55678936249519       -1.77414921997166
H            0.68194900247295        2.43339365959060       -0.55702295765132
H            2.25226503710203        1.73624996220694        1.22414278368140
H            3.14559080068838        2.56013324428558       -0.08304421189477
H            7.98557396587450       -4.02669693138794       -0.81495986535107
H            9.05074367465834       -2.62414955883982       -0.66530475899569
H            8.23331021284467       -3.21070656148416        0.76930126036492
H            2.36810090171099       -0.71809069581586        1.31323870146697
H            3.32531113295385       -1.57887434826405        0.08228762761149
H            1.76726245037265       -0.82892323467869       -1.68746434130440
H            0.89180908411683       -1.71162255067352       -0.41242727565532
H           -1.07629363559150        1.51466842217681        1.32355551451532
