      -----------------------------------------------------------      
     |                   =====================                   |     
     |                           x T B                           |     
     |                   =====================                   |     
     |                         S. Grimme                         |     
     |          Mulliken Center for Theoretical Chemistry        |     
     |                    University of Bonn                     |     
      -----------------------------------------------------------      

   * xtb version 6.7.1 (edcfbbe) compiled by 'VssAdministrator@runnervm171ch' on 2026-06-10

   xtb is free software: you can redistribute it and/or modify it under
   the terms of the GNU Lesser General Public License as published by
   the Free Software Foundation, either version 3 of the License, or
   (at your option) any later version.
   
   xtb is distributed in the hope that it will be useful,
   but WITHOUT ANY WARRANTY; without even the implied warranty of
   MERCHANTABILITY or FITNESS FOR A PARTICULAR PURPOSE.  See the
   GNU Lesser General Public License for more details.
   
   Cite this work as:
   * C. Bannwarth, E. Caldeweyher, S. Ehlert, A. Hansen, P. Pracht,
     J. Seibert, S. Spicher, S. Grimme, WIREs Comput. Mol. Sci., 2020, 11,
     e01493. DOI: 10.1002/wcms.1493
   
   for GFN2-xTB:
   * C. Bannwarth, S. Ehlert and S. Grimme., J. Chem. Theory Comput., 2019,
     15, 1652-1671. DOI: 10.1021/acs.jctc.8b01176
   for GFN1-xTB:
   * S. Grimme, C. Bannwarth, P. Shushkov, J. Chem. Theory Comput., 2017,
     13, 1989-2009. DOI: 10.1021/acs.jctc.7b00118
   for GFN0-xTB:
   * P. Pracht, E. Caldeweyher, S. Ehlert, S. Grimme, ChemRxiv, 2019, preprint.
     DOI: 10.26434/chemrxiv.8326202.v1
   for GFN-FF:
   * S. Spicher and S. Grimme, Angew. Chem. Int. Ed., 2020, 59, 15665-15673.
     DOI: 10.1002/anie.202004239
   
   for ALPB and GBSA implicit solvation:
   * S. Ehlert, M. Stahn, S. Spicher, S. Grimme, J. Chem. Theory Comput.,
     2021, 17, 4250-4261. DOI: 10.1021/acs.jctc.1c00471
   
   for ddCOSMO and CPCM-X implicit solvation:
   * M. Stahn, S. Ehlert, S. Grimme, J. Phys. Chem. A,
     2023, XX, XXXX-XXXX. DOI: 10.1021/acs.jpca.3c04382
   
   for DFT-D4:
   * E. Caldeweyher, C. Bannwarth and S. Grimme, J. Chem. Phys., 2017,
     147, 034112. DOI: 10.1063/1.4993215
   * E. Caldeweyher, S. Ehlert, A. Hansen, H. Neugebauer, S. Spicher,
     C. Bannwarth and S. Grimme, J. Chem. Phys., 2019, 150, 154122.
     DOI: 10.1063/1.5090222
   * E. Caldeweyher, J.-M. Mewes, S. Ehlert and S. Grimme, Phys. Chem. Chem. Phys.
     2020, 22, 8499-8512. DOI: 10.1039/D0CP00502A
   
   for sTDA-xTB:
   * S. Grimme and C. Bannwarth, J. Chem. Phys., 2016, 145, 054103.
     DOI: 10.1063/1.4959605
   
   in the mass-spec context:
   * V. Asgeirsson, C. Bauer and S. Grimme, Chem. Sci., 2017, 8, 4879.
     DOI: 10.1039/c7sc00601b
   * J. Koopman and S. Grimme, ACS Omega 2019, 4, 12, 15120-15133.
     DOI: 10.1021/acsomega.9b02011
   
   for metadynamics refer to:
   * S. Grimme, J. Chem. Theory Comput., 2019, 155, 2847-2862
     DOI: 10.1021/acs.jctc.9b00143
   
   for SPH calculations refer to:
   * S. Spicher and S. Grimme, J. Chem. Theory Comput., 2021, 17, 1701-1714
     DOI: 10.1021/acs.jctc.0c01306
   
   for ONIOM refer to:
   * C. Plett, A. Katbashev, S. Ehlert, S. Grimme, M. Bursch,
     Phys. Chem. Chem. Phys., 2023, 25, 17860-17868. DOI: 10.1039/D3CP02178E
   
   for DIPRO refer to:
   * J. Kohn, N. Gildemeister, S. Grimme, D. Fazzi, A. Hansen,
     J. Chem. Phys., 2023, just accepted.
   
   for PTB refer to:
   * S. Grimme, M. Mueller, A. Hansen, J. Chem. Phys., 2023, 158, 124111.
     DOI: 10.1063/5.0137838
   
   with help from (in alphabetical order)
   P. Atkinson, C. Bannwarth, F. Bohle, G. Brandenburg, E. Caldeweyher
   M. Checinski, S. Dohm, S. Ehlert, S. Ehrlich, I. Gerasimov, C. Hölzer
   A. Katbashev, J. Kohn, J. Koopman, C. Lavigne, S. Lehtola, F. März, M. Müller,
   F. Musil, H. Neugebauer, J. Pisarek, C. Plett, P. Pracht, F. Pultar,
   J. Seibert, P. Shushkov, S. Spicher, M. Stahn, M. Steiner, T. Strunk,
   J. Stückrath, T. Rose, and J. Unsleber
   
 * started run on 2026/08/28 at 18:28:30.727     
   ID    Z sym.   atoms
    1    6 C      1, 3, 5-16, 19-21, 23, 24, 26, 28, 31-33, 37-40
    2    7 N      2, 18, 22, 25, 29, 34
    3    8 O      4, 17, 27, 30, 35, 36
    4    1 H      41-72

           -------------------------------------------------
          |                Calculation Setup                |
           -------------------------------------------------

          program call               : C:\Users\Christian\Miniconda3\Library\bin\xtb.exe S06.xyz --gfn 2 --opt --alpb water
          coordinate file            : S06.xyz
          omp threads                :                    12


           -------------------------------------------------
          |                 G F N 2 - x T B                 |
           -------------------------------------------------

        Reference                      10.1021/acs.jctc.8b01176
      * Hamiltonian:
        H0-scaling (s, p, d)           1.850000    2.230000    2.230000
        zeta-weighting                 0.500000
      * Dispersion:
        s8                             2.700000
        a1                             0.520000
        a2                             5.000000
        s9                             5.000000
      * Repulsion:
        kExp                           1.500000    1.000000
        rExp                           1.000000
      * Coulomb:
        alpha                          2.000000
        third order                    shell-resolved
        anisotropic                    true
        a3                             3.000000
        a5                             4.000000
        cn-shift                       1.200000
        cn-exp                         4.000000
        max-rad                        5.000000

      * Solvation model:               ALPB
        Solvent                        water
        Parameter file                 internal GFN2-xTB/ALPB
        Dielectric constant                8.0200E+01
        Reference state                gsolv [1 M gas/solution]
        Free energy shift                  1.0808E-03 Eh       6.7819E-01 kcal/mol
        Temperature                        2.9815E+02 K
        Density                            1.0000E+00 kg/L
        Solvent mass                       1.8000E+01 g/mol
        Interaction kernel             P16
        Born radius scaling (c1)           1.4744E+00
        Born radii integrator          GBOBC
        Born offset                        0.0000E+00 a0       0.0000E+00 AA
        H-bond correction              true
        Ion screening                  false
        Surface tension                    1.0000E-05 Eh       1.5569E+01 dyn/cm
        Grid points                               230 per atom

          ...................................................
          :                      SETUP                      :
          :.................................................:
          :  # basis functions                 192          :
          :  # atomic orbitals                 192          :
          :  # shells                          112          :
          :  # electrons                       210          :
          :  max. iterations                   250          :
          :  Hamiltonian                  GFN2-xTB          :
          :  restarted?                      false          :
          :  GBSA solvation                   true          :
          :  PC potential                    false          :
          :  electronic temp.          300.0000000     K    :
          :  accuracy                    1.0000000          :
          :  -> integral cutoff          0.2500000E+02      :
          :  -> integral neglect         0.1000000E-07      :
          :  -> SCF convergence          0.1000000E-05 Eh   :
          :  -> wf. convergence          0.1000000E-03 e    :
          :  Broyden damping             0.4000000          :
          :  net charge                          0          :
          :  unpaired electrons                  0          :
          ...................................................

 iter      E             dE          RMSdq      gap      omega  full diag
   1   -119.2893418 -0.119289E+03  0.442E+00    1.78       0.0  T
   2   -119.5585081 -0.269166E+00  0.234E+00    1.07       1.0  T
   3   -119.5650928 -0.658468E-02  0.114E+00    0.67       1.0  T
   4   -119.5702866 -0.519381E-02  0.452E-01    0.45       1.0  T
   5   -119.5781568 -0.787023E-02  0.924E-02    0.38       1.0  T
   6   -119.5782475 -0.906716E-04  0.490E-02    0.39       1.0  T
   7   -119.5782667 -0.191854E-04  0.250E-02    0.41       1.0  T
   8   -119.5782792 -0.125033E-04  0.892E-03    0.42       1.3  T
   9   -119.5782809 -0.168212E-05  0.430E-03    0.42       2.7  T
  10   -119.5782811 -0.207203E-06  0.210E-03    0.42       5.6  T
  11   -119.5782811 -0.698350E-07  0.905E-04    0.42      13.0  T
  12   -119.5782812 -0.172389E-07  0.396E-04    0.42      29.8  T

   *** convergence criteria satisfied after 12 iterations ***

         #    Occupation            Energy/Eh            Energy/eV
      -------------------------------------------------------------
         1        2.0000           -0.7950160             -21.6335
       ...           ...                  ...                  ...
        99        2.0000           -0.4047817             -11.0147
       100        2.0000           -0.4038525             -10.9894
       101        2.0000           -0.3983144             -10.8387
       102        2.0000           -0.3976708             -10.8212
       103        2.0000           -0.3914434             -10.6517
       104        2.0000           -0.3858318             -10.4990
       105        1.9994           -0.3624581              -9.8630 (HOMO)
       106        0.0006           -0.3469864              -9.4420 (LUMO)
       107                         -0.3077050              -8.3731
       108                         -0.2554017              -6.9498
       109                         -0.2377764              -6.4702
       110                         -0.2299896              -6.2583
       ...                                ...                  ...
       192                          0.6142257              16.7139
      -------------------------------------------------------------
                  HL-Gap            0.0154717 Eh            0.4210 eV
             Fermi-level           -0.3547222 Eh           -9.6525 eV

 SCC (total)                   0 d,  0 h,  0 min,  0.089 sec
 SCC setup                      ...        0 min,  0.001 sec (  1.539%)
 Dispersion                     ...        0 min,  0.002 sec (  2.521%)
 classical contributions        ...        0 min,  0.000 sec (  0.178%)
 integral evaluation            ...        0 min,  0.005 sec (  5.850%)
 iterations                     ...        0 min,  0.058 sec ( 65.616%)
 molecular gradient             ...        0 min,  0.021 sec ( 23.449%)
 printout                       ...        0 min,  0.001 sec (  0.815%)

         :::::::::::::::::::::::::::::::::::::::::::::::::::::
         ::                     SUMMARY                     ::
         :::::::::::::::::::::::::::::::::::::::::::::::::::::
         :: total energy            -118.155163805179 Eh    ::
         :: total w/o Gsasa/hb      -118.150860588015 Eh    ::
         :: gradient norm              0.130629162116 Eh/a0 ::
         :: HOMO-LUMO gap              0.421006453150 eV    ::
         ::.................................................::
         :: SCC energy              -119.577609802591 Eh    ::
         :: -> isotropic ES            0.236744139485 Eh    ::
         :: -> anisotropic ES          0.011752824235 Eh    ::
         :: -> anisotropic XC          0.051167093443 Eh    ::
         :: -> dispersion             -0.079533268331 Eh    ::
         :: -> Gsolv                  -0.053032729477 Eh    ::
         ::    -> Gelec               -0.048729512313 Eh    ::
         ::    -> Gsasa                0.004440412428 Eh    ::
         ::    -> Ghb                 -0.009824389290 Eh    ::
         ::    -> Gshift               0.001080759698 Eh    ::
         :: repulsion energy           1.422445997412 Eh    ::
         :: add. restraining           0.000000000000 Eh    ::
         :: total charge               0.000000000000 e     ::
         :::::::::::::::::::::::::::::::::::::::::::::::::::::

      ----------------------------------------------------------- 
     |                   =====================                   |
     |                        A N C O P T                        |
     |                   =====================                   |
     |               Approximate Normal Coordinate               |
     |                Rational Function Optimizer                |
      ----------------------------------------------------------- 
      ----------------------------------------------------------- 
     |                   =====================                   |
     |                        A N C O P T                        |
     |                   =====================                   |
     |               Approximate Normal Coordinate               |
     |                Rational Function Optimizer                |
      ----------------------------------------------------------- 

          ...................................................
          :                      SETUP                      :
          :.................................................:
          :   optimization level            normal          :
          :   max. optcycles                   216          :
          :   ANC micro-cycles                  20          :
          :   degrees of freedom               210          :
          :.................................................:
          :   RF solver                   davidson          :
          :   write xtbopt.log                true          :
          :   linear?                        false          :
          :   energy convergence         0.5000000E-05 Eh   :
          :   grad. convergence          0.1000000E-02 Eh/α :
          :   maxmium RF displ.          1.0000000          :
          :   Hlow (freq-cutoff)         0.1000000E-01      :
          :   Hmax (freq-cutoff)         5.0000000          :
          :   S6 in model hess.         20.0000000          :
          ...................................................

generating ANC from exact Hessian ...
Using Lindh-Hessian (1995)
 Shifting diagonal of input Hessian by    9.9306389022587663E-003
 Lowest  eigenvalues of input Hessian
    0.000000    0.000000    0.000000    0.000000    0.000000    0.000000
    0.010000    0.010024    0.010030    0.010193    0.010284    0.010341
    0.010384    0.010560    0.010997    0.011151    0.011233    0.011762
 Highest eigenvalues
    1.954034    2.176763    2.214667    2.218569    2.250356    2.522682


........................................................................
.............................. CYCLE    1 ..............................
........................................................................

 iter      E             dE          RMSdq      gap      omega  full diag
   1   -119.5782812 -0.119578E+03  0.186E-04    0.42       0.0  T
   2   -119.5782812 -0.322032E-09  0.124E-04    0.42      95.2  T
   3   -119.5782812 -0.854925E-10  0.753E-05    0.42     156.5  T
     SCC iter.                  ...        0 min,  0.014 sec
     gradient                   ...        0 min,  0.019 sec
 * total energy  :  -118.1551638 Eh     change       -0.2209418E-08 Eh
   gradient norm :     0.1306254 Eh/α   predicted     0.0000000E+00 (-100.00%)
   displ. norm   :     0.3606436 α      lambda       -0.2412277E-01
   maximum displ.:     0.1227707 α      in ANC's #70, #20, #59, ...

........................................................................
.............................. CYCLE    2 ..............................
........................................................................

 iter      E             dE          RMSdq      gap      omega  full diag
   1   -119.6511446 -0.119651E+03  0.202E-01    0.65       0.0  T
   2   -119.6516237 -0.479085E-03  0.120E-01    0.70       1.0  T
   3   -119.6516467 -0.230365E-04  0.565E-02    0.70       1.0  T
   4   -119.6516683 -0.215998E-04  0.150E-02    0.71       1.0  T
   5   -119.6516782 -0.985290E-05  0.489E-03    0.71       2.4  T
   6   -119.6516786 -0.424810E-06  0.248E-03    0.71       4.8  T
   7   -119.6516786 -0.312022E-07  0.103E-03    0.70      11.5  T
   8   -119.6516786 -0.208148E-07  0.377E-04    0.70      31.2  T
   9   -119.6516786 -0.351805E-08  0.175E-04    0.70      67.5  T
     SCC iter.                  ...        0 min,  0.047 sec
     gradient                   ...        0 min,  0.019 sec
 * total energy  :  -118.1719696 Eh     change       -0.1680582E-01 Eh
   gradient norm :     0.0576591 Eh/α   predicted    -0.1364695E-01 ( -18.80%)
   displ. norm   :     0.4079329 α      lambda       -0.9088979E-02
   maximum displ.:     0.1703575 α      in ANC's #20, #17, #19, ...

........................................................................
.............................. CYCLE    3 ..............................
........................................................................

 iter      E             dE          RMSdq      gap      omega  full diag
   1   -119.6937062 -0.119694E+03  0.154E-01    0.78       0.0  T
   2   -119.6941777 -0.471482E-03  0.875E-02    0.83       1.0  T
   3   -119.6942122 -0.345083E-04  0.462E-02    0.84       1.0  T
   4   -119.6942144 -0.226776E-05  0.146E-02    0.84       1.0  T
   5   -119.6942239 -0.943973E-05  0.388E-03    0.84       3.0  T
   6   -119.6942241 -0.223349E-06  0.197E-03    0.84       6.0  T
   7   -119.6942241 -0.241186E-07  0.854E-04    0.84      13.8  T
   8   -119.6942241 -0.126009E-07  0.318E-04    0.84      37.0  T
     SCC iter.                  ...        0 min,  0.039 sec
     gradient                   ...        0 min,  0.019 sec
 * total energy  :  -118.1773027 Eh     change       -0.5333077E-02 Eh
   gradient norm :     0.0219125 Eh/α   predicted    -0.5300736E-02 (  -0.61%)
   displ. norm   :     0.4248026 α      lambda       -0.3957079E-02
   maximum displ.:     0.1925252 α      in ANC's #17, #20, #34, ...

........................................................................
.............................. CYCLE    4 ..............................
........................................................................

 iter      E             dE          RMSdq      gap      omega  full diag
   1   -119.7040891 -0.119704E+03  0.110E-01    0.77       0.0  T
   2   -119.7042141 -0.125000E-03  0.614E-02    0.81       1.0  T
   3   -119.7042186 -0.455652E-05  0.280E-02    0.82       1.0  T
   4   -119.7042235 -0.488412E-05  0.782E-03    0.83       1.5  T
   5   -119.7042262 -0.271590E-05  0.283E-03    0.83       4.2  T
   6   -119.7042263 -0.900224E-07  0.132E-03    0.83       9.0  T
   7   -119.7042263 -0.161387E-07  0.540E-04    0.83      21.8  T
   8   -119.7042263 -0.594926E-08  0.220E-04    0.83      53.7  T
     SCC iter.                  ...        0 min,  0.036 sec
     gradient                   ...        0 min,  0.017 sec
 * total energy  :  -118.1796923 Eh     change       -0.2389577E-02 Eh
   gradient norm :     0.0270973 Eh/α   predicted    -0.2335582E-02 (  -2.26%)
   displ. norm   :     0.4760102 α      lambda       -0.3232768E-02
   maximum displ.:     0.2291352 α      in ANC's #17, #20, #34, ...

........................................................................
.............................. CYCLE    5 ..............................
........................................................................

 iter      E             dE          RMSdq      gap      omega  full diag
   1   -119.7034926 -0.119703E+03  0.989E-02    0.76       0.0  T
   2   -119.7035349 -0.422838E-04  0.564E-02    0.78       1.0  T
   3   -119.7035347  0.168824E-06  0.180E-02    0.79       1.0  T
   4   -119.7035408 -0.610607E-05  0.554E-03    0.80       2.1  T
   5   -119.7035418 -0.971061E-06  0.271E-03    0.80       4.3  T
   6   -119.7035419 -0.672711E-07  0.108E-03    0.80      11.0  T
   7   -119.7035419 -0.171981E-07  0.411E-04    0.80      28.7  T
   8   -119.7035419 -0.378051E-08  0.183E-04    0.80      64.3  T
     SCC iter.                  ...        0 min,  0.042 sec
     gradient                   ...        0 min,  0.020 sec
 * total energy  :  -118.1821890 Eh     change       -0.2496670E-02 Eh
   gradient norm :     0.0212975 Eh/α   predicted    -0.1982640E-02 ( -20.59%)
   displ. norm   :     0.5459139 α      lambda       -0.2614903E-02
   maximum displ.:     0.2799003 α      in ANC's #17, #11, #16, ...

........................................................................
.............................. CYCLE    6 ..............................
........................................................................

 iter      E             dE          RMSdq      gap      omega  full diag
   1   -119.7022496 -0.119702E+03  0.109E-01    0.72       0.0  T
   2   -119.7022825 -0.329169E-04  0.643E-02    0.73       1.0  T
   3   -119.7022800  0.252073E-05  0.178E-02    0.74       1.0  T
   4   -119.7022895 -0.956403E-05  0.499E-03    0.74       2.4  T
   5   -119.7022899 -0.409704E-06  0.270E-03    0.74       4.4  T
   6   -119.7022900 -0.513212E-07  0.769E-04    0.74      15.3  T
   7   -119.7022900 -0.113772E-07  0.300E-04    0.74      39.3  T
     SCC iter.                  ...        0 min,  0.033 sec
     gradient                   ...        0 min,  0.020 sec
 * total energy  :  -118.1841290 Eh     change       -0.1940075E-02 Eh
   gradient norm :     0.0188401 Eh/α   predicted    -0.1697105E-02 ( -12.52%)
   displ. norm   :     0.5206561 α      lambda       -0.1773581E-02
   maximum displ.:     0.2818232 α      in ANC's #17, #11, #24, ...

........................................................................
.............................. CYCLE    7 ..............................
........................................................................

 iter      E             dE          RMSdq      gap      omega  full diag
   1   -119.7042543 -0.119704E+03  0.956E-02    0.75       0.0  T
   2   -119.7042728 -0.184788E-04  0.558E-02    0.75       1.0  T
   3   -119.7042685  0.433219E-05  0.157E-02    0.75       1.0  T
   4   -119.7042771 -0.861351E-05  0.399E-03    0.75       3.0  T
   5   -119.7042774 -0.308357E-06  0.198E-03    0.75       5.9  T
   6   -119.7042774 -0.215722E-07  0.756E-04    0.75      15.6  T
   7   -119.7042774 -0.586047E-08  0.285E-04    0.75      41.3  T
     SCC iter.                  ...        0 min,  0.039 sec
     gradient                   ...        0 min,  0.020 sec
 * total energy  :  -118.1855309 Eh     change       -0.1401861E-02 Eh
   gradient norm :     0.0163851 Eh/α   predicted    -0.1127193E-02 ( -19.59%)
   displ. norm   :     0.5613381 α      lambda       -0.1650702E-02
   maximum displ.:     0.3157549 α      in ANC's #17, #11, #26, ...

........................................................................
.............................. CYCLE    8 ..............................
........................................................................

 iter      E             dE          RMSdq      gap      omega  full diag
   1   -119.7097786 -0.119710E+03  0.944E-02    0.74       0.0  T
   2   -119.7097982 -0.195728E-04  0.558E-02    0.73       1.0  T
   3   -119.7097919  0.626442E-05  0.172E-02    0.74       1.0  T
   4   -119.7098038 -0.119197E-04  0.399E-03    0.74       3.0  T
   5   -119.7098040 -0.194476E-06  0.213E-03    0.74       5.5  T
   6   -119.7098041 -0.333869E-07  0.712E-04    0.74      16.6  T
   7   -119.7098041 -0.773130E-08  0.284E-04    0.74      41.5  T
     SCC iter.                  ...        0 min,  0.036 sec
     gradient                   ...        0 min,  0.020 sec
 * total energy  :  -118.1868324 Eh     change       -0.1301484E-02 Eh
   gradient norm :     0.0133102 Eh/α   predicted    -0.1085428E-02 ( -16.60%)
   displ. norm   :     0.5838921 α      lambda       -0.1410895E-02
   maximum displ.:     0.3365242 α      in ANC's #17, #11, #24, ...

........................................................................
.............................. CYCLE    9 ..............................
........................................................................

 iter      E             dE          RMSdq      gap      omega  full diag
   1   -119.7132413 -0.119713E+03  0.104E-01    0.76       0.0  T
   2   -119.7132837 -0.424064E-04  0.594E-02    0.76       1.0  T
   3   -119.7132828  0.912995E-06  0.209E-02    0.75       1.0  T
   4   -119.7132895 -0.672026E-05  0.453E-03    0.75       2.6  T
   5   -119.7132901 -0.576713E-06  0.225E-03    0.75       5.2  T
   6   -119.7132901 -0.387619E-07  0.892E-04    0.75      13.2  T
   7   -119.7132901 -0.910423E-08  0.328E-04    0.75      35.9  T
     SCC iter.                  ...        0 min,  0.035 sec
     gradient                   ...        0 min,  0.018 sec
 * total energy  :  -118.1878098 Eh     change       -0.9773889E-03 Eh
   gradient norm :     0.0158230 Eh/α   predicted    -0.9459558E-03 (  -3.22%)
   displ. norm   :     0.5099698 α      lambda       -0.1229502E-02
   maximum displ.:     0.2971999 α      in ANC's #17, #24, #11, ...

........................................................................
.............................. CYCLE   10 ..............................
........................................................................

 iter      E             dE          RMSdq      gap      omega  full diag
   1   -119.7199422 -0.119720E+03  0.858E-02    0.73       0.0  T
   2   -119.7199987 -0.565844E-04  0.501E-02    0.72       1.0  T
   3   -119.7200014 -0.260827E-05  0.216E-02    0.73       1.0  T
   4   -119.7200071 -0.574714E-05  0.375E-03    0.73       3.1  T
   5   -119.7200073 -0.197785E-06  0.200E-03    0.73       5.9  T
   6   -119.7200073 -0.303499E-07  0.779E-04    0.73      15.1  T
   7   -119.7200073 -0.951978E-08  0.337E-04    0.73      35.0  T
     SCC iter.                  ...        0 min,  0.038 sec
     gradient                   ...        0 min,  0.020 sec
 * total energy  :  -118.1884849 Eh     change       -0.6751546E-03 Eh
   gradient norm :     0.0151073 Eh/α   predicted    -0.7746297E-03 (  14.73%)
   displ. norm   :     0.4577385 α      lambda       -0.7162510E-03
   maximum displ.:     0.2706561 α      in ANC's #17, #34, #11, ...

........................................................................
.............................. CYCLE   11 ..............................
........................................................................

 iter      E             dE          RMSdq      gap      omega  full diag
   1   -119.7132672 -0.119713E+03  0.846E-02    0.63       0.0  T
   2   -119.7133086 -0.413775E-04  0.488E-02    0.65       1.0  T
   3   -119.7133089 -0.281566E-06  0.181E-02    0.65       1.0  T
   4   -119.7133143 -0.542125E-05  0.478E-03    0.66       2.5  T
   5   -119.7133149 -0.608022E-06  0.236E-03    0.66       5.0  T
   6   -119.7133150 -0.700907E-07  0.118E-03    0.66      10.0  T
   7   -119.7133150 -0.157021E-07  0.397E-04    0.66      29.7  T
   8   -119.7133150 -0.385972E-08  0.164E-04    0.66      71.9  T
     SCC iter.                  ...        0 min,  0.035 sec
     gradient                   ...        0 min,  0.021 sec
 * total energy  :  -118.1888127 Eh     change       -0.3277797E-03 Eh
   gradient norm :     0.0173736 Eh/α   predicted    -0.4331814E-03 (  32.16%)
   displ. norm   :     0.2727808 α      lambda       -0.8780492E-03
   maximum displ.:     0.1427248 α      in ANC's #17, #30, #8, ...

........................................................................
.............................. CYCLE   12 ..............................
........................................................................

 iter      E             dE          RMSdq      gap      omega  full diag
   1   -119.7184174 -0.119718E+03  0.651E-02    0.78       0.0  T
   2   -119.7184864 -0.690443E-04  0.355E-02    0.77       1.0  T
   3   -119.7184904 -0.396773E-05  0.180E-02    0.75       1.0  T
   4   -119.7184915 -0.114240E-05  0.602E-03    0.75       2.0  T
   5   -119.7184923 -0.782689E-06  0.216E-03    0.75       5.5  T
   6   -119.7184924 -0.985905E-07  0.112E-03    0.75      10.6  T
   7   -119.7184924 -0.837815E-08  0.439E-04    0.75      26.8  T
   8   -119.7184924 -0.386017E-08  0.197E-04    0.75      59.9  T
     SCC iter.                  ...        0 min,  0.051 sec
     gradient                   ...        0 min,  0.020 sec
 * total energy  :  -118.1891268 Eh     change       -0.3141476E-03 Eh
   gradient norm :     0.0175670 Eh/α   predicted    -0.4716922E-03 (  50.15%)
   displ. norm   :     0.1549004 α      lambda       -0.4896203E-03
   maximum displ.:     0.0619001 α      in ANC's #17, #34, #9, ...

........................................................................
.............................. CYCLE   13 ..............................
........................................................................

 iter      E             dE          RMSdq      gap      omega  full diag
   1   -119.7196521 -0.119720E+03  0.358E-02    0.69       0.0  T
   2   -119.7196709 -0.188552E-04  0.199E-02    0.70       1.0  T
   3   -119.7196725 -0.157731E-05  0.100E-02    0.70       1.2  T
   4   -119.7196731 -0.625851E-06  0.258E-03    0.71       4.6  T
   5   -119.7196732 -0.981934E-07  0.112E-03    0.71      10.6  T
   6   -119.7196732 -0.119529E-07  0.532E-04    0.71      22.2  T
   7   -119.7196732 -0.286529E-08  0.232E-04    0.71      50.8  T
     SCC iter.                  ...        0 min,  0.035 sec
     gradient                   ...        0 min,  0.021 sec
 * total energy  :  -118.1894647 Eh     change       -0.3378649E-03 Eh
   gradient norm :     0.0073978 Eh/α   predicted    -0.2506858E-03 ( -25.80%)
   displ. norm   :     0.3319970 α      lambda       -0.3925851E-03
   maximum displ.:     0.1601256 α      in ANC's #17, #8, #9, ...

........................................................................
.............................. CYCLE   14 ..............................
........................................................................

 iter      E             dE          RMSdq      gap      omega  full diag
   1   -119.7168689 -0.119717E+03  0.607E-02    0.67       0.0  T
   2   -119.7169024 -0.335034E-04  0.342E-02    0.67       1.0  T
   3   -119.7169043 -0.185470E-05  0.147E-02    0.68       1.0  T
   4   -119.7169054 -0.112207E-05  0.276E-03    0.68       4.3  T
   5   -119.7169055 -0.138446E-06  0.153E-03    0.68       7.7  T
   6   -119.7169055 -0.233237E-07  0.613E-04    0.68      19.2  T
   7   -119.7169055 -0.872930E-08  0.267E-04    0.68      44.1  T
     SCC iter.                  ...        0 min,  0.038 sec
     gradient                   ...        0 min,  0.018 sec
 * total energy  :  -118.1896854 Eh     change       -0.2206633E-03 Eh
   gradient norm :     0.0093492 Eh/α   predicted    -0.2179496E-03 (  -1.23%)
   displ. norm   :     0.1841808 α      lambda       -0.2382170E-03
   maximum displ.:     0.0762243 α      in ANC's #8, #9, #13, ...

........................................................................
.............................. CYCLE   15 ..............................
........................................................................

 iter      E             dE          RMSdq      gap      omega  full diag
   1   -119.7200242 -0.119720E+03  0.370E-02    0.66       0.0  T
   2   -119.7200340 -0.979069E-05  0.210E-02    0.66       1.0  T
   3   -119.7200344 -0.438217E-06  0.787E-03    0.67       1.5  T
   4   -119.7200348 -0.380740E-06  0.175E-03    0.67       6.7  T
   5   -119.7200349 -0.741261E-07  0.940E-04    0.67      12.5  T
   6   -119.7200349 -0.826975E-08  0.302E-04    0.67      39.0  T
     SCC iter.                  ...        0 min,  0.031 sec
     gradient                   ...        0 min,  0.022 sec
 * total energy  :  -118.1898096 Eh     change       -0.1242081E-03 Eh
   gradient norm :     0.0084252 Eh/α   predicted    -0.1231545E-03 (  -0.85%)
   displ. norm   :     0.1811356 α      lambda       -0.1781872E-03
   maximum displ.:     0.0675539 α      in ANC's #8, #9, #13, ...

........................................................................
.............................. CYCLE   16 ..............................
........................................................................

 iter      E             dE          RMSdq      gap      omega  full diag
   1   -119.7181422 -0.119718E+03  0.319E-02    0.70       0.0  T
   2   -119.7181511 -0.889665E-05  0.181E-02    0.69       1.0  T
   3   -119.7181514 -0.333945E-06  0.777E-03    0.69       1.5  T
   4   -119.7181517 -0.274924E-06  0.197E-03    0.69       6.0  T
   5   -119.7181518 -0.134587E-06  0.839E-04    0.69      14.0  T
   6   -119.7181518 -0.669013E-08  0.395E-04    0.69      29.8  T
     SCC iter.                  ...        0 min,  0.027 sec
     gradient                   ...        0 min,  0.017 sec
 * total energy  :  -118.1899008 Eh     change       -0.9121784E-04 Eh
   gradient norm :     0.0065125 Eh/α   predicted    -0.9202202E-04 (   0.88%)
   displ. norm   :     0.1141759 α      lambda       -0.1349243E-03
   maximum displ.:     0.0453492 α      in ANC's #17, #9, #8, ...

........................................................................
.............................. CYCLE   17 ..............................
........................................................................

 iter      E             dE          RMSdq      gap      omega  full diag
   1   -119.7208498 -0.119721E+03  0.236E-02    0.72       0.0  T
   2   -119.7208569 -0.704443E-05  0.129E-02    0.72       1.0  T
   3   -119.7208571 -0.257874E-06  0.628E-03    0.72       1.9  T
   4   -119.7208572 -0.606058E-07  0.150E-03    0.72       7.8  T
   5   -119.7208573 -0.932318E-07  0.600E-04    0.72      19.7  T
   6   -119.7208573 -0.386123E-08  0.288E-04    0.72      41.0  T
     SCC iter.                  ...        0 min,  0.031 sec
     gradient                   ...        0 min,  0.020 sec
 * total energy  :  -118.1899656 Eh     change       -0.6477430E-04 Eh
   gradient norm :     0.0054123 Eh/α   predicted    -0.6834265E-04 (   5.51%)
   displ. norm   :     0.1361497 α      lambda       -0.1064532E-03
   maximum displ.:     0.0542878 α      in ANC's #9, #8, #13, ...

........................................................................
.............................. CYCLE   18 ..............................
........................................................................

 iter      E             dE          RMSdq      gap      omega  full diag
   1   -119.7196622 -0.119720E+03  0.227E-02    0.70       0.0  T
   2   -119.7196663 -0.404845E-05  0.130E-02    0.70       1.0  T
   3   -119.7196663 -0.568018E-07  0.568E-03    0.70       2.1  T
   4   -119.7196666 -0.297767E-06  0.138E-03    0.70       8.5  T
   5   -119.7196667 -0.824253E-07  0.498E-04    0.70      23.7  T
   6   -119.7196667 -0.294732E-08  0.240E-04    0.70      49.1  T
     SCC iter.                  ...        0 min,  0.027 sec
     gradient                   ...        0 min,  0.019 sec
 * total energy  :  -118.1900428 Eh     change       -0.7723234E-04 Eh
   gradient norm :     0.0056270 Eh/α   predicted    -0.5421648E-04 ( -29.80%)
   displ. norm   :     0.2617595 α      lambda       -0.1723733E-03
   maximum displ.:     0.1085000 α      in ANC's #9, #8, #13, ...

........................................................................
.............................. CYCLE   19 ..............................
........................................................................

 iter      E             dE          RMSdq      gap      omega  full diag
   1   -119.7190419 -0.119719E+03  0.423E-02    0.69       0.0  T
   2   -119.7190469 -0.496688E-05  0.246E-02    0.69       1.0  T
   3   -119.7190467  0.221236E-06  0.618E-03    0.69       1.9  T
   4   -119.7190474 -0.730403E-06  0.180E-03    0.69       6.6  T
   5   -119.7190475 -0.121759E-06  0.834E-04    0.69      14.1  T
   6   -119.7190475 -0.627762E-08  0.360E-04    0.69      32.7  T
     SCC iter.                  ...        0 min,  0.034 sec
     gradient                   ...        0 min,  0.020 sec
 * total energy  :  -118.1901592 Eh     change       -0.1163671E-03 Eh
   gradient norm :     0.0059937 Eh/α   predicted    -0.9209353E-04 ( -20.86%)
   displ. norm   :     0.2938011 α      lambda       -0.1415651E-03
   maximum displ.:     0.1150873 α      in ANC's #9, #8, #13, ...

........................................................................
.............................. CYCLE   20 ..............................
........................................................................

 iter      E             dE          RMSdq      gap      omega  full diag
   1   -119.7183562 -0.119718E+03  0.461E-02    0.70       0.0  T
   2   -119.7183591 -0.286698E-05  0.269E-02    0.70       1.0  T
   3   -119.7183588  0.281119E-06  0.449E-03    0.70       2.6  T
   4   -119.7183595 -0.680367E-06  0.126E-03    0.70       9.4  T
   5   -119.7183595 -0.419429E-07  0.656E-04    0.70      18.0  T
   6   -119.7183595 -0.354981E-08  0.267E-04    0.70      44.1  T
     SCC iter.                  ...        0 min,  0.028 sec
     gradient                   ...        0 min,  0.019 sec
 * total energy  :  -118.1902447 Eh     change       -0.8555448E-04 Eh
   gradient norm :     0.0068726 Eh/α   predicted    -0.7689464E-04 ( -10.12%)
   displ. norm   :     0.2583570 α      lambda       -0.1404794E-03
   maximum displ.:     0.1015026 α      in ANC's #12, #9, #2, ...
 * RMSD in coord.:     0.6282647 α      energy gain  -0.3508092E-01 Eh

generating ANC from exact Hessian ...
Using Lindh-Hessian (1995)
 Shifting diagonal of input Hessian by    9.9205877825376092E-003
 Lowest  eigenvalues of input Hessian
    0.000000    0.000000    0.000000    0.000000    0.000000    0.000000
    0.010000    0.010021    0.010033    0.010195    0.010313    0.010349
    0.010404    0.010578    0.010972    0.011372    0.011426    0.012058
 Highest eigenvalues
    2.054890    2.300164    2.302123    2.306293    2.350976    2.636417


........................................................................
.............................. CYCLE   21 ..............................
........................................................................

 iter      E             dE          RMSdq      gap      omega  full diag
   1   -119.7186325 -0.119719E+03  0.417E-02    0.70       0.0  T
   2   -119.7186349 -0.241783E-05  0.243E-02    0.70       1.0  T
   3   -119.7186349  0.105205E-07  0.377E-03    0.70       3.1  T
   4   -119.7186353 -0.338051E-06  0.123E-03    0.70       9.6  T
   5   -119.7186353 -0.340102E-07  0.654E-04    0.70      18.0  T
   6   -119.7186353 -0.444514E-08  0.169E-04    0.70      69.7  T
     SCC iter.                  ...        0 min,  0.027 sec
     gradient                   ...        0 min,  0.019 sec
 * total energy  :  -118.1903410 Eh     change       -0.9628897E-04 Eh
   gradient norm :     0.0053541 Eh/α   predicted     0.0000000E+00 (-100.00%)
   displ. norm   :     0.0436284 α      lambda       -0.5205624E-04
   maximum displ.:     0.0160213 α      in ANC's #17, #16, #12, ...

........................................................................
.............................. CYCLE   22 ..............................
........................................................................

 iter      E             dE          RMSdq      gap      omega  full diag
   1   -119.7201626 -0.119720E+03  0.107E-02    0.71       0.0  T
   2   -119.7201633 -0.676140E-06  0.616E-03    0.71       1.9  T
   3   -119.7201633 -0.142982E-07  0.217E-03    0.71       5.4  T
   4   -119.7201633 -0.346140E-07  0.488E-04    0.71      24.1  T
   5   -119.7201634 -0.819699E-08  0.238E-04    0.71      49.6  T
     SCC iter.                  ...        0 min,  0.026 sec
     gradient                   ...        0 min,  0.022 sec
 * total energy  :  -118.1903938 Eh     change       -0.5280750E-04 Eh
   gradient norm :     0.0026199 Eh/α   predicted    -0.3371013E-04 ( -36.16%)
   displ. norm   :     0.1084538 α      lambda       -0.9051235E-04
   maximum displ.:     0.0404963 α      in ANC's #12, #16, #17, ...

........................................................................
.............................. CYCLE   23 ..............................
........................................................................

 iter      E             dE          RMSdq      gap      omega  full diag
   1   -119.7216344 -0.119722E+03  0.207E-02    0.72       0.0  T
   2   -119.7216358 -0.142258E-05  0.121E-02    0.71       1.0  T
   3   -119.7216358  0.419395E-07  0.326E-03    0.71       3.6  T
   4   -119.7216359 -0.184311E-06  0.880E-04    0.71      13.4  T
   5   -119.7216360 -0.295716E-07  0.428E-04    0.71      27.5  T
     SCC iter.                  ...        0 min,  0.024 sec
     gradient                   ...        0 min,  0.018 sec
 * total energy  :  -118.1904461 Eh     change       -0.5229356E-04 Eh
   gradient norm :     0.0027191 Eh/α   predicted    -0.4578891E-04 ( -12.44%)
   displ. norm   :     0.0908568 α      lambda       -0.4456899E-04
   maximum displ.:     0.0372280 α      in ANC's #12, #2, #16, ...

........................................................................
.............................. CYCLE   24 ..............................
........................................................................

 iter      E             dE          RMSdq      gap      omega  full diag
   1   -119.7214200 -0.119721E+03  0.163E-02    0.71       0.0  T
   2   -119.7214203 -0.258570E-06  0.953E-03    0.71       1.2  T
   3   -119.7214203 -0.266218E-08  0.140E-03    0.71       8.4  T
   4   -119.7214203 -0.733978E-07  0.588E-04    0.71      20.0  T
   5   -119.7214203 -0.402758E-08  0.305E-04    0.71      38.7  T
     SCC iter.                  ...        0 min,  0.023 sec
     gradient                   ...        0 min,  0.019 sec
 * total energy  :  -118.1904701 Eh     change       -0.2396388E-04 Eh
   gradient norm :     0.0033020 Eh/α   predicted    -0.2246926E-04 (  -6.24%)
   displ. norm   :     0.0957877 α      lambda       -0.3868196E-04
   maximum displ.:     0.0411319 α      in ANC's #12, #2, #15, ...

........................................................................
.............................. CYCLE   25 ..............................
........................................................................

 iter      E             dE          RMSdq      gap      omega  full diag
   1   -119.7207014 -0.119721E+03  0.151E-02    0.71       0.0  T
   2   -119.7207016 -0.191533E-06  0.879E-03    0.71       1.3  T
   3   -119.7207016 -0.249357E-07  0.101E-03    0.71      11.7  T
   4   -119.7207017 -0.288400E-07  0.510E-04    0.71      23.1  T
   5   -119.7207017 -0.493787E-08  0.244E-04    0.71      48.4  T
     SCC iter.                  ...        0 min,  0.025 sec
     gradient                   ...        0 min,  0.019 sec
 * total energy  :  -118.1905023 Eh     change       -0.3226114E-04 Eh
   gradient norm :     0.0027140 Eh/α   predicted    -0.1952091E-04 ( -39.49%)
   displ. norm   :     0.2365659 α      lambda       -0.8645826E-04
   maximum displ.:     0.1020050 α      in ANC's #12, #2, #15, ...

........................................................................
.............................. CYCLE   26 ..............................
........................................................................

 iter      E             dE          RMSdq      gap      omega  full diag
   1   -119.7187296 -0.119719E+03  0.369E-02    0.70       0.0  T
   2   -119.7187309 -0.128279E-05  0.216E-02    0.70       1.0  T
   3   -119.7187310 -0.111935E-06  0.262E-03    0.70       4.5  T
   4   -119.7187312 -0.204910E-06  0.123E-03    0.70       9.6  T
   5   -119.7187312 -0.254717E-07  0.628E-04    0.70      18.8  T
   6   -119.7187312 -0.552912E-08  0.192E-04    0.70      61.4  T
     SCC iter.                  ...        0 min,  0.027 sec
     gradient                   ...        0 min,  0.018 sec
 * total energy  :  -118.1905576 Eh     change       -0.5525064E-04 Eh
   gradient norm :     0.0035879 Eh/α   predicted    -0.4567539E-04 ( -17.33%)
   displ. norm   :     0.1259184 α      lambda       -0.3967424E-04
   maximum displ.:     0.0532434 α      in ANC's #2, #12, #15, ...

........................................................................
.............................. CYCLE   27 ..............................
........................................................................

 iter      E             dE          RMSdq      gap      omega  full diag
   1   -119.7185929 -0.119719E+03  0.199E-02    0.70       0.0  T
   2   -119.7185932 -0.236567E-06  0.117E-02    0.70       1.0  T
   3   -119.7185931  0.298039E-07  0.152E-03    0.70       7.8  T
   4   -119.7185933 -0.112422E-06  0.589E-04    0.70      20.0  T
   5   -119.7185933 -0.366872E-08  0.283E-04    0.70      41.7  T
     SCC iter.                  ...        0 min,  0.031 sec
     gradient                   ...        0 min,  0.019 sec
 * total energy  :  -118.1905904 Eh     change       -0.3281790E-04 Eh
   gradient norm :     0.0038604 Eh/α   predicted    -0.2021089E-04 ( -38.42%)
   displ. norm   :     0.2394336 α      lambda       -0.8706542E-04
   maximum displ.:     0.1048724 α      in ANC's #2, #15, #12, ...

........................................................................
.............................. CYCLE   28 ..............................
........................................................................

 iter      E             dE          RMSdq      gap      omega  full diag
   1   -119.7193825 -0.119719E+03  0.385E-02    0.71       0.0  T
   2   -119.7193832 -0.738937E-06  0.225E-02    0.71       1.0  T
   3   -119.7193831  0.173931E-06  0.294E-03    0.71       4.0  T
   4   -119.7193835 -0.458788E-06  0.105E-03    0.71      11.2  T
   5   -119.7193835 -0.905550E-08  0.427E-04    0.71      27.6  T
   6   -119.7193835 -0.230411E-08  0.151E-04    0.71      78.0  T
     SCC iter.                  ...        0 min,  0.028 sec
     gradient                   ...        0 min,  0.019 sec
 * total energy  :  -118.1906536 Eh     change       -0.6318730E-04 Eh
   gradient norm :     0.0032673 Eh/α   predicted    -0.4602964E-04 ( -27.15%)
   displ. norm   :     0.2722225 α      lambda       -0.6151477E-04
   maximum displ.:     0.1196180 α      in ANC's #2, #15, #12, ...

........................................................................
.............................. CYCLE   29 ..............................
........................................................................

 iter      E             dE          RMSdq      gap      omega  full diag
   1   -119.7191155 -0.119719E+03  0.429E-02    0.71       0.0  T
   2   -119.7191166 -0.103351E-05  0.250E-02    0.71       1.0  T
   3   -119.7191165  0.537305E-07  0.297E-03    0.71       4.0  T
   4   -119.7191169 -0.397523E-06  0.127E-03    0.71       9.2  T
   5   -119.7191169 -0.248234E-07  0.591E-04    0.71      19.9  T
   6   -119.7191169 -0.384273E-08  0.172E-04    0.71      68.6  T
     SCC iter.                  ...        0 min,  0.032 sec
     gradient                   ...        0 min,  0.019 sec
 * total energy  :  -118.1906965 Eh     change       -0.4285819E-04 Eh
   gradient norm :     0.0034573 Eh/α   predicted    -0.3303709E-04 ( -22.92%)
   displ. norm   :     0.2111699 α      lambda       -0.7122922E-04
   maximum displ.:     0.1012629 α      in ANC's #2, #15, #12, ...

........................................................................
.............................. CYCLE   30 ..............................
........................................................................

 iter      E             dE          RMSdq      gap      omega  full diag
   1   -119.7218533 -0.119722E+03  0.370E-02    0.72       0.0  T
   2   -119.7218550 -0.161265E-05  0.214E-02    0.72       1.0  T
   3   -119.7218549  0.574892E-07  0.325E-03    0.72       3.6  T
   4   -119.7218552 -0.334126E-06  0.122E-03    0.72       9.7  T
   5   -119.7218553 -0.379790E-07  0.603E-04    0.72      19.5  T
   6   -119.7218553 -0.249818E-08  0.196E-04    0.72      60.0  T
     SCC iter.                  ...        0 min,  0.029 sec
     gradient                   ...        0 min,  0.020 sec
 * total energy  :  -118.1907278 Eh     change       -0.3135460E-04 Eh
   gradient norm :     0.0031138 Eh/α   predicted    -0.3721537E-04 (  18.69%)
   displ. norm   :     0.3018106 α      lambda       -0.5235522E-04
   maximum displ.:     0.1325931 α      in ANC's #2, #12, #15, ...

........................................................................
.............................. CYCLE   31 ..............................
........................................................................

 iter      E             dE          RMSdq      gap      omega  full diag
   1   -119.7193568 -0.119719E+03  0.490E-02    0.72       0.0  T
   2   -119.7193584 -0.165170E-05  0.285E-02    0.72       1.0  T
   3   -119.7193585 -0.825495E-07  0.324E-03    0.72       3.6  T
   4   -119.7193589 -0.398275E-06  0.153E-03    0.72       7.7  T
   5   -119.7193589 -0.384277E-07  0.771E-04    0.72      15.3  T
   6   -119.7193589 -0.756570E-08  0.201E-04    0.72      58.7  T
     SCC iter.                  ...        0 min,  0.030 sec
     gradient                   ...        0 min,  0.017 sec
 * total energy  :  -118.1907530 Eh     change       -0.2522242E-04 Eh
   gradient norm :     0.0036344 Eh/α   predicted    -0.2856370E-04 (  13.25%)
   displ. norm   :     0.0340386 α      lambda       -0.3027867E-04
   maximum displ.:     0.0106701 α      in ANC's #10, #8, #17, ...

........................................................................
.............................. CYCLE   32 ..............................
........................................................................

 iter      E             dE          RMSdq      gap      omega  full diag
   1   -119.7203779 -0.119720E+03  0.783E-03    0.72       0.0  T
   2   -119.7203781 -0.159181E-06  0.447E-03    0.72       2.6  T
   3   -119.7203781  0.281000E-08  0.969E-04    0.72      12.2  T
   4   -119.7203781 -0.225719E-07  0.310E-04    0.72      38.0  T
     SCC iter.                  ...        0 min,  0.019 sec
     gradient                   ...        0 min,  0.019 sec
 * total energy  :  -118.1907760 Eh     change       -0.2294531E-04 Eh
   gradient norm :     0.0017656 Eh/α   predicted    -0.1515907E-04 ( -33.93%)
   displ. norm   :     0.3364853 α      lambda       -0.4227120E-04
   maximum displ.:     0.1535713 α      in ANC's #2, #12, #15, ...

........................................................................
.............................. CYCLE   33 ..............................
........................................................................

 iter      E             dE          RMSdq      gap      omega  full diag
   1   -119.7202574 -0.119720E+03  0.606E-02    0.71       0.0  T
   2   -119.7202595 -0.214431E-05  0.353E-02    0.71       1.0  T
   3   -119.7202598 -0.267904E-06  0.372E-03    0.71       3.2  T
   4   -119.7202603 -0.527495E-06  0.182E-03    0.71       6.5  T
   5   -119.7202604 -0.383579E-07  0.787E-04    0.71      15.0  T
   6   -119.7202604 -0.108667E-07  0.254E-04    0.71      46.4  T
     SCC iter.                  ...        0 min,  0.033 sec
     gradient                   ...        0 min,  0.017 sec
 * total energy  :  -118.1908099 Eh     change       -0.3396445E-04 Eh
   gradient norm :     0.0029782 Eh/α   predicted    -0.2221194E-04 ( -34.60%)
   displ. norm   :     0.1087678 α      lambda       -0.2056850E-04
   maximum displ.:     0.0503548 α      in ANC's #2, #15, #12, ...

........................................................................
.............................. CYCLE   34 ..............................
........................................................................

 iter      E             dE          RMSdq      gap      omega  full diag
   1   -119.7208154 -0.119721E+03  0.203E-02    0.71       0.0  T
   2   -119.7208157 -0.272414E-06  0.118E-02    0.71       1.0  T
   3   -119.7208157  0.791670E-08  0.146E-03    0.71       8.1  T
   4   -119.7208158 -0.941616E-07  0.607E-04    0.71      19.4  T
   5   -119.7208158 -0.613292E-08  0.283E-04    0.71      41.7  T
     SCC iter.                  ...        0 min,  0.023 sec
     gradient                   ...        0 min,  0.020 sec
 * total energy  :  -118.1908278 Eh     change       -0.1788265E-04 Eh
   gradient norm :     0.0023198 Eh/α   predicted    -0.1040925E-04 ( -41.79%)
   displ. norm   :     0.4211391 α      lambda       -0.5907525E-04
   maximum displ.:     0.1938261 α      in ANC's #2, #15, #12, ...

........................................................................
.............................. CYCLE   35 ..............................
........................................................................

 iter      E             dE          RMSdq      gap      omega  full diag
   1   -119.7196195 -0.119720E+03  0.769E-02    0.71       0.0  T
   2   -119.7196225 -0.298644E-05  0.447E-02    0.71       1.0  T
   3   -119.7196226 -0.970517E-07  0.491E-03    0.72       2.4  T
   4   -119.7196237 -0.113585E-05  0.222E-03    0.72       5.3  T
   5   -119.7196237 -0.459283E-07  0.849E-04    0.72      13.9  T
   6   -119.7196238 -0.141136E-07  0.312E-04    0.72      37.8  T
     SCC iter.                  ...        0 min,  0.033 sec
     gradient                   ...        0 min,  0.017 sec
 * total energy  :  -118.1908666 Eh     change       -0.3878616E-04 Eh
   gradient norm :     0.0029126 Eh/α   predicted    -0.3477818E-04 ( -10.33%)
   displ. norm   :     0.2225709 α      lambda       -0.5292214E-04
   maximum displ.:     0.0865214 α      in ANC's #2, #10, #4, ...

........................................................................
.............................. CYCLE   36 ..............................
........................................................................

 iter      E             dE          RMSdq      gap      omega  full diag
   1   -119.7220095 -0.119722E+03  0.432E-02    0.72       0.0  T
   2   -119.7220110 -0.154228E-05  0.250E-02    0.72       1.0  T
   3   -119.7220108  0.190250E-06  0.363E-03    0.72       3.2  T
   4   -119.7220115 -0.632111E-06  0.130E-03    0.72       9.0  T
   5   -119.7220115 -0.260776E-07  0.669E-04    0.72      17.6  T
   6   -119.7220115 -0.504407E-08  0.242E-04    0.72      48.7  T
     SCC iter.                  ...        0 min,  0.028 sec
     gradient                   ...        0 min,  0.020 sec
 * total energy  :  -118.1908934 Eh     change       -0.2682252E-04 Eh
   gradient norm :     0.0036223 Eh/α   predicted    -0.2777267E-04 (   3.54%)
   displ. norm   :     0.3432078 α      lambda       -0.3682852E-04
   maximum displ.:     0.1534135 α      in ANC's #2, #15, #4, ...

........................................................................
.............................. CYCLE   37 ..............................
........................................................................

 iter      E             dE          RMSdq      gap      omega  full diag
   1   -119.7197262 -0.119720E+03  0.628E-02    0.71       0.0  T
   2   -119.7197285 -0.223075E-05  0.365E-02    0.71       1.0  T
   3   -119.7197286 -0.114076E-06  0.413E-03    0.71       2.9  T
   4   -119.7197294 -0.801153E-06  0.192E-03    0.71       6.1  T
   5   -119.7197294 -0.375774E-07  0.767E-04    0.71      15.4  T
   6   -119.7197294 -0.946994E-08  0.273E-04    0.71      43.2  T
     SCC iter.                  ...        0 min,  0.035 sec
     gradient                   ...        0 min,  0.019 sec
 * total energy  :  -118.1909166 Eh     change       -0.2313762E-04 Eh
   gradient norm :     0.0040789 Eh/α   predicted    -0.2058818E-04 ( -11.02%)
   displ. norm   :     0.1391943 α      lambda       -0.3967743E-04
   maximum displ.:     0.0531452 α      in ANC's #2, #4, #8, ...

........................................................................
.............................. CYCLE   38 ..............................
........................................................................

 iter      E             dE          RMSdq      gap      omega  full diag
   1   -119.7207847 -0.119721E+03  0.250E-02    0.71       0.0  T
   2   -119.7207858 -0.111813E-05  0.144E-02    0.71       1.0  T
   3   -119.7207856  0.149230E-06  0.332E-03    0.71       3.6  T
   4   -119.7207861 -0.423698E-06  0.958E-04    0.71      12.3  T
   5   -119.7207861 -0.111915E-07  0.509E-04    0.71      23.2  T
     SCC iter.                  ...        0 min,  0.022 sec
     gradient                   ...        0 min,  0.019 sec
 * total energy  :  -118.1909415 Eh     change       -0.2491331E-04 Eh
   gradient norm :     0.0022014 Eh/α   predicted    -0.2022501E-04 ( -18.82%)
   displ. norm   :     0.2333221 α      lambda       -0.3152321E-04
   maximum displ.:     0.0899421 α      in ANC's #2, #4, #10, ...

........................................................................
.............................. CYCLE   39 ..............................
........................................................................

 iter      E             dE          RMSdq      gap      omega  full diag
   1   -119.7209171 -0.119721E+03  0.456E-02    0.71       0.0  T
   2   -119.7209185 -0.146614E-05  0.265E-02    0.71       1.0  T
   3   -119.7209184  0.126524E-06  0.359E-03    0.71       3.3  T
   4   -119.7209191 -0.653363E-06  0.138E-03    0.71       8.5  T
   5   -119.7209191 -0.207175E-07  0.682E-04    0.71      17.3  T
   6   -119.7209191 -0.553868E-08  0.236E-04    0.71      49.9  T
     SCC iter.                  ...        0 min,  0.036 sec
     gradient                   ...        0 min,  0.016 sec
 * total energy  :  -118.1909598 Eh     change       -0.1835937E-04 Eh
   gradient norm :     0.0027122 Eh/α   predicted    -0.1662237E-04 (  -9.46%)
   displ. norm   :     0.0665612 α      lambda       -0.1565421E-04
   maximum displ.:     0.0258563 α      in ANC's #4, #8, #13, ...

........................................................................
.............................. CYCLE   40 ..............................
........................................................................

 iter      E             dE          RMSdq      gap      omega  full diag
   1   -119.7223961 -0.119722E+03  0.138E-02    0.71       0.0  T
   2   -119.7223966 -0.518910E-06  0.789E-03    0.71       1.5  T
   3   -119.7223966  0.233604E-07  0.197E-03    0.71       6.0  T
   4   -119.7223967 -0.852974E-07  0.519E-04    0.71      22.7  T
   5   -119.7223967 -0.824819E-08  0.257E-04    0.71      45.8  T
     SCC iter.                  ...        0 min,  0.024 sec
     gradient                   ...        0 min,  0.018 sec
 * total energy  :  -118.1909688 Eh     change       -0.8946627E-05 Eh
   gradient norm :     0.0016808 Eh/α   predicted    -0.7869692E-05 ( -12.04%)
   displ. norm   :     0.3076934 α      lambda       -0.1416064E-04
   maximum displ.:     0.1293880 α      in ANC's #2, #4, #15, ...

........................................................................
.............................. CYCLE   41 ..............................
........................................................................

 iter      E             dE          RMSdq      gap      omega  full diag
   1   -119.7208496 -0.119721E+03  0.588E-02    0.70       0.0  T
   2   -119.7208518 -0.214900E-05  0.340E-02    0.70       1.0  T
   3   -119.7208520 -0.256885E-06  0.367E-03    0.70       3.2  T
   4   -119.7208526 -0.526100E-06  0.179E-03    0.70       6.6  T
   5   -119.7208526 -0.487694E-07  0.838E-04    0.70      14.1  T
   6   -119.7208526 -0.885539E-08  0.267E-04    0.70      44.2  T
     SCC iter.                  ...        0 min,  0.033 sec
     gradient                   ...        0 min,  0.019 sec
 * total energy  :  -118.1909738 Eh     change       -0.4970538E-05 Eh
   gradient norm :     0.0026152 Eh/α   predicted    -0.7378784E-05 (  48.45%)
   displ. norm   :     0.0805563 α      lambda       -0.1625661E-04
   maximum displ.:     0.0365138 α      in ANC's #10, #2, #15, ...

........................................................................
.............................. CYCLE   42 ..............................
........................................................................

 iter      E             dE          RMSdq      gap      omega  full diag
   1   -119.7225391 -0.119723E+03  0.152E-02    0.71       0.0  T
   2   -119.7225395 -0.364020E-06  0.884E-03    0.71       1.3  T
   3   -119.7225394  0.636609E-07  0.175E-03    0.71       6.7  T
   4   -119.7225395 -0.141663E-06  0.501E-04    0.71      23.5  T
   5   -119.7225395 -0.406250E-08  0.269E-04    0.71      43.8  T
     SCC iter.                  ...        0 min,  0.024 sec
     gradient                   ...        0 min,  0.022 sec
 * total energy  :  -118.1909810 Eh     change       -0.7276575E-05 Eh
   gradient norm :     0.0018241 Eh/α   predicted    -0.8181833E-05 (  12.44%)
   displ. norm   :     0.0497620 α      lambda       -0.1469186E-04
   maximum displ.:     0.0250143 α      in ANC's #10, #9, #8, ...
 * RMSD in coord.:     0.4096401 α      energy gain  -0.7363112E-03 Eh

generating ANC from exact Hessian ...
Using Lindh-Hessian (1995)
 Shifting diagonal of input Hessian by    9.9235480182572819E-003
 Lowest  eigenvalues of input Hessian
    0.000000    0.000000    0.000000    0.000000    0.000000    0.000000
    0.010000    0.010021    0.010034    0.010201    0.010313    0.010346
    0.010407    0.010550    0.010944    0.011371    0.011443    0.012082
 Highest eigenvalues
    2.057983    2.307690    2.308303    2.315392    2.349833    2.641782


........................................................................
.............................. CYCLE   43 ..............................
........................................................................

 iter      E             dE          RMSdq      gap      omega  full diag
   1   -119.7224901 -0.119722E+03  0.109E-02    0.71       0.0  T
   2   -119.7224908 -0.774900E-06  0.601E-03    0.71       2.0  T
   3   -119.7224908 -0.172714E-07  0.207E-03    0.71       5.7  T
   4   -119.7224909 -0.182022E-07  0.507E-04    0.71      23.2  T
   5   -119.7224909 -0.100854E-07  0.240E-04    0.71      49.1  T
     SCC iter.                  ...        0 min,  0.022 sec
     gradient                   ...        0 min,  0.019 sec
 * total energy  :  -118.1909806 Eh     change        0.4260558E-06 Eh
   gradient norm :     0.0028786 Eh/α   predicted     0.0000000E+00 (-100.00%)
   displ. norm   :     0.0134964 α      lambda       -0.1866159E-04
   maximum displ.:     0.0053993 α      in ANC's #9, #10, #8, ...

........................................................................
.............................. CYCLE   44 ..............................
........................................................................

 iter      E             dE          RMSdq      gap      omega  full diag
   1   -119.7222200 -0.119722E+03  0.530E-03    0.71       0.0  T
   2   -119.7222202 -0.138481E-06  0.295E-03    0.71       4.0  T
   3   -119.7222202 -0.489156E-08  0.835E-04    0.71      14.1  T
   4   -119.7222202 -0.318582E-08  0.217E-04    0.71      54.2  T
     SCC iter.                  ...        0 min,  0.025 sec
     gradient                   ...        0 min,  0.020 sec
 * total energy  :  -118.1909920 Eh     change       -0.1138604E-04 Eh
   gradient norm :     0.0008030 Eh/α   predicted    -0.9414565E-05 ( -17.31%)
   displ. norm   :     0.0227956 α      lambda       -0.3879723E-05
   maximum displ.:     0.0104986 α      in ANC's #9, #10, #4, ...

........................................................................
.............................. CYCLE   45 ..............................
........................................................................

 iter      E             dE          RMSdq      gap      omega  full diag
   1   -119.7220556 -0.119722E+03  0.514E-03    0.71       0.0  T
   2   -119.7220557 -0.972198E-07  0.291E-03    0.71       4.0  T
   3   -119.7220557  0.532609E-09  0.763E-04    0.71      15.4  T
   4   -119.7220557 -0.667032E-08  0.218E-04    0.71      54.1  T
     SCC iter.                  ...        0 min,  0.018 sec
     gradient                   ...        0 min,  0.019 sec
 * total energy  :  -118.1909944 Eh     change       -0.2373111E-05 Eh
   gradient norm :     0.0009225 Eh/α   predicted    -0.1941134E-05 ( -18.20%)
   displ. norm   :     0.0293891 α      lambda       -0.3344158E-05
   maximum displ.:     0.0139695 α      in ANC's #9, #10, #8, ...

   *** GEOMETRY OPTIMIZATION CONVERGED AFTER 45 ITERATIONS ***

------------------------------------------------------------------------
 total energy gain   :        -0.0358306 Eh      -22.4840 kcal/mol
 total RMSD          :         0.8284531 a0        0.4384 Å
 total power (kW/mol):        -2.0905142 (step)  -32.7793 (real)
------------------------------------------------------------------------

 ANCopt (total)                0 d,  0 h,  0 min,  2.870 sec
 optimizer setup                ...        0 min,  0.001 sec (  0.026%)
 model hessian                  ...        0 min,  0.139 sec (  4.858%)
 ANC generation                 ...        0 min,  0.011 sec (  0.376%)
 coordinate transformation      ...        0 min,  0.002 sec (  0.080%)
 single point calculation       ...        0 min,  2.670 sec ( 93.020%)
 optimization log               ...        0 min,  0.025 sec (  0.882%)
 hessian update                 ...        0 min,  0.005 sec (  0.191%)
 rational function              ...        0 min,  0.012 sec (  0.413%)

================
 final structure:
================
72
 xtb: 6.7.1 (edcfbbe)
C           -6.85193176874338       -2.17229289263207        2.87436193133607
N           -5.72027974655872       -2.94739953235262        2.42096682058702
C           -5.13179468546329       -3.89901156399991        3.15426273921992
O           -5.52437660711029       -4.23492324125341        4.26795269349146
C           -3.92496347301667       -4.54327052723213        2.48050143815004
C           -2.90742121035285       -3.50023618196233        2.11239436208353
C           -2.23928926721205       -2.80245408844461        3.11129117266300
C           -1.31803986968922       -1.82259095902649        2.79147015957974
C           -1.04367320370289       -1.51698488050921        1.46535111130879
C           -0.07069735134569       -0.41243647173968        1.11570099516942
C           -0.91802597391687        0.76898007045682        0.69569225559657
C           -1.35222825328820        1.68436967144688        1.64591741223173
C           -2.18409729414259        2.72866718266229        1.28885176594368
C           -2.60044539114185        2.88483137696926       -0.02809255016244
C           -3.47820389750919        4.04606889016281       -0.40452191768691
C           -2.68158857962004        5.34441674910385       -0.32920774679032
O           -2.97582301091248        6.25825839162020        0.43555667242861
N           -1.63816973517831        5.38947040948536       -1.16525911026707
C           -0.71651015076249        6.49931668692034       -1.23826672949112
C           -2.15960236292513        1.97226466769127       -0.97839697880959
C           -1.33503493492891        0.92141991601282       -0.62005681728006
N            0.84067485393893       -0.82012703397037        0.05131060749195
C            1.79958540944234        0.22450581549044       -0.26612600794762
C            2.59941705754334       -0.18535396879446       -1.50369006019213
N            3.26872742866594       -1.43795365907946       -1.23900217686268
C            4.57944628204500       -1.61403869327037       -1.16586867718864
O            5.14072184050821       -2.66513080426410       -0.85858055519706
C            5.45962943802514       -0.45549843428180       -1.52574269787289
N            5.82683068242648        0.48149075929121       -0.70170333117112
O            6.77906838091428        1.23282559934770       -1.33251071227005
C            7.02967635118457        0.75869648493878       -2.54300084106153
C            8.02646329800954        1.40952604523239       -3.39786416617447
C            6.20193102163792       -0.34237974844103       -2.74304650188270
N            6.07073668141500       -1.15116044468190       -3.87507075398335
O            6.88904089968242       -1.02430056227610       -4.77080316208586
O            5.13138701702869       -1.93072564577708       -3.91118889422010
C            2.35380820257642       -2.49195015862988       -0.85281875602179
C            1.55727073044408       -2.04321935327394        0.37052618087546
C           -1.71350514254212       -2.21006238432411        0.46521179572390
C           -2.63319699520242       -3.19092524748718        0.78557652698186
H           -7.68297159349214       -2.27562635077878        2.17723412138670
H           -6.58064170977818       -1.11985195239203        2.96385979226479
H           -7.14779496292417       -2.55360393203228        3.85064159456059
H           -5.31526000317546       -2.69876309699205        1.53068625343160
H           -3.50381006577622       -5.26199588214968        3.18509988956775
H           -4.26474529608215       -5.07968634437263        1.59370370425171
H           -2.44706200030632       -3.03309942903762        4.14636830237447
H           -0.80597344923449       -1.29471569445562        3.58300925280742
H            0.49333747906290       -0.13992789410265        2.02868863687273
H           -1.03994738825446        1.57835417670989        2.67470064196129
H           -2.51388102640903        3.43736132908670        2.03493308018334
H           -3.86505350241258        3.92513690033773       -1.41664322975188
H           -4.31597281132779        4.13582567812430        0.28799842429526
H           -1.44181360269201        4.58516471146352       -1.74162462268594
H           -1.05589887541960        7.26091484925523       -0.53899771232192
H           -0.70233650895428        6.91424677166421       -2.24528000662294
H            0.28752311008178        6.17801179871088       -0.96303801283645
H           -2.47694703814736        2.07209218203547       -2.00606014711227
H           -0.99922479672122        0.21729973554360       -1.36376993074144
H            2.49911920476429        0.40017125319428        0.57075168378995
H            1.26351036450536        1.15118823323392       -0.47092131367715
H            1.91761938469861       -0.33584962233555       -2.34471744074482
H            3.32528323311785        0.58600672777256       -1.75442994014823
H            8.14830879042572        2.44675716280872       -3.10087403284122
H            7.73726647949084        1.31996148072435       -4.44227037206486
H            8.98368036301902        0.89945846904609       -3.28590799154398
H            1.67568976373506       -2.68436162594169       -1.68700574786868
H            2.93505752997158       -3.38815150948055       -0.63503923992898
H            0.84320743469327       -2.82197323783791        0.63819295076208
H            2.25003588186506       -1.89810961600899        1.21981907426656
H           -1.50005843051434       -1.98419544953915       -0.56642882936462
H           -3.13576662804759       -3.72872206134029       -0.00476032877655

 Bond Distances (Angstroems)
 ---------------------------
C1-N2=1.4446         C1-H41=1.0896        C1-H42=1.0905        C1-H43=1.0891        N2-C1=1.4446         N2-C3=1.3378         
N2-H44=1.0092        C3-N2=1.3378         C3-O4=1.2277         C3-C5=1.5249         O4-C3=1.2277         C5-C3=1.5249         
C5-C6=1.5029         C5-H45=1.0911        C5-H46=1.0907        C6-C5=1.5029         C6-C7=1.3896         C6-C40=1.3897        
C7-C6=1.3896         C7-C8=1.3824         C7-H47=1.0806        C8-C7=1.3824         C8-C9=1.3883         C8-H48=1.0805        
C9-C8=1.3883         C9-C10=1.5129        C9-C39=1.3890        C10-C9=1.5129        C10-C11=1.5133       C10-N22=1.4594       
C10-H49=1.1072       C11-C10=1.5133       C11-C12=1.3890       C11-C21=1.3886       C12-C11=1.3890       C12-C13=1.3820       
C12-H50=1.0803       C13-C12=1.3820       C13-C14=1.3900       C13-H51=1.0806       C14-C13=1.3900       C14-C15=1.5035       
C14-C20=1.3893       C15-C14=1.5035       C15-C16=1.5251       C15-H52=1.0903       C15-H53=1.0906       C16-C15=1.5251       
C16-O17=1.2274       C16-N18=1.3378       O17-C16=1.2274       N18-C16=1.3378       N18-C19=1.4445       N18-H54=1.0088       
C19-N18=1.4445       C19-H55=1.0882       C19-H56=1.0892       C19-H57=1.0895       C20-C14=1.3893       C20-C21=1.3830       
C20-H58=1.0802       C21-C11=1.3886       C21-C20=1.3830       C21-H59=1.0778       N22-C10=1.4594       N22-C23=1.4531       
N22-C38=1.4531       C23-N22=1.4531       C23-C24=1.5295       C23-H60=1.1048       C23-H61=1.0900       C24-C23=1.5295       
C24-N25=1.4447       C24-H62=1.0931       C24-H63=1.0885       N25-C24=1.4447       N25-C26=1.3245       N25-C37=1.4481       
C26-N25=1.3245       C26-O27=1.2305       C26-C28=1.4988       O27-C26=1.2305       C28-C26=1.4988       C28-N29=1.3007       
C28-C33=1.4303       N29-C28=1.3007       N29-O30=1.3672       O30-N29=1.3672       O30-C31=1.3240       C31-O30=1.3240       
C31-C32=1.4656       C31-C33=1.3920       C32-C31=1.4656       C32-H64=1.0858       C32-H65=1.0874       C32-H66=1.0904       
C33-C28=1.4303       C33-C31=1.3920       C33-N34=1.3974       N34-C33=1.3974       N34-O35=1.2199       N34-O36=1.2212       
O35-N34=1.2199       O36-N34=1.2212       C37-N25=1.4481       C37-C38=1.5272       C37-H67=1.0921       C37-H68=1.0902       
C38-N22=1.4531       C38-C37=1.5272       C38-H69=1.0899       C38-H70=1.1056       C39-C9=1.3890        C39-C40=1.3822       
C39-H71=1.0774       C40-C6=1.3897        C40-C39=1.3822       C40-H72=1.0800       H41-C1=1.0896        H42-C1=1.0905        
H43-C1=1.0891        H44-N2=1.0092        H45-C5=1.0911        H46-C5=1.0907        H47-C7=1.0806        H48-C8=1.0805        
H49-C10=1.1072       H50-C12=1.0803       H51-C13=1.0806       H52-C15=1.0903       H53-C15=1.0906       H54-N18=1.0088       
H55-C19=1.0882       H56-C19=1.0892       H57-C19=1.0895       H58-C20=1.0802       H59-C21=1.0778       H60-C23=1.1048       
H61-C23=1.0900       H62-C24=1.0931       H63-C24=1.0885       H64-C32=1.0858       H65-C32=1.0874       H66-C32=1.0904       
H67-C37=1.0921       H68-C37=1.0902       H69-C38=1.0899       H70-C38=1.1056       H71-C39=1.0774       H72-C40=1.0800       
 C  H  Rav=1.0887 sigma=0.0073  Rmin=1.0774  Rmax=1.1072    30
 C  C  Rav=1.4404 sigma=0.0610  Rmin=1.3820  Rmax=1.5295    24
 N  H  Rav=1.0090 sigma=0.0002  Rmin=1.0088  Rmax=1.0092     2
 N  C  Rav=1.4038 sigma=0.0581  Rmin=1.3007  Rmax=1.4594    12
 O  C  Rav=1.2524 sigma=0.0413  Rmin=1.2274  Rmax=1.3240     4
 O  N  Rav=1.2694 sigma=0.0691  Rmin=1.2199  Rmax=1.3672     3

 selected bond angles (degree)
 --------------------
H41-C1-N2=110.23               H42-C1-N2=110.41               H42-C1-H41=109.50              H43-C1-N2=107.84               
H43-C1-H41=109.46              H43-C1-H42=109.39              C3-N2-C1=123.66                H44-N2-C1=117.33               
H44-N2-C3=118.83               O4-C3-N2=123.45                C5-C3-N2=113.98                C5-C3-O4=122.57                
C6-C5-C3=110.54                H45-C5-C3=107.37               H45-C5-C6=110.73               H46-C5-C3=108.69               
H46-C5-C6=110.68               H46-C5-H45=108.74              C7-C6-C5=119.86                C40-C6-C5=121.46               
C40-C6-C7=118.66               C8-C7-C6=120.66                H47-C7-C6=119.27               H47-C7-C8=120.07               
C9-C8-C7=120.58                H48-C8-C7=119.51               H48-C8-C9=119.91               C10-C9-C8=120.57               
C39-C9-C8=118.86               C39-C9-C10=120.53              C11-C10-C9=105.90              N22-C10-C9=111.48              
N22-C10-C11=111.43             H49-C10-C9=108.47              H49-C10-C11=108.78             H49-C10-N22=110.61             

 selected dihedral angles (degree)
 ---------------------------------
C3-N2-C1-H41=236.85           C3-N2-C1-H42=115.74           C3-N2-C1-H43=356.29           H44-N2-C1-H41= 61.82          
H44-N2-C1-H42=300.71          H44-N2-C1-H43=181.26          O4-C3-N2-C1=  2.42            O4-C3-N2-H44=177.38           
C5-C3-N2-C1=182.09            C5-C3-N2-H44=357.05           C6-C5-C3-N2= 56.46            C6-C5-C3-O4=236.14            
H45-C5-C3-N2=177.34           H45-C5-C3-O4=357.02           H46-C5-C3-N2=294.81           H46-C5-C3-O4=114.49           
C7-C6-C5-C3= 66.49            C7-C6-C5-H45=307.64           C7-C6-C5-H46=186.97           C40-C6-C5-C3=247.87           
C40-C6-C5-H45=129.02          C40-C6-C5-H46=  8.35          C8-C7-C6-C5=181.19            C8-C7-C6-C40=359.85           
H47-C7-C6-C5=  1.17           H47-C7-C6-C40=179.83          C9-C8-C7-C6=  0.03            C9-C8-C7-H47=180.05           
H48-C8-C7-C6=180.28           H48-C8-C7-H47=  0.29          C10-C9-C8-C7=177.90           C10-C9-C8-H48=357.65          
C39-C9-C8-C7=  0.18           C39-C9-C8-H48=179.93          C11-C10-C9-C8=256.95          C11-C10-C9-C39= 74.63         
N22-C10-C9-C8=135.59          N22-C10-C9-C39=313.28         H49-C10-C9-C8= 13.57          H49-C10-C9-C39=191.25         
           -------------------------------------------------
          |                Final Singlepoint                |
           -------------------------------------------------

          ...................................................
          :                      SETUP                      :
          :.................................................:
          :  # basis functions                 192          :
          :  # atomic orbitals                 192          :
          :  # shells                          112          :
          :  # electrons                       210          :
          :  max. iterations                   250          :
          :  Hamiltonian                  GFN2-xTB          :
          :  restarted?                      false          :
          :  GBSA solvation                   true          :
          :  PC potential                    false          :
          :  electronic temp.          300.0000000     K    :
          :  accuracy                    1.0000000          :
          :  -> integral cutoff          0.2500000E+02      :
          :  -> integral neglect         0.1000000E-07      :
          :  -> SCF convergence          0.1000000E-05 Eh   :
          :  -> wf. convergence          0.1000000E-03 e    :
          :  Broyden damping             0.4000000          :
          :  net charge                          0          :
          :  unpaired electrons                  0          :
          ...................................................

 iter      E             dE          RMSdq      gap      omega  full diag
   1   -119.7220557 -0.119722E+03  0.102E-04    0.71       0.0  T
   2   -119.7220557 -0.592877E-10  0.621E-05    0.71     189.7  T
   3   -119.7220557  0.716227E-11  0.381E-05    0.71     309.5  T

   *** convergence criteria satisfied after 3 iterations ***

         #    Occupation            Energy/Eh            Energy/eV
      -------------------------------------------------------------
         1        2.0000           -0.8017402             -21.8165
       ...           ...                  ...                  ...
        99        2.0000           -0.4063743             -11.0580
       100        2.0000           -0.4054492             -11.0328
       101        2.0000           -0.4014931             -10.9252
       102        2.0000           -0.4010927             -10.9143
       103        2.0000           -0.3899528             -10.6112
       104        2.0000           -0.3830862             -10.4243
       105        2.0000           -0.3641203              -9.9082 (HOMO)
       106        0.0000           -0.3381628              -9.2019 (LUMO)
       107                         -0.2824893              -7.6869
       108                         -0.2354321              -6.4064
       109                         -0.2351831              -6.3997
       110                         -0.2267002              -6.1688
       ...                                ...                  ...
       192                          0.6536742              17.7874
      -------------------------------------------------------------
                  HL-Gap            0.0259574 Eh            0.7063 eV
             Fermi-level           -0.3511415 Eh           -9.5550 eV

 SCC (total)                   0 d,  0 h,  0 min,  0.047 sec
 SCC setup                      ...        0 min,  0.001 sec (  2.547%)
 Dispersion                     ...        0 min,  0.002 sec (  3.480%)
 classical contributions        ...        0 min,  0.000 sec (  0.366%)
 integral evaluation            ...        0 min,  0.006 sec ( 11.874%)
 iterations                     ...        0 min,  0.016 sec ( 34.967%)
 molecular gradient             ...        0 min,  0.021 sec ( 45.219%)
 printout                       ...        0 min,  0.001 sec (  1.475%)

         :::::::::::::::::::::::::::::::::::::::::::::::::::::
         ::                     SUMMARY                     ::
         :::::::::::::::::::::::::::::::::::::::::::::::::::::
         :: total energy            -118.190994374144 Eh    ::
         :: total w/o Gsasa/hb      -118.186144082184 Eh    ::
         :: gradient norm              0.000922446594 Eh/a0 ::
         :: HOMO-LUMO gap              0.706338078551 eV    ::
         ::.................................................::
         :: SCC energy              -119.721063698085 Eh    ::
         :: -> isotropic ES            0.250644706064 Eh    ::
         :: -> anisotropic ES          0.008735985466 Eh    ::
         :: -> anisotropic XC          0.046287687453 Eh    ::
         :: -> dispersion             -0.082582634462 Eh    ::
         :: -> Gsolv                  -0.058784667466 Eh    ::
         ::    -> Gelec               -0.053934375507 Eh    ::
         ::    -> Gsasa                0.004381019459 Eh    ::
         ::    -> Ghb                 -0.010312071117 Eh    ::
         ::    -> Gshift               0.001080759698 Eh    ::
         :: repulsion energy           1.530069323940 Eh    ::
         :: add. restraining           0.000000000000 Eh    ::
         :: total charge               0.000000000000 e     ::
         :::::::::::::::::::::::::::::::::::::::::::::::::::::

           -------------------------------------------------
          |                Property Printout                |
           -------------------------------------------------

    * Orbital Energies and Occupations

         #    Occupation            Energy/Eh            Energy/eV
      -------------------------------------------------------------
         1        2.0000           -0.8017402             -21.8165
       ...           ...                  ...                  ...
        93        2.0000           -0.4239977             -11.5376
        94        2.0000           -0.4237926             -11.5320
        95        2.0000           -0.4211579             -11.4603
        96        2.0000           -0.4120835             -11.2134
        97        2.0000           -0.4080776             -11.1044
        98        2.0000           -0.4071598             -11.0794
        99        2.0000           -0.4063743             -11.0580
       100        2.0000           -0.4054492             -11.0328
       101        2.0000           -0.4014931             -10.9252
       102        2.0000           -0.4010927             -10.9143
       103        2.0000           -0.3899528             -10.6112
       104        2.0000           -0.3830862             -10.4243
       105        2.0000           -0.3641203              -9.9082 (HOMO)
       106        0.0000           -0.3381628              -9.2019 (LUMO)
       107                         -0.2824893              -7.6869
       108                         -0.2354321              -6.4064
       109                         -0.2351831              -6.3997
       110                         -0.2267002              -6.1688
       111                         -0.2238567              -6.0915
       112                         -0.2191734              -5.9640
       113                         -0.2079565              -5.6588
       114                         -0.2059077              -5.6030
       115                         -0.2037105              -5.5432
       116                         -0.1046086              -2.8465
       ...                                ...                  ...
       192                          0.6536742              17.7874
      -------------------------------------------------------------
                  HL-Gap            0.0259574 Eh            0.7063 eV
             Fermi-level           -0.3511415 Eh           -9.5550 eV

     #   Z          covCN         q      C6AA      α(0)
     1   6 C        3.689    -0.061    21.867     6.693
     2   7 N        2.686    -0.170    24.687     7.379
     3   6 C        2.753     0.280    22.251     7.724
     4   8 O        0.858    -0.534    24.556     6.644
     5   6 C        3.813    -0.105    22.487     6.750
     6   6 C        2.972     0.009    27.813     8.651
     7   6 C        2.924    -0.041    29.011     8.833
     8   6 C        2.923    -0.041    29.007     8.832
     9   6 C        2.983     0.006    27.888     8.663
    10   6 C        3.819     0.038    19.914     6.351
    11   6 C        2.983     0.005    27.899     8.664
    12   6 C        2.923    -0.041    29.008     8.832
    13   6 C        2.924    -0.040    29.001     8.831
    14   6 C        2.972     0.010    27.790     8.647
    15   6 C        3.813    -0.105    22.492     6.750
    16   6 C        2.754     0.281    22.251     7.724
    17   8 O        0.858    -0.534    24.549     6.643
    18   7 N        2.686    -0.171    24.699     7.381
    19   6 C        3.689    -0.061    21.878     6.694
    20   6 C        2.923    -0.047    29.177     8.858
    21   6 C        2.922    -0.041    29.021     8.834
    22   7 N        2.734    -0.173    24.747     7.388
    23   6 C        3.773     0.002    20.581     6.464
    24   6 C        3.756    -0.018    20.941     6.525
    25   7 N        2.740    -0.053    22.257     7.007
    26   6 C        2.766     0.274    22.364     7.745
    27   8 O        0.859    -0.515    24.123     6.585
    28   6 C        3.014     0.073    26.357     8.421
    29   7 N        1.947    -0.138    24.760     7.379
    30   8 O        1.821    -0.088    15.649     5.342
    31   6 C        2.987     0.181    24.128     8.058
    32   6 C        3.754    -0.163    23.718     6.945
    33   6 C        2.959    -0.035    28.864     8.812
    34   7 N        2.756     0.571    13.252     5.407
    35   8 O        0.932    -0.428    22.213     6.321
    36   8 O        0.933    -0.441    22.477     6.358
    37   6 C        3.764    -0.014    20.873     6.512
    38   6 C        3.771     0.006    20.506     6.453
    39   6 C        2.923    -0.041    29.010     8.833
    40   6 C        2.923    -0.047    29.171     8.857
    41   1 H        0.925     0.076     2.024     2.225
    42   1 H        0.924     0.071     2.073     2.251
    43   1 H        0.925     0.076     2.020     2.222
    44   1 H        0.860     0.215     1.034     1.593
    45   1 H        0.924     0.070     2.087     2.259
    46   1 H        0.924     0.073     2.050     2.239
    47   1 H        0.926     0.031     2.573     2.508
    48   1 H        0.926     0.032     2.560     2.502
    49   1 H        0.922     0.010     2.883     2.656
    50   1 H        0.926     0.031     2.573     2.509
    51   1 H        0.926     0.032     2.562     2.503
    52   1 H        0.924     0.073     2.054     2.241
    53   1 H        0.924     0.069     2.091     2.261
    54   1 H        0.860     0.216     1.029     1.589
    55   1 H        0.925     0.075     2.026     2.226
    56   1 H        0.925     0.075     2.032     2.229
    57   1 H        0.925     0.073     2.058     2.243
    58   1 H        0.926     0.050     2.317     2.380
    59   1 H        0.926     0.063     2.159     2.298
    60   1 H        0.922     0.021     2.716     2.577
    61   1 H        0.925     0.068     2.102     2.267
    62   1 H        0.924     0.093     1.849     2.127
    63   1 H        0.925     0.066     2.133     2.284
    64   1 H        0.925     0.129     1.539     1.940
    65   1 H        0.925     0.126     1.565     1.956
    66   1 H        0.924     0.145     1.427     1.868
    67   1 H        0.924     0.086     1.919     2.166
    68   1 H        0.925     0.077     2.013     2.219
    69   1 H        0.925     0.060     2.198     2.319
    70   1 H        0.922     0.014     2.831     2.631
    71   1 H        0.926     0.063     2.162     2.299
    72   1 H        0.926     0.049     2.327     2.385

 Mol. C6AA /au·bohr⁶  :      58629.852242
 Mol. C8AA /au·bohr⁸  :    1370986.606916
 Mol. α(0) /au        :        371.766143


Wiberg/Mayer (AO) data.
largest (>0.10) Wiberg bond orders for each atom

 ---------------------------------------------------------------------------
     #   Z sym  total        # sym  WBO       # sym  WBO       # sym  WBO
 ---------------------------------------------------------------------------
     1   6 C    3.957 --     2 N    1.001    43 H    0.978    41 H    0.974
                            42 H    0.974
     2   7 N    3.475 --     3 C    1.313     1 C    1.001    44 H    0.924
                             4 O    0.197
     3   6 C    3.944 --     4 O    1.611     2 N    1.313     5 C    0.951
     4   8 O    1.922 --     3 C    1.611     2 N    0.197
     5   6 C    3.993 --     6 C    1.003    45 H    0.964    46 H    0.957
                             3 C    0.951
     6   6 C    3.984 --     7 C    1.407    40 C    1.406     5 C    1.003
                             9 C    0.104
     7   6 C    3.991 --     8 C    1.450     6 C    1.407    47 H    0.970
                            39 C    0.110
     8   6 C    3.990 --     7 C    1.450     9 C    1.409    48 H    0.968
                            40 C    0.105
     9   6 C    3.984 --     8 C    1.409    39 C    1.403    10 C    0.976
                             6 C    0.104
    10   6 C    3.982 --    22 N    0.980    11 C    0.977     9 C    0.976
                            49 H    0.950
    11   6 C    3.984 --    12 C    1.407    21 C    1.405    10 C    0.977
                            14 C    0.104
    12   6 C    3.990 --    13 C    1.453    11 C    1.407    50 H    0.968
                            20 C    0.106
    13   6 C    3.992 --    12 C    1.453    14 C    1.404    51 H    0.970
                            21 C    0.109
    14   6 C    3.985 --    20 C    1.408    13 C    1.404    15 C    1.001
                            11 C    0.104
    15   6 C    3.993 --    14 C    1.001    53 H    0.965    52 H    0.958
                            16 C    0.949
    16   6 C    3.944 --    17 O    1.612    18 N    1.312    15 C    0.949
    17   8 O    1.923 --    16 C    1.612    18 N    0.196
    18   7 N    3.474 --    16 C    1.312    19 C    1.001    54 H    0.924
                            17 O    0.196
    19   6 C    3.957 --    18 N    1.001    55 H    0.978    56 H    0.974
                            57 H    0.974
    20   6 C    3.989 --    21 C    1.447    14 C    1.408    58 H    0.966
                            12 C    0.106
    21   6 C    3.987 --    20 C    1.447    11 C    1.405    59 H    0.963
                            13 C    0.109
    22   7 N    3.122 --    23 C    1.006    38 C    1.005    10 C    0.980
    23   6 C    3.985 --    22 N    1.006    24 C    0.991    61 H    0.964
                            60 H    0.962
    24   6 C    3.956 --    23 C    0.991    25 N    0.979    63 H    0.965
                            62 H    0.960
    25   7 N    3.572 --    26 C    1.343    24 C    0.979    37 C    0.974
                            27 O    0.211
    26   6 C    3.959 --    27 O    1.574    25 N    1.343    28 C    0.940
    27   8 O    1.942 --    26 C    1.574    25 N    0.211
    28   6 C    3.970 --    29 N    1.613    33 C    1.206    26 C    0.940
    29   7 N    2.950 --    28 C    1.613    30 O    1.061    31 C    0.121
    30   8 O    2.491 --    31 C    1.218    29 N    1.061
    31   6 C    3.916 --    33 C    1.391    30 O    1.218    32 C    1.065
                            29 N    0.121
    32   6 C    3.961 --    31 C    1.065    64 H    0.959    65 H    0.949
                            66 H    0.913
    33   6 C    3.936 --    31 C    1.391    28 C    1.206    34 N    1.038
    34   7 N    3.916 --    36 O    1.418    35 O    1.417    33 C    1.038
    35   8 O    1.891 --    34 N    1.417    36 O    0.327
    36   8 O    1.894 --    34 N    1.418    35 O    0.327
    37   6 C    3.955 --    38 C    0.993    25 N    0.974    68 H    0.967
                            67 H    0.961
    38   6 C    3.986 --    22 N    1.005    37 C    0.993    69 H    0.964
                            70 H    0.963
    39   6 C    3.989 --    40 C    1.450     9 C    1.403    71 H    0.964
                             7 C    0.110
    40   6 C    3.990 --    39 C    1.450     6 C    1.406    72 H    0.967
                             8 C    0.105
    41   1 H    0.994 --     1 C    0.974
    42   1 H    0.995 --     1 C    0.974
    43   1 H    0.994 --     1 C    0.978
    44   1 H    0.954 --     2 N    0.924
    45   1 H    0.995 --     5 C    0.964
    46   1 H    0.994 --     5 C    0.957
    47   1 H    0.999 --     7 C    0.970
    48   1 H    0.999 --     8 C    0.968
    49   1 H    0.999 --    10 C    0.950
    50   1 H    0.999 --    12 C    0.968
    51   1 H    0.999 --    13 C    0.970
    52   1 H    0.994 --    15 C    0.958
    53   1 H    0.995 --    15 C    0.965
    54   1 H    0.953 --    18 N    0.924
    55   1 H    0.994 --    19 C    0.978
    56   1 H    0.994 --    19 C    0.974
    57   1 H    0.995 --    19 C    0.974
    58   1 H    0.997 --    20 C    0.966
    59   1 H    0.996 --    21 C    0.963
    60   1 H    1.000 --    23 C    0.962
    61   1 H    0.994 --    23 C    0.964
    62   1 H    0.991 --    24 C    0.960
    63   1 H    0.995 --    24 C    0.965
    64   1 H    0.982 --    32 C    0.959
    65   1 H    0.984 --    32 C    0.949
    66   1 H    0.979 --    32 C    0.913
    67   1 H    0.992 --    37 C    0.961
    68   1 H    0.994 --    37 C    0.967
    69   1 H    0.996 --    38 C    0.964
    70   1 H    1.000 --    38 C    0.963
    71   1 H    0.996 --    39 C    0.964
    72   1 H    0.997 --    40 C    0.967
 ---------------------------------------------------------------------------

Topologies differ in total number of bonds
Writing topology from bond orders to xtbtopo.mol

molecular dipole:
                 x           y           z       tot (Debye)
 q only:        0.020       2.772      -3.017
   full:        0.421       2.540      -3.053      10.151
molecular quadrupole (traceless):
                xx          xy          yy          xz          yz          zz
 q only:       30.459      64.517     -21.981      35.970     -20.431      -8.477
  q+dip:       28.253      59.848     -27.760      41.315     -18.276      -0.493
   full:       30.768      58.979     -26.483      40.248     -19.717      -4.285

           -------------------------------------------------
          |                Geometry Summary                 |
           -------------------------------------------------

      molecular mass/u    :      548.5913580
   center of mass at/Å    :        0.5134779      -0.1555258      -0.1398415
  moments of inertia/u·Å² :        0.5228816E+04   0.1189330E+05   0.1611453E+05
rotational constants/cm⁻¹ :        0.3223986E-02   0.1417406E-02   0.1046114E-02

 * 68 selected distances

     #   Z          #   Z                                           value/Å
     1   6 C        2   7 N                                       1.4446432
     2   7 N        3   6 C                                       1.3377606
     3   6 C        4   8 O                                       1.2277063
     6   6 C        7   6 C                                       1.3896386
     7   6 C        8   6 C                                       1.3824319
     8   6 C        9   6 C                                       1.3882594
    11   6 C       12   6 C                                       1.3890277
    12   6 C       13   6 C                                       1.3820491
    13   6 C       14   6 C                                       1.3899913
    16   6 C       17   8 O                                       1.2274141
    16   6 C       18   7 N                                       1.3378098
    18   7 N       19   6 C                                       1.4444880
    14   6 C       20   6 C                                       1.3893162
    11   6 C       21   6 C                                       1.3886434
    20   6 C       21   6 C                                       1.3829657
    10   6 C       22   7 N                                       1.4593623
    22   7 N       23   6 C                                       1.4531117
    23   6 C       24   6 C                                       1.5294708 (max)
    24   6 C       25   7 N                                       1.4446600
    25   7 N       26   6 C                                       1.3245145
    26   6 C       27   8 O                                       1.2305491
    28   6 C       29   7 N                                       1.3007024
    29   7 N       30   8 O                                       1.3671792
    30   8 O       31   6 C                                       1.3239673
    31   6 C       32   6 C                                       1.4655903
    28   6 C       33   6 C                                       1.4302575
    31   6 C       33   6 C                                       1.3919590
    33   6 C       34   7 N                                       1.3974324
    34   7 N       35   8 O                                       1.2198574
    34   7 N       36   8 O                                       1.2212307
    25   7 N       37   6 C                                       1.4481450
    22   7 N       38   6 C                                       1.4530531
    37   6 C       38   6 C                                       1.5272212
     9   6 C       39   6 C                                       1.3889961
     6   6 C       40   6 C                                       1.3897187
    39   6 C       40   6 C                                       1.3822297
     1   6 C       41   1 H                                       1.0896295
     1   6 C       42   1 H                                       1.0905230
     1   6 C       43   1 H                                       1.0890617
     2   7 N       44   1 H                                       1.0091882
     5   6 C       45   1 H                                       1.0910525
     5   6 C       46   1 H                                       1.0906897
     7   6 C       47   1 H                                       1.0806256
     8   6 C       48   1 H                                       1.0804622
    10   6 C       49   1 H                                       1.1072230
    12   6 C       50   1 H                                       1.0803489
    13   6 C       51   1 H                                       1.0805750
    15   6 C       52   1 H                                       1.0902600
    15   6 C       53   1 H                                       1.0906409
    18   7 N       54   1 H                                       1.0087917 (min)
    19   6 C       55   1 H                                       1.0882067
    19   6 C       56   1 H                                       1.0892400
    19   6 C       57   1 H                                       1.0895277
    20   6 C       58   1 H                                       1.0801690
    21   6 C       59   1 H                                       1.0778048
    23   6 C       60   1 H                                       1.1047943
    23   6 C       61   1 H                                       1.0899808
    24   6 C       62   1 H                                       1.0930802
    24   6 C       63   1 H                                       1.0884621
    32   6 C       64   1 H                                       1.0857707
    32   6 C       65   1 H                                       1.0874011
    32   6 C       66   1 H                                       1.0903980
    37   6 C       67   1 H                                       1.0921241
    37   6 C       68   1 H                                       1.0901632
    38   6 C       69   1 H                                       1.0899494
    38   6 C       70   1 H                                       1.1055673
    39   6 C       71   1 H                                       1.0774312
    40   6 C       72   1 H                                       1.0800158

 * 6 distinct bonds (by element types)

   Z      Z             #   av. dist./Å        max./Å        min./Å
   1 H    6 C          30     1.0887059     1.1072230     1.0774312
   6 C    6 C          17     1.4110451     1.5294708     1.3820491
   1 H    7 N           2     1.0089900     1.0091882     1.0087917
   6 C    7 N          12     1.4038069     1.4593623     1.3007024
   6 C    8 O           4     1.2524092     1.3239673     1.2274141
   7 N    8 O           3     1.2694224     1.3671792     1.2198574


optimized geometry written to: xtbopt.xyz


           -------------------------------------------------
          | TOTAL ENERGY             -118.190994374144 Eh   |
          | GRADIENT NORM               0.000922446594 Eh/α |
          | HOMO-LUMO GAP               0.706338078551 eV   |
           -------------------------------------------------
########################################################################
[WARNING] Runtime exception occurred
-1- restart_readRestart: Dimension missmatch in restart file.
########################################################################

------------------------------------------------------------------------
 * finished run on 2026/08/28 at 18:28:33.786     
------------------------------------------------------------------------
 total:
 * wall-time:     0 d,  0 h,  0 min,  3.059 sec
 *  cpu-time:     0 d,  0 h,  0 min, 21.812 sec
 * ratio c/w:     7.130 speedup
 SCF:
 * wall-time:     0 d,  0 h,  0 min,  0.090 sec
 *  cpu-time:     0 d,  0 h,  0 min,  0.562 sec
 * ratio c/w:     6.249 speedup
 ANC optimizer:
 * wall-time:     0 d,  0 h,  0 min,  2.922 sec
 *  cpu-time:     0 d,  0 h,  0 min, 21.000 sec
 * ratio c/w:     7.186 speedup

