72

C     -7.092509   -2.569917    3.106492
N     -5.941729   -3.210262    2.522699
C     -5.261412   -4.195164    3.210990
O     -5.656214   -4.667421    4.274359
C     -4.007935   -4.708035    2.520046
C     -3.034691   -3.620238    2.129952
C     -2.422595   -2.832640    3.113019
C     -1.539396   -1.811334    2.755519
C     -1.239890   -1.559829    1.406912
C     -0.285164   -0.415509    1.037752
C     -1.110090    0.815843    0.634801
C     -1.352771    1.831360    1.573491
C     -2.121178    2.947990    1.235777
C     -2.666664    3.075148   -0.047950
C     -3.493477    4.286774   -0.408615
C     -2.715915    5.590885   -0.350541
O     -3.060676    6.526102    0.367014
N     -1.627789    5.646864   -1.199253
C     -0.742268    6.782923   -1.179613
C     -2.438679    2.061268   -0.985611
C     -1.670245    0.944843   -0.647168
N      0.745313   -0.799061    0.021977
C      1.686857    0.323512   -0.228665
C      2.771639   -0.039231   -1.259784
N      3.502034   -1.255330   -0.893207
C      4.756771   -1.579623   -1.425162
O      5.137177   -2.745646   -1.524795
C      5.652565   -0.499517   -1.838108
N      5.840533    0.611228   -1.099958
O      6.837386    1.331287   -1.733883
C      7.255170    0.659355   -2.841166
C      8.325685    1.294138   -3.633121
C      6.524634   -0.499045   -2.948145
N      6.620054   -1.459951   -3.986527
O      7.748122   -1.682016   -4.442249
O      5.557989   -1.944439   -4.392487
C      2.639310   -2.371511   -0.512659
C      1.549355   -1.958968    0.493034
C     -1.855717   -2.355993    0.426933
C     -2.739136   -3.377273    0.783599
H     -7.618379   -2.018974    2.323494
H     -6.753591   -1.878952    3.882993
H     -7.757336   -3.316698    3.548855
H     -5.428179   -2.698862    1.814311
H     -3.498342   -5.408170    3.193217
H     -4.323710   -5.285588    1.642975
H     -2.636179   -3.005225    4.166953
H     -1.088765   -1.209494    3.541805
H      0.268368   -0.149115    1.950947
H     -0.950164    1.757766    2.581548
H     -2.295443    3.718835    1.985443
H     -3.913201    4.190611   -1.417285
H     -4.344359    4.352827    0.280234
H     -1.261097    4.766738   -1.540901
H     -1.318694    7.711778   -1.161354
H     -0.114980    6.750249   -2.073253
H     -0.116888    6.725119   -0.284734
H     -2.861127    2.125747   -1.986110
H     -1.504814    0.169552   -1.392295
H      2.172783    0.627294    0.708449
H      1.158088    1.198128   -0.621075
H      2.312417   -0.225791   -2.239195
H      3.439283    0.813602   -1.386131
H      8.480281    2.334478   -3.329976
H      8.074071    1.289582   -4.698142
H      9.269445    0.757233   -3.497743
H      2.182340   -2.762822   -1.430429
H      3.243194   -3.175760   -0.077108
H      0.916829   -2.838248    0.651243
H      2.024911   -1.720757    1.454223
H     -1.638044   -2.187795   -0.625583
H     -3.193176   -3.978855   -0.001079
