72
 energy: -118.190994374144 gnorm: 0.000922446594 xtb: 6.7.1 (edcfbbe)
C           -6.85193176874338       -2.17229289263207        2.87436193133607
N           -5.72027974655872       -2.94739953235262        2.42096682058702
C           -5.13179468546329       -3.89901156399991        3.15426273921992
O           -5.52437660711029       -4.23492324125341        4.26795269349146
C           -3.92496347301667       -4.54327052723213        2.48050143815004
C           -2.90742121035285       -3.50023618196233        2.11239436208353
C           -2.23928926721205       -2.80245408844461        3.11129117266300
C           -1.31803986968922       -1.82259095902649        2.79147015957974
C           -1.04367320370289       -1.51698488050921        1.46535111130879
C           -0.07069735134569       -0.41243647173968        1.11570099516942
C           -0.91802597391687        0.76898007045682        0.69569225559657
C           -1.35222825328820        1.68436967144688        1.64591741223173
C           -2.18409729414259        2.72866718266229        1.28885176594368
C           -2.60044539114185        2.88483137696926       -0.02809255016244
C           -3.47820389750919        4.04606889016281       -0.40452191768691
C           -2.68158857962004        5.34441674910385       -0.32920774679032
O           -2.97582301091248        6.25825839162020        0.43555667242861
N           -1.63816973517831        5.38947040948536       -1.16525911026707
C           -0.71651015076249        6.49931668692034       -1.23826672949112
C           -2.15960236292513        1.97226466769127       -0.97839697880959
C           -1.33503493492891        0.92141991601282       -0.62005681728006
N            0.84067485393893       -0.82012703397037        0.05131060749195
C            1.79958540944234        0.22450581549044       -0.26612600794762
C            2.59941705754334       -0.18535396879446       -1.50369006019213
N            3.26872742866594       -1.43795365907946       -1.23900217686268
C            4.57944628204500       -1.61403869327037       -1.16586867718864
O            5.14072184050821       -2.66513080426410       -0.85858055519706
C            5.45962943802514       -0.45549843428180       -1.52574269787289
N            5.82683068242648        0.48149075929121       -0.70170333117112
O            6.77906838091428        1.23282559934770       -1.33251071227005
C            7.02967635118457        0.75869648493878       -2.54300084106153
C            8.02646329800954        1.40952604523239       -3.39786416617447
C            6.20193102163792       -0.34237974844103       -2.74304650188270
N            6.07073668141500       -1.15116044468190       -3.87507075398335
O            6.88904089968242       -1.02430056227610       -4.77080316208586
O            5.13138701702869       -1.93072564577708       -3.91118889422010
C            2.35380820257642       -2.49195015862988       -0.85281875602179
C            1.55727073044408       -2.04321935327394        0.37052618087546
C           -1.71350514254212       -2.21006238432411        0.46521179572390
C           -2.63319699520242       -3.19092524748718        0.78557652698186
H           -7.68297159349214       -2.27562635077878        2.17723412138670
H           -6.58064170977818       -1.11985195239203        2.96385979226479
H           -7.14779496292417       -2.55360393203228        3.85064159456059
H           -5.31526000317546       -2.69876309699205        1.53068625343160
H           -3.50381006577622       -5.26199588214968        3.18509988956775
H           -4.26474529608215       -5.07968634437263        1.59370370425171
H           -2.44706200030632       -3.03309942903762        4.14636830237447
H           -0.80597344923449       -1.29471569445562        3.58300925280742
H            0.49333747906290       -0.13992789410265        2.02868863687273
H           -1.03994738825446        1.57835417670989        2.67470064196129
H           -2.51388102640903        3.43736132908670        2.03493308018334
H           -3.86505350241258        3.92513690033773       -1.41664322975188
H           -4.31597281132779        4.13582567812430        0.28799842429526
H           -1.44181360269201        4.58516471146352       -1.74162462268594
H           -1.05589887541960        7.26091484925523       -0.53899771232192
H           -0.70233650895428        6.91424677166421       -2.24528000662294
H            0.28752311008178        6.17801179871088       -0.96303801283645
H           -2.47694703814736        2.07209218203547       -2.00606014711227
H           -0.99922479672122        0.21729973554360       -1.36376993074144
H            2.49911920476429        0.40017125319428        0.57075168378995
H            1.26351036450536        1.15118823323392       -0.47092131367715
H            1.91761938469861       -0.33584962233555       -2.34471744074482
H            3.32528323311785        0.58600672777256       -1.75442994014823
H            8.14830879042572        2.44675716280872       -3.10087403284122
H            7.73726647949084        1.31996148072435       -4.44227037206486
H            8.98368036301902        0.89945846904609       -3.28590799154398
H            1.67568976373506       -2.68436162594169       -1.68700574786868
H            2.93505752997158       -3.38815150948055       -0.63503923992898
H            0.84320743469327       -2.82197323783791        0.63819295076208
H            2.25003588186506       -1.89810961600899        1.21981907426656
H           -1.50005843051434       -1.98419544953915       -0.56642882936462
H           -3.13576662804759       -3.72872206134029       -0.00476032877655
