      -----------------------------------------------------------      
     |                   =====================                   |     
     |                           x T B                           |     
     |                   =====================                   |     
     |                         S. Grimme                         |     
     |          Mulliken Center for Theoretical Chemistry        |     
     |                    University of Bonn                     |     
      -----------------------------------------------------------      

   * xtb version 6.7.1 (edcfbbe) compiled by 'VssAdministrator@runnervm171ch' on 2026-06-10

   xtb is free software: you can redistribute it and/or modify it under
   the terms of the GNU Lesser General Public License as published by
   the Free Software Foundation, either version 3 of the License, or
   (at your option) any later version.
   
   xtb is distributed in the hope that it will be useful,
   but WITHOUT ANY WARRANTY; without even the implied warranty of
   MERCHANTABILITY or FITNESS FOR A PARTICULAR PURPOSE.  See the
   GNU Lesser General Public License for more details.
   
   Cite this work as:
   * C. Bannwarth, E. Caldeweyher, S. Ehlert, A. Hansen, P. Pracht,
     J. Seibert, S. Spicher, S. Grimme, WIREs Comput. Mol. Sci., 2020, 11,
     e01493. DOI: 10.1002/wcms.1493
   
   for GFN2-xTB:
   * C. Bannwarth, S. Ehlert and S. Grimme., J. Chem. Theory Comput., 2019,
     15, 1652-1671. DOI: 10.1021/acs.jctc.8b01176
   for GFN1-xTB:
   * S. Grimme, C. Bannwarth, P. Shushkov, J. Chem. Theory Comput., 2017,
     13, 1989-2009. DOI: 10.1021/acs.jctc.7b00118
   for GFN0-xTB:
   * P. Pracht, E. Caldeweyher, S. Ehlert, S. Grimme, ChemRxiv, 2019, preprint.
     DOI: 10.26434/chemrxiv.8326202.v1
   for GFN-FF:
   * S. Spicher and S. Grimme, Angew. Chem. Int. Ed., 2020, 59, 15665-15673.
     DOI: 10.1002/anie.202004239
   
   for ALPB and GBSA implicit solvation:
   * S. Ehlert, M. Stahn, S. Spicher, S. Grimme, J. Chem. Theory Comput.,
     2021, 17, 4250-4261. DOI: 10.1021/acs.jctc.1c00471
   
   for ddCOSMO and CPCM-X implicit solvation:
   * M. Stahn, S. Ehlert, S. Grimme, J. Phys. Chem. A,
     2023, XX, XXXX-XXXX. DOI: 10.1021/acs.jpca.3c04382
   
   for DFT-D4:
   * E. Caldeweyher, C. Bannwarth and S. Grimme, J. Chem. Phys., 2017,
     147, 034112. DOI: 10.1063/1.4993215
   * E. Caldeweyher, S. Ehlert, A. Hansen, H. Neugebauer, S. Spicher,
     C. Bannwarth and S. Grimme, J. Chem. Phys., 2019, 150, 154122.
     DOI: 10.1063/1.5090222
   * E. Caldeweyher, J.-M. Mewes, S. Ehlert and S. Grimme, Phys. Chem. Chem. Phys.
     2020, 22, 8499-8512. DOI: 10.1039/D0CP00502A
   
   for sTDA-xTB:
   * S. Grimme and C. Bannwarth, J. Chem. Phys., 2016, 145, 054103.
     DOI: 10.1063/1.4959605
   
   in the mass-spec context:
   * V. Asgeirsson, C. Bauer and S. Grimme, Chem. Sci., 2017, 8, 4879.
     DOI: 10.1039/c7sc00601b
   * J. Koopman and S. Grimme, ACS Omega 2019, 4, 12, 15120-15133.
     DOI: 10.1021/acsomega.9b02011
   
   for metadynamics refer to:
   * S. Grimme, J. Chem. Theory Comput., 2019, 155, 2847-2862
     DOI: 10.1021/acs.jctc.9b00143
   
   for SPH calculations refer to:
   * S. Spicher and S. Grimme, J. Chem. Theory Comput., 2021, 17, 1701-1714
     DOI: 10.1021/acs.jctc.0c01306
   
   for ONIOM refer to:
   * C. Plett, A. Katbashev, S. Ehlert, S. Grimme, M. Bursch,
     Phys. Chem. Chem. Phys., 2023, 25, 17860-17868. DOI: 10.1039/D3CP02178E
   
   for DIPRO refer to:
   * J. Kohn, N. Gildemeister, S. Grimme, D. Fazzi, A. Hansen,
     J. Chem. Phys., 2023, just accepted.
   
   for PTB refer to:
   * S. Grimme, M. Mueller, A. Hansen, J. Chem. Phys., 2023, 158, 124111.
     DOI: 10.1063/5.0137838
   
   with help from (in alphabetical order)
   P. Atkinson, C. Bannwarth, F. Bohle, G. Brandenburg, E. Caldeweyher
   M. Checinski, S. Dohm, S. Ehlert, S. Ehrlich, I. Gerasimov, C. Hölzer
   A. Katbashev, J. Kohn, J. Koopman, C. Lavigne, S. Lehtola, F. März, M. Müller,
   F. Musil, H. Neugebauer, J. Pisarek, C. Plett, P. Pracht, F. Pultar,
   J. Seibert, P. Shushkov, S. Spicher, M. Stahn, M. Steiner, T. Strunk,
   J. Stückrath, T. Rose, and J. Unsleber
   
 * started run on 2026/08/28 at 18:28:33.863     
   ID    Z sym.   atoms
    1    6 C      1, 2, 5-13, 15, 16, 18, 19, 21, 22, 24, 26, 29-31, 35-38
    2    8 O      3, 17, 25, 28, 33, 34
    3    7 N      4, 14, 20, 23, 27, 32
    4    1 H      39-66

           -------------------------------------------------
          |                Calculation Setup                |
           -------------------------------------------------

          program call               : C:\Users\Christian\Miniconda3\Library\bin\xtb.exe S07.xyz --gfn 2 --opt --alpb water
          coordinate file            : S07.xyz
          omp threads                :                    12


           -------------------------------------------------
          |                 G F N 2 - x T B                 |
           -------------------------------------------------

        Reference                      10.1021/acs.jctc.8b01176
      * Hamiltonian:
        H0-scaling (s, p, d)           1.850000    2.230000    2.230000
        zeta-weighting                 0.500000
      * Dispersion:
        s8                             2.700000
        a1                             0.520000
        a2                             5.000000
        s9                             5.000000
      * Repulsion:
        kExp                           1.500000    1.000000
        rExp                           1.000000
      * Coulomb:
        alpha                          2.000000
        third order                    shell-resolved
        anisotropic                    true
        a3                             3.000000
        a5                             4.000000
        cn-shift                       1.200000
        cn-exp                         4.000000
        max-rad                        5.000000

      * Solvation model:               ALPB
        Solvent                        water
        Parameter file                 internal GFN2-xTB/ALPB
        Dielectric constant                8.0200E+01
        Reference state                gsolv [1 M gas/solution]
        Free energy shift                  1.0808E-03 Eh       6.7819E-01 kcal/mol
        Temperature                        2.9815E+02 K
        Density                            1.0000E+00 kg/L
        Solvent mass                       1.8000E+01 g/mol
        Interaction kernel             P16
        Born radius scaling (c1)           1.4744E+00
        Born radii integrator          GBOBC
        Born offset                        0.0000E+00 a0       0.0000E+00 AA
        H-bond correction              true
        Ion screening                  false
        Surface tension                    1.0000E-05 Eh       1.5569E+01 dyn/cm
        Grid points                               230 per atom

          ...................................................
          :                      SETUP                      :
          :.................................................:
          :  # basis functions                 180          :
          :  # atomic orbitals                 180          :
          :  # shells                          104          :
          :  # electrons                       198          :
          :  max. iterations                   250          :
          :  Hamiltonian                  GFN2-xTB          :
          :  restarted?                      false          :
          :  GBSA solvation                   true          :
          :  PC potential                    false          :
          :  electronic temp.          300.0000000     K    :
          :  accuracy                    1.0000000          :
          :  -> integral cutoff          0.2500000E+02      :
          :  -> integral neglect         0.1000000E-07      :
          :  -> SCF convergence          0.1000000E-05 Eh   :
          :  -> wf. convergence          0.1000000E-03 e    :
          :  Broyden damping             0.4000000          :
          :  net charge                          0          :
          :  unpaired electrons                  0          :
          ...................................................

 iter      E             dE          RMSdq      gap      omega  full diag
   1   -112.8916373 -0.112892E+03  0.459E+00    1.81       0.0  T
   2   -113.1622417 -0.270604E+00  0.246E+00    1.08       1.0  T
   3   -113.1704694 -0.822769E-02  0.123E+00    0.64       1.0  T
   4   -113.1780497 -0.758030E-02  0.493E-01    0.42       1.0  T
   5   -113.1852910 -0.724131E-02  0.974E-02    0.33       1.0  T
   6   -113.1853876 -0.966602E-04  0.527E-02    0.35       1.0  T
   7   -113.1854100 -0.223827E-04  0.252E-02    0.37       1.0  T
   8   -113.1854191 -0.910509E-05  0.911E-03    0.37       1.4  T
   9   -113.1854208 -0.164099E-05  0.447E-03    0.38       2.8  T
  10   -113.1854210 -0.207424E-06  0.201E-03    0.38       6.1  T
  11   -113.1854210 -0.596188E-07  0.853E-04    0.37      14.4  T
  12   -113.1854210 -0.132267E-07  0.407E-04    0.38      30.2  T

   *** convergence criteria satisfied after 12 iterations ***

         #    Occupation            Energy/Eh            Energy/eV
      -------------------------------------------------------------
         1        2.0000           -0.7940071             -21.6060
       ...           ...                  ...                  ...
        93        2.0000           -0.4012241             -10.9179
        94        2.0000           -0.4006656             -10.9027
        95        2.0000           -0.3985924             -10.8463
        96        2.0000           -0.3977666             -10.8238
        97        2.0000           -0.3816668             -10.3857
        98        2.0000           -0.3750037             -10.2044
        99        1.9986           -0.3599603              -9.7950 (HOMO)
       100        0.0014           -0.3461785              -9.4200 (LUMO)
       101                         -0.3050779              -8.3016
       102                         -0.2523942              -6.8680
       103                         -0.2453161              -6.6754
       104                         -0.2385851              -6.4922
       ...                                ...                  ...
       180                          0.6366953              17.3254
      -------------------------------------------------------------
                  HL-Gap            0.0137817 Eh            0.3750 eV
             Fermi-level           -0.3530694 Eh           -9.6075 eV

 SCC (total)                   0 d,  0 h,  0 min,  0.082 sec
 SCC setup                      ...        0 min,  0.001 sec (  1.808%)
 Dispersion                     ...        0 min,  0.002 sec (  2.756%)
 classical contributions        ...        0 min,  0.000 sec (  0.190%)
 integral evaluation            ...        0 min,  0.005 sec (  6.457%)
 iterations                     ...        0 min,  0.054 sec ( 66.721%)
 molecular gradient             ...        0 min,  0.017 sec ( 21.147%)
 printout                       ...        0 min,  0.001 sec (  0.878%)

         :::::::::::::::::::::::::::::::::::::::::::::::::::::
         ::                     SUMMARY                     ::
         :::::::::::::::::::::::::::::::::::::::::::::::::::::
         :: total energy            -111.845409416845 Eh    ::
         :: total w/o Gsasa/hb      -111.840645795248 Eh    ::
         :: gradient norm              0.128105885173 Eh/a0 ::
         :: HOMO-LUMO gap              0.375020142309 eV    ::
         ::.................................................::
         :: SCC energy              -113.185346805245 Eh    ::
         :: -> isotropic ES            0.234508514955 Eh    ::
         :: -> anisotropic ES          0.009121380868 Eh    ::
         :: -> anisotropic XC          0.045147342713 Eh    ::
         :: -> dispersion             -0.073423877171 Eh    ::
         :: -> Gsolv                  -0.052502492891 Eh    ::
         ::    -> Gelec               -0.047738871294 Eh    ::
         ::    -> Gsasa                0.004107919272 Eh    ::
         ::    -> Ghb                 -0.009952300567 Eh    ::
         ::    -> Gshift               0.001080759698 Eh    ::
         :: repulsion energy           1.339937388400 Eh    ::
         :: add. restraining           0.000000000000 Eh    ::
         :: total charge               0.000000000187 e     ::
         :::::::::::::::::::::::::::::::::::::::::::::::::::::

      ----------------------------------------------------------- 
     |                   =====================                   |
     |                        A N C O P T                        |
     |                   =====================                   |
     |               Approximate Normal Coordinate               |
     |                Rational Function Optimizer                |
      ----------------------------------------------------------- 
      ----------------------------------------------------------- 
     |                   =====================                   |
     |                        A N C O P T                        |
     |                   =====================                   |
     |               Approximate Normal Coordinate               |
     |                Rational Function Optimizer                |
      ----------------------------------------------------------- 

          ...................................................
          :                      SETUP                      :
          :.................................................:
          :   optimization level            normal          :
          :   max. optcycles                   200          :
          :   ANC micro-cycles                  20          :
          :   degrees of freedom               192          :
          :.................................................:
          :   RF solver                   davidson          :
          :   write xtbopt.log                true          :
          :   linear?                        false          :
          :   energy convergence         0.5000000E-05 Eh   :
          :   grad. convergence          0.1000000E-02 Eh/α :
          :   maxmium RF displ.          1.0000000          :
          :   Hlow (freq-cutoff)         0.1000000E-01      :
          :   Hmax (freq-cutoff)         5.0000000          :
          :   S6 in model hess.         20.0000000          :
          ...................................................

generating ANC from exact Hessian ...
Using Lindh-Hessian (1995)
 Shifting diagonal of input Hessian by    9.9174205924456287E-003
 Lowest  eigenvalues of input Hessian
    0.000000    0.000000    0.000000    0.000000    0.000000    0.000000
    0.010000    0.010015    0.010044    0.010284    0.010544    0.010858
    0.010885    0.011012    0.011162    0.011481    0.011733    0.013051
 Highest eigenvalues
    2.073836    2.176468    2.247581    2.281090    2.281198    2.521741


........................................................................
.............................. CYCLE    1 ..............................
........................................................................

 iter      E             dE          RMSdq      gap      omega  full diag
   1   -113.1854210 -0.113185E+03  0.179E-04    0.38       0.0  T
   2   -113.1854210 -0.307864E-09  0.118E-04    0.38     104.7  T
   3   -113.1854210 -0.814566E-10  0.794E-05    0.38     155.0  T
     SCC iter.                  ...        0 min,  0.016 sec
     gradient                   ...        0 min,  0.016 sec
 * total energy  :  -111.8454094 Eh     change       -0.2665161E-08 Eh
   gradient norm :     0.1281035 Eh/α   predicted     0.0000000E+00 (-100.00%)
   displ. norm   :     0.3408148 α      lambda       -0.2240332E-01
   maximum displ.:     0.1107442 α      in ANC's #16, #103, #60, ...

........................................................................
.............................. CYCLE    2 ..............................
........................................................................

 iter      E             dE          RMSdq      gap      omega  full diag
   1   -113.2534363 -0.113253E+03  0.200E-01    0.61       0.0  T
   2   -113.2538955 -0.459267E-03  0.119E-01    0.66       1.0  T
   3   -113.2539247 -0.291704E-04  0.573E-02    0.66       1.0  T
   4   -113.2539416 -0.169330E-04  0.151E-02    0.66       1.0  T
   5   -113.2539499 -0.825842E-05  0.519E-03    0.66       2.4  T
   6   -113.2539503 -0.409683E-06  0.259E-03    0.66       4.8  T
   7   -113.2539503 -0.280881E-07  0.953E-04    0.66      12.9  T
   8   -113.2539503 -0.143461E-07  0.364E-04    0.66      33.8  T
     SCC iter.                  ...        0 min,  0.038 sec
     gradient                   ...        0 min,  0.015 sec
 * total energy  :  -111.8611418 Eh     change       -0.1573240E-01 Eh
   gradient norm :     0.0572853 Eh/α   predicted    -0.1251750E-01 ( -20.43%)
   displ. norm   :     0.3992435 α      lambda       -0.8662948E-02
   maximum displ.:     0.2130598 α      in ANC's #16, #23, #20, ...

........................................................................
.............................. CYCLE    3 ..............................
........................................................................

 iter      E             dE          RMSdq      gap      omega  full diag
   1   -113.2936835 -0.113294E+03  0.145E-01    0.74       0.0  T
   2   -113.2940824 -0.398918E-03  0.849E-02    0.79       1.0  T
   3   -113.2941179 -0.354620E-04  0.450E-02    0.79       1.0  T
   4   -113.2941192 -0.132991E-05  0.144E-02    0.80       1.0  T
   5   -113.2941268 -0.760056E-05  0.374E-03    0.80       3.3  T
   6   -113.2941270 -0.199183E-06  0.186E-03    0.80       6.6  T
   7   -113.2941270 -0.167236E-07  0.839E-04    0.80      14.7  T
   8   -113.2941270 -0.928972E-08  0.281E-04    0.80      43.8  T
     SCC iter.                  ...        0 min,  0.033 sec
     gradient                   ...        0 min,  0.016 sec
 * total energy  :  -111.8659627 Eh     change       -0.4820890E-02 Eh
   gradient norm :     0.0209409 Eh/α   predicted    -0.5021892E-02 (   4.17%)
   displ. norm   :     0.3888181 α      lambda       -0.3236396E-02
   maximum displ.:     0.2307331 α      in ANC's #16, #23, #20, ...

........................................................................
.............................. CYCLE    4 ..............................
........................................................................

 iter      E             dE          RMSdq      gap      omega  full diag
   1   -113.3015955 -0.113302E+03  0.942E-02    0.73       0.0  T
   2   -113.3016512 -0.556746E-04  0.541E-02    0.77       1.0  T
   3   -113.3016510  0.141186E-06  0.215E-02    0.78       1.0  T
   4   -113.3016563 -0.530924E-05  0.598E-03    0.79       2.1  T
   5   -113.3016577 -0.140232E-05  0.228E-03    0.78       5.4  T
   6   -113.3016578 -0.566137E-07  0.107E-03    0.78      11.5  T
   7   -113.3016578 -0.756118E-08  0.439E-04    0.78      28.0  T
   8   -113.3016578 -0.370554E-08  0.185E-04    0.78      66.7  T
     SCC iter.                  ...        0 min,  0.038 sec
     gradient                   ...        0 min,  0.015 sec
 * total energy  :  -111.8677260 Eh     change       -0.1763280E-02 Eh
   gradient norm :     0.0227192 Eh/α   predicted    -0.1862837E-02 (   5.65%)
   displ. norm   :     0.3918564 α      lambda       -0.2203414E-02
   maximum displ.:     0.2363066 α      in ANC's #16, #23, #8, ...

........................................................................
.............................. CYCLE    5 ..............................
........................................................................

 iter      E             dE          RMSdq      gap      omega  full diag
   1   -113.3012140 -0.113301E+03  0.686E-02    0.73       0.0  T
   2   -113.3012323 -0.182753E-04  0.398E-02    0.75       1.0  T
   3   -113.3012320  0.269700E-06  0.119E-02    0.76       1.0  T
   4   -113.3012348 -0.275813E-05  0.376E-03    0.76       3.3  T
   5   -113.3012352 -0.447692E-06  0.189E-03    0.76       6.5  T
   6   -113.3012352 -0.233968E-07  0.759E-04    0.76      16.2  T
   7   -113.3012352 -0.840889E-08  0.282E-04    0.76      43.6  T
     SCC iter.                  ...        0 min,  0.029 sec
     gradient                   ...        0 min,  0.015 sec
 * total energy  :  -111.8693689 Eh     change       -0.1642919E-02 Eh
   gradient norm :     0.0128532 Eh/α   predicted    -0.1270880E-02 ( -22.65%)
   displ. norm   :     0.4664014 α      lambda       -0.1508452E-02
   maximum displ.:     0.2603534 α      in ANC's #16, #8, #7, ...

........................................................................
.............................. CYCLE    6 ..............................
........................................................................

 iter      E             dE          RMSdq      gap      omega  full diag
   1   -113.3020305 -0.113302E+03  0.793E-02    0.71       0.0  T
   2   -113.3020524 -0.219476E-04  0.461E-02    0.71       1.0  T
   3   -113.3020523  0.867963E-07  0.142E-02    0.72       1.0  T
   4   -113.3020557 -0.335536E-05  0.383E-03    0.72       3.2  T
   5   -113.3020560 -0.322926E-06  0.202E-03    0.72       6.1  T
   6   -113.3020560 -0.207958E-07  0.633E-04    0.72      19.4  T
   7   -113.3020560 -0.835965E-08  0.235E-04    0.72      52.5  T
     SCC iter.                  ...        0 min,  0.036 sec
     gradient                   ...        0 min,  0.018 sec
 * total energy  :  -111.8704542 Eh     change       -0.1085316E-02 Eh
   gradient norm :     0.0126130 Eh/α   predicted    -0.9182932E-03 ( -15.39%)
   displ. norm   :     0.4514918 α      lambda       -0.9717375E-03
   maximum displ.:     0.2130425 α      in ANC's #8, #16, #7, ...

........................................................................
.............................. CYCLE    7 ..............................
........................................................................

 iter      E             dE          RMSdq      gap      omega  full diag
   1   -113.3040532 -0.113304E+03  0.680E-02    0.72       0.0  T
   2   -113.3040627 -0.956731E-05  0.394E-02    0.72       1.0  T
   3   -113.3040619  0.853536E-06  0.104E-02    0.72       1.2  T
   4   -113.3040646 -0.272360E-05  0.295E-03    0.72       4.2  T
   5   -113.3040648 -0.177686E-06  0.148E-03    0.72       8.3  T
   6   -113.3040648 -0.102268E-07  0.448E-04    0.72      27.5  T
   7   -113.3040648 -0.289450E-08  0.165E-04    0.72      74.8  T
     SCC iter.                  ...        0 min,  0.029 sec
     gradient                   ...        0 min,  0.017 sec
 * total energy  :  -111.8712324 Eh     change       -0.7782139E-03 Eh
   gradient norm :     0.0129174 Eh/α   predicted    -0.5849122E-03 ( -24.84%)
   displ. norm   :     0.5253740 α      lambda       -0.1053626E-02
   maximum displ.:     0.2633661 α      in ANC's #8, #7, #16, ...

........................................................................
.............................. CYCLE    8 ..............................
........................................................................

 iter      E             dE          RMSdq      gap      omega  full diag
   1   -113.3068688 -0.113307E+03  0.760E-02    0.74       0.0  T
   2   -113.3068787 -0.988592E-05  0.440E-02    0.73       1.0  T
   3   -113.3068776  0.113190E-05  0.108E-02    0.73       1.1  T
   4   -113.3068808 -0.321747E-05  0.321E-03    0.73       3.8  T
   5   -113.3068810 -0.216070E-06  0.153E-03    0.73       8.0  T
   6   -113.3068810 -0.112119E-07  0.509E-04    0.73      24.2  T
   7   -113.3068810 -0.228431E-08  0.172E-04    0.73      71.7  T
     SCC iter.                  ...        0 min,  0.037 sec
     gradient                   ...        0 min,  0.018 sec
 * total energy  :  -111.8720899 Eh     change       -0.8574249E-03 Eh
   gradient norm :     0.0102343 Eh/α   predicted    -0.6722232E-03 ( -21.60%)
   displ. norm   :     0.5654103 α      lambda       -0.9831523E-03
   maximum displ.:     0.2998365 α      in ANC's #8, #7, #6, ...

........................................................................
.............................. CYCLE    9 ..............................
........................................................................

 iter      E             dE          RMSdq      gap      omega  full diag
   1   -113.3087388 -0.113309E+03  0.815E-02    0.72       0.0  T
   2   -113.3087505 -0.117674E-04  0.472E-02    0.72       1.0  T
   3   -113.3087506 -0.446593E-07  0.106E-02    0.72       1.2  T
   4   -113.3087530 -0.244913E-05  0.337E-03    0.72       3.7  T
   5   -113.3087532 -0.198890E-06  0.177E-03    0.72       6.9  T
   6   -113.3087533 -0.248680E-07  0.452E-04    0.72      27.2  T
   7   -113.3087533 -0.244388E-08  0.182E-04    0.72      67.8  T
     SCC iter.                  ...        0 min,  0.032 sec
     gradient                   ...        0 min,  0.016 sec
 * total energy  :  -111.8728707 Eh     change       -0.7808723E-03 Eh
   gradient norm :     0.0081325 Eh/α   predicted    -0.6487396E-03 ( -16.92%)
   displ. norm   :     0.5475231 α      lambda       -0.7283960E-03
   maximum displ.:     0.3050508 α      in ANC's #8, #7, #6, ...

........................................................................
.............................. CYCLE   10 ..............................
........................................................................

 iter      E             dE          RMSdq      gap      omega  full diag
   1   -113.3092988 -0.113309E+03  0.789E-02    0.73       0.0  T
   2   -113.3093085 -0.966445E-05  0.458E-02    0.73       1.0  T
   3   -113.3093090 -0.594338E-06  0.842E-03    0.72       1.5  T
   4   -113.3093105 -0.144073E-05  0.271E-03    0.73       4.5  T
   5   -113.3093105 -0.583862E-07  0.141E-03    0.73       8.7  T
   6   -113.3093106 -0.299707E-07  0.482E-04    0.73      25.5  T
   7   -113.3093106 -0.323983E-08  0.180E-04    0.73      68.3  T
     SCC iter.                  ...        0 min,  0.036 sec
     gradient                   ...        0 min,  0.016 sec
 * total energy  :  -111.8734186 Eh     change       -0.5478833E-03 Eh
   gradient norm :     0.0076396 Eh/α   predicted    -0.4733790E-03 ( -13.60%)
   displ. norm   :     0.5113789 α      lambda       -0.4766223E-03
   maximum displ.:     0.2957466 α      in ANC's #8, #7, #5, ...

........................................................................
.............................. CYCLE   11 ..............................
........................................................................

 iter      E             dE          RMSdq      gap      omega  full diag
   1   -113.3070631 -0.113307E+03  0.743E-02    0.66       0.0  T
   2   -113.3070767 -0.135527E-04  0.430E-02    0.67       1.0  T
   3   -113.3070780 -0.126923E-05  0.884E-03    0.67       1.4  T
   4   -113.3070790 -0.108425E-05  0.315E-03    0.67       3.9  T
   5   -113.3070792 -0.156622E-06  0.161E-03    0.67       7.6  T
   6   -113.3070792 -0.247914E-07  0.669E-04    0.67      18.4  T
   7   -113.3070792 -0.711694E-08  0.193E-04    0.67      63.7  T
     SCC iter.                  ...        0 min,  0.028 sec
     gradient                   ...        0 min,  0.015 sec
 * total energy  :  -111.8737321 Eh     change       -0.3135242E-03 Eh
   gradient norm :     0.0080948 Eh/α   predicted    -0.3006353E-03 (  -4.11%)
   displ. norm   :     0.4330701 α      lambda       -0.4761909E-03
   maximum displ.:     0.2588784 α      in ANC's #8, #7, #9, ...

........................................................................
.............................. CYCLE   12 ..............................
........................................................................

 iter      E             dE          RMSdq      gap      omega  full diag
   1   -113.3103131 -0.113310E+03  0.677E-02    0.72       0.0  T
   2   -113.3103332 -0.201139E-04  0.387E-02    0.72       1.0  T
   3   -113.3103336 -0.410343E-06  0.119E-02    0.71       1.0  T
   4   -113.3103350 -0.142471E-05  0.367E-03    0.71       3.4  T
   5   -113.3103354 -0.361723E-06  0.151E-03    0.71       8.2  T
   6   -113.3103354 -0.210423E-07  0.728E-04    0.71      16.9  T
   7   -113.3103354 -0.409185E-08  0.244E-04    0.71      50.4  T
     SCC iter.                  ...        0 min,  0.038 sec
     gradient                   ...        0 min,  0.014 sec
 * total energy  :  -111.8739886 Eh     change       -0.2564630E-03 Eh
   gradient norm :     0.0088409 Eh/α   predicted    -0.2827506E-03 (  10.25%)
   displ. norm   :     0.3630127 α      lambda       -0.2718829E-03
   maximum displ.:     0.2200623 α      in ANC's #8, #5, #7, ...

........................................................................
.............................. CYCLE   13 ..............................
........................................................................

 iter      E             dE          RMSdq      gap      omega  full diag
   1   -113.3085525 -0.113309E+03  0.519E-02    0.67       0.0  T
   2   -113.3085567 -0.417954E-05  0.302E-02    0.67       1.0  T
   3   -113.3085571 -0.437360E-06  0.456E-03    0.68       2.7  T
   4   -113.3085575 -0.421863E-06  0.191E-03    0.68       6.4  T
   5   -113.3085576 -0.465441E-07  0.941E-04    0.68      13.1  T
   6   -113.3085576 -0.619619E-08  0.348E-04    0.68      35.3  T
     SCC iter.                  ...        0 min,  0.025 sec
     gradient                   ...        0 min,  0.016 sec
 * total energy  :  -111.8741930 Eh     change       -0.2044081E-03 Eh
   gradient norm :     0.0057142 Eh/α   predicted    -0.1538579E-03 ( -24.73%)
   displ. norm   :     0.3811021 α      lambda       -0.3521119E-03
   maximum displ.:     0.2170543 α      in ANC's #8, #5, #9, ...

........................................................................
.............................. CYCLE   14 ..............................
........................................................................

 iter      E             dE          RMSdq      gap      omega  full diag
   1   -113.3119768 -0.113312E+03  0.588E-02    0.62       0.0  T
   2   -113.3119882 -0.113240E-04  0.338E-02    0.63       1.0  T
   3   -113.3119885 -0.356641E-06  0.865E-03    0.64       1.4  T
   4   -113.3119895 -0.998700E-06  0.230E-03    0.64       5.3  T
   5   -113.3119896 -0.715604E-07  0.119E-03    0.64      10.3  T
   6   -113.3119896 -0.127837E-07  0.488E-04    0.64      25.2  T
   7   -113.3119896 -0.373974E-08  0.175E-04    0.64      70.3  T
     SCC iter.                  ...        0 min,  0.036 sec
     gradient                   ...        0 min,  0.017 sec
 * total energy  :  -111.8744231 Eh     change       -0.2301194E-03 Eh
   gradient norm :     0.0077544 Eh/α   predicted    -0.2016283E-03 ( -12.38%)
   displ. norm   :     0.3967985 α      lambda       -0.2694611E-03
   maximum displ.:     0.2281668 α      in ANC's #8, #5, #9, ...

........................................................................
.............................. CYCLE   15 ..............................
........................................................................

 iter      E             dE          RMSdq      gap      omega  full diag
   1   -113.3106279 -0.113311E+03  0.623E-02    0.64       0.0  T
   2   -113.3106329 -0.507311E-05  0.358E-02    0.63       1.0  T
   3   -113.3106334 -0.462462E-06  0.521E-03    0.63       2.4  T
   4   -113.3106339 -0.480390E-06  0.205E-03    0.63       6.0  T
   5   -113.3106339 -0.413225E-07  0.106E-03    0.63      11.6  T
   6   -113.3106339 -0.166885E-07  0.300E-04    0.64      41.1  T
   7   -113.3106339 -0.130501E-08  0.144E-04    0.64      85.7  T
     SCC iter.                  ...        0 min,  0.028 sec
     gradient                   ...        0 min,  0.015 sec
 * total energy  :  -111.8746228 Eh     change       -0.1996751E-03 Eh
   gradient norm :     0.0075194 Eh/α   predicted    -0.1559465E-03 ( -21.90%)
   displ. norm   :     0.4448988 α      lambda       -0.3223097E-03
   maximum displ.:     0.2208697 α      in ANC's #5, #8, #9, ...

........................................................................
.............................. CYCLE   16 ..............................
........................................................................

 iter      E             dE          RMSdq      gap      omega  full diag
   1   -113.3126342 -0.113313E+03  0.726E-02    0.63       0.0  T
   2   -113.3126395 -0.529763E-05  0.421E-02    0.63       1.0  T
   3   -113.3126397 -0.180707E-06  0.614E-03    0.63       2.0  T
   4   -113.3126409 -0.124022E-05  0.266E-03    0.63       4.6  T
   5   -113.3126410 -0.842153E-07  0.118E-03    0.63      10.4  T
   6   -113.3126410 -0.923136E-08  0.347E-04    0.63      35.5  T
   7   -113.3126410 -0.161175E-08  0.176E-04    0.63      70.1  T
     SCC iter.                  ...        0 min,  0.033 sec
     gradient                   ...        0 min,  0.017 sec
 * total energy  :  -111.8748710 Eh     change       -0.2482118E-03 Eh
   gradient norm :     0.0071462 Eh/α   predicted    -0.1930520E-03 ( -22.22%)
   displ. norm   :     0.4873904 α      lambda       -0.3383493E-03
   maximum displ.:     0.2456524 α      in ANC's #5, #8, #3, ...

........................................................................
.............................. CYCLE   17 ..............................
........................................................................

 iter      E             dE          RMSdq      gap      omega  full diag
   1   -113.3122642 -0.113312E+03  0.814E-02    0.63       0.0  T
   2   -113.3122801 -0.158198E-04  0.463E-02    0.63       1.0  T
   3   -113.3122812 -0.116890E-05  0.101E-02    0.63       1.2  T
   4   -113.3122820 -0.764120E-06  0.269E-03    0.63       4.6  T
   5   -113.3122820 -0.428082E-07  0.149E-03    0.63       8.3  T
   6   -113.3122821 -0.388109E-07  0.408E-04    0.63      30.2  T
   7   -113.3122821 -0.180606E-08  0.200E-04    0.63      61.5  T
     SCC iter.                  ...        0 min,  0.029 sec
     gradient                   ...        0 min,  0.016 sec
 * total energy  :  -111.8751204 Eh     change       -0.2493541E-03 Eh
   gradient norm :     0.0076059 Eh/α   predicted    -0.2093594E-03 ( -16.04%)
   displ. norm   :     0.3995494 α      lambda       -0.2638355E-03
   maximum displ.:     0.2026526 α      in ANC's #5, #8, #3, ...

........................................................................
.............................. CYCLE   18 ..............................
........................................................................

 iter      E             dE          RMSdq      gap      omega  full diag
   1   -113.3137871 -0.113314E+03  0.659E-02    0.62       0.0  T
   2   -113.3137912 -0.411623E-05  0.381E-02    0.62       1.0  T
   3   -113.3137918 -0.637065E-06  0.468E-03    0.62       2.6  T
   4   -113.3137923 -0.498334E-06  0.218E-03    0.62       5.7  T
   5   -113.3137923 -0.358718E-07  0.100E-03    0.62      12.3  T
   6   -113.3137924 -0.161131E-07  0.267E-04    0.62      46.2  T
   7   -113.3137924 -0.714294E-09  0.144E-04    0.62      85.6  T
     SCC iter.                  ...        0 min,  0.034 sec
     gradient                   ...        0 min,  0.020 sec
 * total energy  :  -111.8753051 Eh     change       -0.1847139E-03 Eh
   gradient norm :     0.0062342 Eh/α   predicted    -0.1529759E-03 ( -17.18%)
   displ. norm   :     0.4381045 α      lambda       -0.1820191E-03
   maximum displ.:     0.2209264 α      in ANC's #5, #8, #3, ...

........................................................................
.............................. CYCLE   19 ..............................
........................................................................

 iter      E             dE          RMSdq      gap      omega  full diag
   1   -113.3108798 -0.113311E+03  0.703E-02    0.60       0.0  T
   2   -113.3108849 -0.514243E-05  0.406E-02    0.60       1.0  T
   3   -113.3108846  0.323663E-06  0.719E-03    0.60       1.7  T
   4   -113.3108864 -0.177765E-05  0.257E-03    0.60       4.8  T
   5   -113.3108865 -0.746287E-07  0.119E-03    0.60      10.3  T
   6   -113.3108865 -0.124780E-07  0.324E-04    0.60      38.0  T
   7   -113.3108865 -0.128595E-08  0.167E-04    0.60      73.6  T
     SCC iter.                  ...        0 min,  0.039 sec
     gradient                   ...        0 min,  0.019 sec
 * total energy  :  -111.8754261 Eh     change       -0.1209720E-03 Eh
   gradient norm :     0.0074999 Eh/α   predicted    -0.1084793E-03 ( -10.33%)
   displ. norm   :     0.3284679 α      lambda       -0.3019341E-03
   maximum displ.:     0.1592681 α      in ANC's #5, #3, #13, ...

........................................................................
.............................. CYCLE   20 ..............................
........................................................................

 iter      E             dE          RMSdq      gap      omega  full diag
   1   -113.3181590 -0.113318E+03  0.605E-02    0.65       0.0  T
   2   -113.3181735 -0.144525E-04  0.344E-02    0.64       1.0  T
   3   -113.3181732  0.324885E-06  0.100E-02    0.64       1.2  T
   4   -113.3181746 -0.141474E-05  0.343E-03    0.64       3.6  T
   5   -113.3181750 -0.459531E-06  0.115E-03    0.64      10.7  T
   6   -113.3181751 -0.596300E-08  0.592E-04    0.64      20.8  T
   7   -113.3181751 -0.594510E-08  0.195E-04    0.64      63.0  T
     SCC iter.                  ...        0 min,  0.036 sec
     gradient                   ...        0 min,  0.019 sec
 * total energy  :  -111.8754515 Eh     change       -0.2543999E-04 Eh
   gradient norm :     0.0094536 Eh/α   predicted    -0.1672535E-03 ( 557.44%)
   displ. norm   :     0.2881751 α      lambda       -0.2879106E-03
   maximum displ.:     0.1587482 α      in ANC's #8, #5, #9, ...
 * RMSD in coord.:     0.8293622 α      energy gain  -0.3004208E-01 Eh

generating ANC from exact Hessian ...
Using Lindh-Hessian (1995)
 Shifting diagonal of input Hessian by    9.9042517045385449E-003
 Lowest  eigenvalues of input Hessian
    0.000000    0.000000    0.000000    0.000000    0.000000    0.000000
    0.010000    0.010011    0.010047    0.010288    0.010509    0.010898
    0.010984    0.011095    0.011258    0.011877    0.011996    0.013357
 Highest eigenvalues
    2.168919    2.291144    2.334501    2.335569    2.354950    2.623098


........................................................................
.............................. CYCLE   21 ..............................
........................................................................

 iter      E             dE          RMSdq      gap      omega  full diag
   1   -113.3135408 -0.113314E+03  0.503E-02    0.58       0.0  T
   2   -113.3135518 -0.109649E-04  0.287E-02    0.58       1.0  T
   3   -113.3135524 -0.643688E-06  0.786E-03    0.59       1.6  T
   4   -113.3135527 -0.284073E-06  0.256E-03    0.59       4.8  T
   5   -113.3135529 -0.159094E-06  0.116E-03    0.59      10.6  T
   6   -113.3135529 -0.861685E-08  0.492E-04    0.59      25.0  T
   7   -113.3135529 -0.225955E-08  0.126E-04    0.59      97.9  T
     SCC iter.                  ...        0 min,  0.040 sec
     gradient                   ...        0 min,  0.017 sec
 * total energy  :  -111.8756232 Eh     change       -0.1717031E-03 Eh
   gradient norm :     0.0076182 Eh/α   predicted     0.0000000E+00 (-100.00%)
   displ. norm   :     0.0705352 α      lambda       -0.1339591E-03
   maximum displ.:     0.0350631 α      in ANC's #28, #4, #3, ...

........................................................................
.............................. CYCLE   22 ..............................
........................................................................

 iter      E             dE          RMSdq      gap      omega  full diag
   1   -113.3148571 -0.113315E+03  0.168E-02    0.61       0.0  T
   2   -113.3148592 -0.209610E-05  0.959E-03    0.61       1.3  T
   3   -113.3148594 -0.195066E-06  0.399E-03    0.60       3.1  T
   4   -113.3148595 -0.109349E-06  0.143E-03    0.60       8.6  T
   5   -113.3148596 -0.469320E-07  0.678E-04    0.60      18.2  T
   6   -113.3148596 -0.275408E-08  0.285E-04    0.60      43.2  T
     SCC iter.                  ...        0 min,  0.026 sec
     gradient                   ...        0 min,  0.015 sec
 * total energy  :  -111.8757490 Eh     change       -0.1257764E-03 Eh
   gradient norm :     0.0036839 Eh/α   predicted    -0.7859589E-04 ( -37.51%)
   displ. norm   :     0.2179774 α      lambda       -0.3047560E-03
   maximum displ.:     0.1073078 α      in ANC's #28, #4, #3, ...

........................................................................
.............................. CYCLE   23 ..............................
........................................................................

 iter      E             dE          RMSdq      gap      omega  full diag
   1   -113.3164031 -0.113316E+03  0.453E-02    0.62       0.0  T
   2   -113.3164116 -0.851197E-05  0.265E-02    0.61       1.0  T
   3   -113.3164123 -0.708541E-06  0.946E-03    0.62       1.3  T
   4   -113.3164142 -0.187284E-05  0.341E-03    0.62       3.6  T
   5   -113.3164144 -0.144718E-06  0.181E-03    0.62       6.8  T
   6   -113.3164144 -0.169427E-07  0.457E-04    0.62      27.0  T
   7   -113.3164144 -0.424403E-08  0.179E-04    0.62      68.6  T
     SCC iter.                  ...        0 min,  0.041 sec
     gradient                   ...        0 min,  0.019 sec
 * total energy  :  -111.8759300 Eh     change       -0.1810371E-03 Eh
   gradient norm :     0.0047271 Eh/α   predicted    -0.1596513E-03 ( -11.81%)
   displ. norm   :     0.2138776 α      lambda       -0.1847896E-03
   maximum displ.:     0.1038639 α      in ANC's #4, #3, #28, ...

........................................................................
.............................. CYCLE   24 ..............................
........................................................................

 iter      E             dE          RMSdq      gap      omega  full diag
   1   -113.3156194 -0.113316E+03  0.445E-02    0.58       0.0  T
   2   -113.3156293 -0.991498E-05  0.256E-02    0.58       1.0  T
   3   -113.3156305 -0.115306E-05  0.917E-03    0.59       1.3  T
   4   -113.3156318 -0.130041E-05  0.343E-03    0.59       3.6  T
   5   -113.3156319 -0.170176E-06  0.179E-03    0.59       6.9  T
   6   -113.3156320 -0.206837E-07  0.504E-04    0.59      24.4  T
   7   -113.3156320 -0.381957E-08  0.176E-04    0.59      70.0  T
     SCC iter.                  ...        0 min,  0.034 sec
     gradient                   ...        0 min,  0.016 sec
 * total energy  :  -111.8760162 Eh     change       -0.8620097E-04 Eh
   gradient norm :     0.0068496 Eh/α   predicted    -0.9663907E-04 (  12.11%)
   displ. norm   :     0.0767937 α      lambda       -0.8530696E-04
   maximum displ.:     0.0442987 α      in ANC's #4, #3, #6, ...

........................................................................
.............................. CYCLE   25 ..............................
........................................................................

 iter      E             dE          RMSdq      gap      omega  full diag
   1   -113.3155281 -0.113316E+03  0.161E-02    0.59       0.0  T
   2   -113.3155291 -0.935467E-06  0.917E-03    0.60       1.3  T
   3   -113.3155291  0.519350E-09  0.286E-03    0.60       4.3  T
   4   -113.3155292 -0.156136E-06  0.906E-04    0.60      13.6  T
   5   -113.3155292 -0.217680E-07  0.451E-04    0.60      27.3  T
     SCC iter.                  ...        0 min,  0.027 sec
     gradient                   ...        0 min,  0.020 sec
 * total energy  :  -111.8760893 Eh     change       -0.7305829E-04 Eh
   gradient norm :     0.0041681 Eh/α   predicted    -0.4290587E-04 ( -41.27%)
   displ. norm   :     0.2607992 α      lambda       -0.1898992E-03
   maximum displ.:     0.1518365 α      in ANC's #4, #3, #6, ...

........................................................................
.............................. CYCLE   26 ..............................
........................................................................

 iter      E             dE          RMSdq      gap      omega  full diag
   1   -113.3149861 -0.113315E+03  0.513E-02    0.60       0.0  T
   2   -113.3149908 -0.471287E-05  0.294E-02    0.60       1.0  T
   3   -113.3149907  0.715569E-07  0.654E-03    0.61       1.9  T
   4   -113.3149922 -0.152911E-05  0.252E-03    0.61       4.9  T
   5   -113.3149923 -0.773925E-07  0.121E-03    0.61      10.2  T
   6   -113.3149923 -0.997933E-08  0.347E-04    0.61      35.5  T
   7   -113.3149923 -0.261318E-08  0.145E-04    0.61      85.0  T
     SCC iter.                  ...        0 min,  0.050 sec
     gradient                   ...        0 min,  0.020 sec
 * total energy  :  -111.8762270 Eh     change       -0.1377070E-03 Eh
   gradient norm :     0.0026822 Eh/α   predicted    -0.1014090E-03 ( -26.36%)
   displ. norm   :     0.3022701 α      lambda       -0.1225915E-03
   maximum displ.:     0.1760545 α      in ANC's #4, #3, #6, ...

........................................................................
.............................. CYCLE   27 ..............................
........................................................................

 iter      E             dE          RMSdq      gap      omega  full diag
   1   -113.3138822 -0.113314E+03  0.573E-02    0.59       0.0  T
   2   -113.3138866 -0.437658E-05  0.329E-02    0.59       1.0  T
   3   -113.3138876 -0.100927E-05  0.548E-03    0.60       2.2  T
   4   -113.3138884 -0.777646E-06  0.281E-03    0.60       4.4  T
   5   -113.3138885 -0.745820E-07  0.101E-03    0.60      12.1  T
   6   -113.3138885 -0.992490E-08  0.287E-04    0.60      42.9  T
   7   -113.3138885 -0.134779E-08  0.142E-04    0.60      86.6  T
     SCC iter.                  ...        0 min,  0.043 sec
     gradient                   ...        0 min,  0.018 sec
 * total energy  :  -111.8763200 Eh     change       -0.9303800E-04 Eh
   gradient norm :     0.0051376 Eh/α   predicted    -0.6691477E-04 ( -28.08%)
   displ. norm   :     0.2804524 α      lambda       -0.1308127E-03
   maximum displ.:     0.1652699 α      in ANC's #4, #3, #6, ...

........................................................................
.............................. CYCLE   28 ..............................
........................................................................

 iter      E             dE          RMSdq      gap      omega  full diag
   1   -113.3141024 -0.113314E+03  0.529E-02    0.61       0.0  T
   2   -113.3141060 -0.354261E-05  0.302E-02    0.61       1.0  T
   3   -113.3141067 -0.783104E-06  0.395E-03    0.61       3.1  T
   4   -113.3141070 -0.228818E-06  0.203E-03    0.61       6.1  T
   5   -113.3141070 -0.591037E-07  0.890E-04    0.61      13.8  T
   6   -113.3141070 -0.631465E-08  0.317E-04    0.61      38.9  T
     SCC iter.                  ...        0 min,  0.032 sec
     gradient                   ...        0 min,  0.019 sec
 * total energy  :  -111.8764231 Eh     change       -0.1030554E-03 Eh
   gradient norm :     0.0060084 Eh/α   predicted    -0.7055198E-04 ( -31.54%)
   displ. norm   :     0.4279531 α      lambda       -0.1870356E-03
   maximum displ.:     0.2480622 α      in ANC's #4, #3, #6, ...

........................................................................
.............................. CYCLE   29 ..............................
........................................................................

 iter      E             dE          RMSdq      gap      omega  full diag
   1   -113.3133837 -0.113313E+03  0.777E-02    0.59       0.0  T
   2   -113.3133904 -0.662416E-05  0.446E-02    0.60       1.0  T
   3   -113.3133924 -0.205868E-05  0.560E-03    0.60       2.2  T
   4   -113.3133928 -0.404962E-06  0.315E-03    0.60       3.9  T
   5   -113.3133929 -0.106950E-06  0.113E-03    0.60      10.9  T
   6   -113.3133929 -0.129917E-07  0.326E-04    0.60      37.7  T
   7   -113.3133929 -0.178643E-08  0.160E-04    0.60      77.2  T
     SCC iter.                  ...        0 min,  0.044 sec
     gradient                   ...        0 min,  0.018 sec
 * total energy  :  -111.8765765 Eh     change       -0.1534190E-03 Eh
   gradient norm :     0.0060722 Eh/α   predicted    -0.1106457E-03 ( -27.88%)
   displ. norm   :     0.4809706 α      lambda       -0.2593557E-03
   maximum displ.:     0.2895158 α      in ANC's #3, #4, #6, ...

........................................................................
.............................. CYCLE   30 ..............................
........................................................................

 iter      E             dE          RMSdq      gap      omega  full diag
   1   -113.3142596 -0.113314E+03  0.842E-02    0.61       0.0  T
   2   -113.3142696 -0.100589E-04  0.482E-02    0.61       1.0  T
   3   -113.3142716 -0.196739E-05  0.659E-03    0.61       1.9  T
   4   -113.3142721 -0.512658E-06  0.300E-03    0.61       4.1  T
   5   -113.3142721 -0.269615E-07  0.141E-03    0.61       8.7  T
   6   -113.3142722 -0.426604E-07  0.347E-04    0.61      35.5  T
   7   -113.3142722 -0.889798E-09  0.167E-04    0.61      73.6  T
     SCC iter.                  ...        0 min,  0.041 sec
     gradient                   ...        0 min,  0.019 sec
 * total energy  :  -111.8767768 Eh     change       -0.2003057E-03 Eh
   gradient norm :     0.0051946 Eh/α   predicted    -0.1596800E-03 ( -20.28%)
   displ. norm   :     0.4916827 α      lambda       -0.2126281E-03
   maximum displ.:     0.3057139 α      in ANC's #3, #4, #6, ...

........................................................................
.............................. CYCLE   31 ..............................
........................................................................

 iter      E             dE          RMSdq      gap      omega  full diag
   1   -113.3141000 -0.113314E+03  0.820E-02    0.59       0.0  T
   2   -113.3141081 -0.812553E-05  0.470E-02    0.59       1.0  T
   3   -113.3141099 -0.176219E-05  0.629E-03    0.59       2.0  T
   4   -113.3141105 -0.607956E-06  0.307E-03    0.59       4.0  T
   5   -113.3141106 -0.593185E-07  0.147E-03    0.59       8.4  T
   6   -113.3141106 -0.306401E-07  0.347E-04    0.59      35.4  T
   7   -113.3141106 -0.159504E-08  0.171E-04    0.59      71.9  T
     SCC iter.                  ...        0 min,  0.030 sec
     gradient                   ...        0 min,  0.016 sec
 * total energy  :  -111.8769475 Eh     change       -0.1707321E-03 Eh
   gradient norm :     0.0066298 Eh/α   predicted    -0.1320174E-03 ( -22.68%)
   displ. norm   :     0.4502963 α      lambda       -0.2695591E-03
   maximum displ.:     0.2951205 α      in ANC's #3, #4, #10, ...

........................................................................
.............................. CYCLE   32 ..............................
........................................................................

 iter      E             dE          RMSdq      gap      omega  full diag
   1   -113.3179355 -0.113318E+03  0.722E-02    0.62       0.0  T
   2   -113.3179569 -0.213821E-04  0.406E-02    0.61       1.0  T
   3   -113.3179579 -0.100079E-05  0.129E-02    0.61       1.0  T
   4   -113.3179590 -0.111898E-05  0.319E-03    0.61       3.9  T
   5   -113.3179593 -0.272383E-06  0.167E-03    0.61       7.4  T
   6   -113.3179593 -0.307030E-07  0.487E-04    0.61      25.3  T
   7   -113.3179593 -0.150085E-08  0.196E-04    0.61      62.9  T
     SCC iter.                  ...        0 min,  0.042 sec
     gradient                   ...        0 min,  0.017 sec
 * total energy  :  -111.8771013 Eh     change       -0.1537851E-03 Eh
   gradient norm :     0.0089347 Eh/α   predicted    -0.1621115E-03 (   5.41%)
   displ. norm   :     0.6934162 α      lambda       -0.3026844E-03
   maximum displ.:     0.4397055 α      in ANC's #3, #4, #6, ...

........................................................................
.............................. CYCLE   33 ..............................
........................................................................

 iter      E             dE          RMSdq      gap      omega  full diag
   1   -113.3125846 -0.113313E+03  0.117E-01    0.56       0.0  T
   2   -113.3126014 -0.168416E-04  0.674E-02    0.57       1.0  T
   3   -113.3126049 -0.345684E-05  0.898E-03    0.57       1.4  T
   4   -113.3126061 -0.126918E-05  0.479E-03    0.57       2.6  T
   5   -113.3126065 -0.352443E-06  0.205E-03    0.57       6.0  T
   6   -113.3126065 -0.309334E-07  0.541E-04    0.57      22.7  T
   7   -113.3126065 -0.457139E-08  0.260E-04    0.57      47.4  T
     SCC iter.                  ...        0 min,  0.033 sec
     gradient                   ...        0 min,  0.019 sec
 * total energy  :  -111.8772665 Eh     change       -0.1651529E-03 Eh
   gradient norm :     0.0110194 Eh/α   predicted    -0.2241122E-03 (  35.70%)
   displ. norm   :     0.1469884 α      lambda       -0.1928673E-03
   maximum displ.:     0.1070253 α      in ANC's #3, #4, #5, ...

........................................................................
.............................. CYCLE   34 ..............................
........................................................................

 iter      E             dE          RMSdq      gap      omega  full diag
   1   -113.3153040 -0.113315E+03  0.242E-02    0.57       0.0  T
   2   -113.3153114 -0.745870E-05  0.135E-02    0.57       1.0  T
   3   -113.3153119 -0.476774E-06  0.697E-03    0.57       1.8  T
   4   -113.3153121 -0.215859E-06  0.217E-03    0.57       5.7  T
   5   -113.3153123 -0.161827E-06  0.750E-04    0.57      16.4  T
   6   -113.3153123 -0.485116E-08  0.309E-04    0.57      39.9  T
     SCC iter.                  ...        0 min,  0.083 sec
     gradient                   ...        0 min,  0.016 sec
 * total energy  :  -111.8774007 Eh     change       -0.1342404E-03 Eh
   gradient norm :     0.0073285 Eh/α   predicted    -0.9852009E-04 ( -26.61%)
   displ. norm   :     0.4146611 α      lambda       -0.2853572E-03
   maximum displ.:     0.2961511 α      in ANC's #3, #4, #5, ...

........................................................................
.............................. CYCLE   35 ..............................
........................................................................

 iter      E             dE          RMSdq      gap      omega  full diag
   1   -113.3183307 -0.113318E+03  0.587E-02    0.62       0.0  T
   2   -113.3183410 -0.103476E-04  0.334E-02    0.61       1.0  T
   3   -113.3183415 -0.430793E-06  0.778E-03    0.61       1.6  T
   4   -113.3183424 -0.895578E-06  0.278E-03    0.61       4.4  T
   5   -113.3183426 -0.221009E-06  0.116E-03    0.61      10.6  T
   6   -113.3183426 -0.747278E-08  0.467E-04    0.61      26.3  T
   7   -113.3183426 -0.277250E-08  0.160E-04    0.61      76.7  T
     SCC iter.                  ...        0 min,  0.041 sec
     gradient                   ...        0 min,  0.018 sec
 * total energy  :  -111.8775877 Eh     change       -0.1870002E-03 Eh
   gradient norm :     0.0037438 Eh/α   predicted    -0.1672127E-03 ( -10.58%)
   displ. norm   :     0.7244558 α      lambda       -0.2400549E-03
   maximum displ.:     0.5063936 α      in ANC's #3, #4, #6, ...

........................................................................
.............................. CYCLE   36 ..............................
........................................................................

 iter      E             dE          RMSdq      gap      omega  full diag
   1   -113.3143503 -0.113314E+03  0.102E-01    0.58       0.0  T
   2   -113.3143620 -0.117058E-04  0.587E-02    0.58       1.0  T
   3   -113.3143649 -0.287335E-05  0.709E-03    0.59       1.7  T
   4   -113.3143656 -0.741577E-06  0.384E-03    0.59       3.2  T
   5   -113.3143658 -0.181774E-06  0.159E-03    0.59       7.7  T
   6   -113.3143658 -0.235679E-07  0.463E-04    0.59      26.6  T
   7   -113.3143658 -0.466591E-08  0.209E-04    0.59      58.9  T
     SCC iter.                  ...        0 min,  0.030 sec
     gradient                   ...        0 min,  0.015 sec
 * total energy  :  -111.8777703 Eh     change       -0.1825687E-03 Eh
   gradient norm :     0.0065678 Eh/α   predicted    -0.1830327E-03 (   0.25%)
   displ. norm   :     0.5311268 α      lambda       -0.2163932E-03
   maximum displ.:     0.3896918 α      in ANC's #3, #4, #5, ...

........................................................................
.............................. CYCLE   37 ..............................
........................................................................

 iter      E             dE          RMSdq      gap      omega  full diag
   1   -113.3134854 -0.113313E+03  0.659E-02    0.57       0.0  T
   2   -113.3134902 -0.484171E-05  0.379E-02    0.57       1.0  T
   3   -113.3134913 -0.108019E-05  0.464E-03    0.57       2.7  T
   4   -113.3134917 -0.373723E-06  0.231E-03    0.57       5.3  T
   5   -113.3134917 -0.564528E-07  0.104E-03    0.57      11.8  T
   6   -113.3134917 -0.126646E-07  0.308E-04    0.57      40.0  T
   7   -113.3134917 -0.183361E-08  0.135E-04    0.57      91.5  T
     SCC iter.                  ...        0 min,  0.038 sec
     gradient                   ...        0 min,  0.018 sec
 * total energy  :  -111.8779454 Eh     change       -0.1751691E-03 Eh
   gradient norm :     0.0071814 Eh/α   predicted    -0.1387218E-03 ( -20.81%)
   displ. norm   :     0.4401901 α      lambda       -0.3098023E-03
   maximum displ.:     0.3244003 α      in ANC's #3, #4, #5, ...

........................................................................
.............................. CYCLE   38 ..............................
........................................................................

 iter      E             dE          RMSdq      gap      omega  full diag
   1   -113.3177261 -0.113318E+03  0.538E-02    0.59       0.0  T
   2   -113.3177332 -0.706733E-05  0.310E-02    0.58       1.0  T
   3   -113.3177320  0.119545E-05  0.901E-03    0.59       1.4  T
   4   -113.3177344 -0.245351E-05  0.226E-03    0.58       5.4  T
   5   -113.3177345 -0.136522E-06  0.977E-04    0.58      12.6  T
   6   -113.3177346 -0.729578E-08  0.401E-04    0.58      30.7  T
     SCC iter.                  ...        0 min,  0.030 sec
     gradient                   ...        0 min,  0.018 sec
 * total energy  :  -111.8781177 Eh     change       -0.1722883E-03 Eh
   gradient norm :     0.0071243 Eh/α   predicted    -0.1849206E-03 (   7.33%)
   displ. norm   :     0.7099840 α      lambda       -0.2592598E-03
   maximum displ.:     0.5187305 α      in ANC's #3, #4, #6, ...

........................................................................
.............................. CYCLE   39 ..............................
........................................................................

 iter      E             dE          RMSdq      gap      omega  full diag
   1   -113.3131699 -0.113313E+03  0.925E-02    0.56       0.0  T
   2   -113.3131805 -0.105571E-04  0.535E-02    0.56       1.0  T
   3   -113.3131809 -0.393857E-06  0.905E-03    0.56       1.4  T
   4   -113.3131835 -0.263639E-05  0.375E-03    0.56       3.3  T
   5   -113.3131837 -0.207538E-06  0.155E-03    0.56       7.9  T
   6   -113.3131837 -0.124242E-07  0.478E-04    0.56      25.7  T
   7   -113.3131837 -0.362921E-08  0.221E-04    0.56      55.7  T
     SCC iter.                  ...        0 min,  0.044 sec
     gradient                   ...        0 min,  0.019 sec
 * total energy  :  -111.8782899 Eh     change       -0.1721636E-03 Eh
   gradient norm :     0.0094898 Eh/α   predicted    -0.1949758E-03 (  13.25%)
   displ. norm   :     0.4261368 α      lambda       -0.1656477E-03
   maximum displ.:     0.3185459 α      in ANC's #3, #4, #5, ...

........................................................................
.............................. CYCLE   40 ..............................
........................................................................

 iter      E             dE          RMSdq      gap      omega  full diag
   1   -113.3131887 -0.113313E+03  0.482E-02    0.56       0.0  T
   2   -113.3131911 -0.246701E-05  0.280E-02    0.56       1.0  T
   3   -113.3131915 -0.358681E-06  0.370E-03    0.56       3.3  T
   4   -113.3131919 -0.383762E-06  0.169E-03    0.56       7.3  T
   5   -113.3131919 -0.202063E-07  0.787E-04    0.56      15.6  T
   6   -113.3131919 -0.100665E-07  0.217E-04    0.56      56.7  T
     SCC iter.                  ...        0 min,  0.028 sec
     gradient                   ...        0 min,  0.016 sec
 * total energy  :  -111.8784194 Eh     change       -0.1294577E-03 Eh
   gradient norm :     0.0080002 Eh/α   predicted    -0.9786480E-04 ( -24.40%)
   displ. norm   :     0.4157644 α      lambda       -0.2571751E-03
   maximum displ.:     0.3079748 α      in ANC's #3, #5, #4, ...

........................................................................
.............................. CYCLE   41 ..............................
........................................................................

 iter      E             dE          RMSdq      gap      omega  full diag
   1   -113.3187986 -0.113319E+03  0.482E-02    0.57       0.0  T
   2   -113.3188035 -0.492254E-05  0.280E-02    0.58       1.0  T
   3   -113.3188036 -0.404536E-07  0.594E-03    0.58       2.1  T
   4   -113.3188044 -0.787800E-06  0.208E-03    0.58       5.9  T
   5   -113.3188045 -0.103291E-06  0.103E-03    0.58      11.9  T
   6   -113.3188045 -0.822915E-08  0.352E-04    0.58      35.0  T
   7   -113.3188045 -0.130466E-08  0.122E-04    0.58     101.1  T
     SCC iter.                  ...        0 min,  0.041 sec
     gradient                   ...        0 min,  0.019 sec
 * total energy  :  -111.8785807 Eh     change       -0.1613601E-03 Eh
   gradient norm :     0.0051897 Eh/α   predicted    -0.1508160E-03 (  -6.53%)
   displ. norm   :     0.6872143 α      lambda       -0.1787293E-03
   maximum displ.:     0.5215275 α      in ANC's #3, #4, #5, ...

........................................................................
.............................. CYCLE   42 ..............................
........................................................................

 iter      E             dE          RMSdq      gap      omega  full diag
   1   -113.3157066 -0.113316E+03  0.787E-02    0.55       0.0  T
   2   -113.3157148 -0.817042E-05  0.456E-02    0.56       1.0  T
   3   -113.3157148  0.226329E-07  0.812E-03    0.56       1.5  T
   4   -113.3157169 -0.211775E-05  0.317E-03    0.57       3.9  T
   5   -113.3157171 -0.174973E-06  0.139E-03    0.57       8.9  T
   6   -113.3157171 -0.102426E-07  0.452E-04    0.57      27.2  T
   7   -113.3157171 -0.344437E-08  0.200E-04    0.57      61.6  T
     SCC iter.                  ...        0 min,  0.040 sec
     gradient                   ...        0 min,  0.021 sec
 * total energy  :  -111.8787051 Eh     change       -0.1244335E-03 Eh
   gradient norm :     0.0070839 Eh/α   predicted    -0.1315722E-03 (   5.74%)
   displ. norm   :     0.3950738 α      lambda       -0.1383603E-03
   maximum displ.:     0.3076497 α      in ANC's #3, #5, #4, ...
 * RMSD in coord.:     1.0123442 α      energy gain  -0.3253653E-02 Eh

generating ANC from exact Hessian ...
Using Lindh-Hessian (1995)
 Shifting diagonal of input Hessian by    9.9048932036977320E-003
 Lowest  eigenvalues of input Hessian
    0.000000    0.000000    0.000000    0.000000    0.000000    0.000000
    0.010000    0.010005    0.010047    0.010299    0.010444    0.010972
    0.011017    0.011134    0.011333    0.011746    0.012008    0.013380
 Highest eigenvalues
    2.166843    2.305442    2.336047    2.337526    2.339640    2.623764


........................................................................
.............................. CYCLE   43 ..............................
........................................................................

 iter      E             dE          RMSdq      gap      omega  full diag
   1   -113.3167751 -0.113317E+03  0.433E-02    0.57       0.0  T
   2   -113.3167782 -0.314697E-05  0.252E-02    0.58       1.0  T
   3   -113.3167781  0.965446E-07  0.516E-03    0.58       2.4  T
   4   -113.3167789 -0.749617E-06  0.165E-03    0.58       7.5  T
   5   -113.3167789 -0.490009E-07  0.871E-04    0.58      14.1  T
   6   -113.3167789 -0.518348E-08  0.252E-04    0.58      48.9  T
     SCC iter.                  ...        0 min,  0.025 sec
     gradient                   ...        0 min,  0.016 sec
 * total energy  :  -111.8787996 Eh     change       -0.9443871E-04 Eh
   gradient norm :     0.0046729 Eh/α   predicted     0.0000000E+00 (-100.00%)
   displ. norm   :     0.0583209 α      lambda       -0.9191901E-04
   maximum displ.:     0.0197220 α      in ANC's #16, #23, #3, ...

........................................................................
.............................. CYCLE   44 ..............................
........................................................................

 iter      E             dE          RMSdq      gap      omega  full diag
   1   -113.3182921 -0.113318E+03  0.148E-02    0.59       0.0  T
   2   -113.3182929 -0.791737E-06  0.866E-03    0.59       1.4  T
   3   -113.3182929  0.594582E-08  0.288E-03    0.59       4.3  T
   4   -113.3182931 -0.199505E-06  0.927E-04    0.59      13.3  T
   5   -113.3182931 -0.116686E-07  0.477E-04    0.59      25.8  T
     SCC iter.                  ...        0 min,  0.024 sec
     gradient                   ...        0 min,  0.017 sec
 * total energy  :  -111.8788750 Eh     change       -0.7545844E-04 Eh
   gradient norm :     0.0021258 Eh/α   predicted    -0.4708617E-04 ( -37.60%)
   displ. norm   :     0.1625399 α      lambda       -0.1581615E-03
   maximum displ.:     0.0580055 α      in ANC's #23, #3, #16, ...

........................................................................
.............................. CYCLE   45 ..............................
........................................................................

 iter      E             dE          RMSdq      gap      omega  full diag
   1   -113.3195834 -0.113320E+03  0.328E-02    0.59       0.0  T
   2   -113.3195862 -0.280601E-05  0.191E-02    0.59       1.0  T
   3   -113.3195863 -0.240370E-07  0.588E-03    0.59       2.1  T
   4   -113.3195874 -0.114317E-05  0.219E-03    0.59       5.6  T
   5   -113.3195874 -0.245676E-07  0.101E-03    0.59      12.1  T
   6   -113.3195874 -0.118999E-07  0.261E-04    0.59      47.2  T
   7   -113.3195874 -0.131757E-08  0.950E-05    0.59     129.6  T
     SCC iter.                  ...        0 min,  0.029 sec
     gradient                   ...        0 min,  0.016 sec
 * total energy  :  -111.8789723 Eh     change       -0.9730134E-04 Eh
   gradient norm :     0.0028963 Eh/α   predicted    -0.8117248E-04 ( -16.58%)
   displ. norm   :     0.1294431 α      lambda       -0.7332665E-04
   maximum displ.:     0.0534217 α      in ANC's #3, #10, #23, ...

........................................................................
.............................. CYCLE   46 ..............................
........................................................................

 iter      E             dE          RMSdq      gap      omega  full diag
   1   -113.3188664 -0.113319E+03  0.257E-02    0.58       0.0  T
   2   -113.3188682 -0.181886E-05  0.148E-02    0.58       1.0  T
   3   -113.3188685 -0.307067E-06  0.374E-03    0.58       3.3  T
   4   -113.3188688 -0.283494E-06  0.169E-03    0.58       7.3  T
   5   -113.3188689 -0.347463E-07  0.858E-04    0.58      14.3  T
   6   -113.3188689 -0.553838E-08  0.178E-04    0.58      69.2  T
     SCC iter.                  ...        0 min,  0.029 sec
     gradient                   ...        0 min,  0.017 sec
 * total energy  :  -111.8790074 Eh     change       -0.3504634E-04 Eh
   gradient norm :     0.0038528 Eh/α   predicted    -0.3728080E-04 (   6.38%)
   displ. norm   :     0.0839256 α      lambda       -0.4890838E-04
   maximum displ.:     0.0416464 α      in ANC's #3, #10, #15, ...

........................................................................
.............................. CYCLE   47 ..............................
........................................................................

 iter      E             dE          RMSdq      gap      omega  full diag
   1   -113.3181673 -0.113318E+03  0.155E-02    0.58       0.0  T
   2   -113.3181680 -0.655427E-06  0.907E-03    0.59       1.4  T
   3   -113.3181681 -0.102983E-06  0.212E-03    0.59       5.8  T
   4   -113.3181681 -0.612742E-07  0.865E-04    0.59      14.2  T
   5   -113.3181682 -0.807545E-08  0.492E-04    0.59      25.0  T
     SCC iter.                  ...        0 min,  0.024 sec
     gradient                   ...        0 min,  0.015 sec
 * total energy  :  -111.8790442 Eh     change       -0.3684494E-04 Eh
   gradient norm :     0.0022406 Eh/α   predicted    -0.2462983E-04 ( -33.15%)
   displ. norm   :     0.1281101 α      lambda       -0.6156251E-04
   maximum displ.:     0.0690793 α      in ANC's #3, #10, #15, ...

........................................................................
.............................. CYCLE   48 ..............................
........................................................................

 iter      E             dE          RMSdq      gap      omega  full diag
   1   -113.3175620 -0.113318E+03  0.231E-02    0.59       0.0  T
   2   -113.3175632 -0.121627E-05  0.135E-02    0.59       1.0  T
   3   -113.3175633 -0.121033E-06  0.281E-03    0.59       4.4  T
   4   -113.3175635 -0.138674E-06  0.107E-03    0.59      11.5  T
   5   -113.3175635 -0.138843E-07  0.585E-04    0.59      21.0  T
   6   -113.3175635 -0.285229E-08  0.206E-04    0.59      59.8  T
     SCC iter.                  ...        0 min,  0.026 sec
     gradient                   ...        0 min,  0.017 sec
 * total energy  :  -111.8790879 Eh     change       -0.4366986E-04 Eh
   gradient norm :     0.0022594 Eh/α   predicted    -0.3129117E-04 ( -28.35%)
   displ. norm   :     0.1771235 α      lambda       -0.5007426E-04
   maximum displ.:     0.0953559 α      in ANC's #3, #10, #1, ...

........................................................................
.............................. CYCLE   49 ..............................
........................................................................

 iter      E             dE          RMSdq      gap      omega  full diag
   1   -113.3171246 -0.113317E+03  0.295E-02    0.59       0.0  T
   2   -113.3171258 -0.123103E-05  0.171E-02    0.59       1.0  T
   3   -113.3171262 -0.392453E-06  0.238E-03    0.59       5.2  T
   4   -113.3171263 -0.586160E-07  0.135E-03    0.59       9.1  T
   5   -113.3171263 -0.224421E-07  0.612E-04    0.59      20.1  T
   6   -113.3171263 -0.413868E-08  0.158E-04    0.59      78.0  T
     SCC iter.                  ...        0 min,  0.032 sec
     gradient                   ...        0 min,  0.016 sec
 * total energy  :  -111.8791273 Eh     change       -0.3940767E-04 Eh
   gradient norm :     0.0030407 Eh/α   predicted    -0.2582309E-04 ( -34.47%)
   displ. norm   :     0.2173792 α      lambda       -0.6163742E-04
   maximum displ.:     0.1203158 α      in ANC's #3, #10, #7, ...

........................................................................
.............................. CYCLE   50 ..............................
........................................................................

 iter      E             dE          RMSdq      gap      omega  full diag
   1   -113.3173868 -0.113317E+03  0.351E-02    0.59       0.0  T
   2   -113.3173882 -0.145309E-05  0.204E-02    0.60       1.0  T
   3   -113.3173887 -0.419354E-06  0.269E-03    0.60       4.6  T
   4   -113.3173888 -0.114560E-06  0.146E-03    0.60       8.4  T
   5   -113.3173888 -0.141406E-07  0.638E-04    0.60      19.3  T
   6   -113.3173888 -0.714698E-08  0.174E-04    0.60      70.8  T
     SCC iter.                  ...        0 min,  0.025 sec
     gradient                   ...        0 min,  0.016 sec
 * total energy  :  -111.8791744 Eh     change       -0.4709047E-04 Eh
   gradient norm :     0.0031048 Eh/α   predicted    -0.3227545E-04 ( -31.46%)
   displ. norm   :     0.2183056 α      lambda       -0.5376428E-04
   maximum displ.:     0.1242596 α      in ANC's #3, #10, #1, ...

........................................................................
.............................. CYCLE   51 ..............................
........................................................................

 iter      E             dE          RMSdq      gap      omega  full diag
   1   -113.3178693 -0.113318E+03  0.339E-02    0.59       0.0  T
   2   -113.3178709 -0.163118E-05  0.196E-02    0.60       1.0  T
   3   -113.3178713 -0.361945E-06  0.286E-03    0.60       4.3  T
   4   -113.3178714 -0.141150E-06  0.142E-03    0.60       8.7  T
   5   -113.3178714 -0.129310E-07  0.686E-04    0.60      17.9  T
   6   -113.3178714 -0.937008E-08  0.167E-04    0.60      73.9  T
     SCC iter.                  ...        0 min,  0.036 sec
     gradient                   ...        0 min,  0.016 sec
 * total energy  :  -111.8792149 Eh     change       -0.4048766E-04 Eh
   gradient norm :     0.0024728 Eh/α   predicted    -0.2816813E-04 ( -30.43%)
   displ. norm   :     0.1765191 α      lambda       -0.4343687E-04
   maximum displ.:     0.1046842 α      in ANC's #3, #7, #1, ...

........................................................................
.............................. CYCLE   52 ..............................
........................................................................

 iter      E             dE          RMSdq      gap      omega  full diag
   1   -113.3189346 -0.113319E+03  0.259E-02    0.60       0.0  T
   2   -113.3189355 -0.918883E-06  0.150E-02    0.60       1.0  T
   3   -113.3189355 -0.373119E-07  0.256E-03    0.60       4.8  T
   4   -113.3189357 -0.214141E-06  0.101E-03    0.61      12.2  T
   5   -113.3189358 -0.121112E-07  0.484E-04    0.60      25.4  T
   6   -113.3189358 -0.238273E-08  0.151E-04    0.60      81.4  T
     SCC iter.                  ...        0 min,  0.026 sec
     gradient                   ...        0 min,  0.015 sec
 * total energy  :  -111.8792467 Eh     change       -0.3181699E-04 Eh
   gradient norm :     0.0020068 Eh/α   predicted    -0.2241249E-04 ( -29.56%)
   displ. norm   :     0.2082568 α      lambda       -0.3854329E-04
   maximum displ.:     0.1227625 α      in ANC's #3, #1, #7, ...

........................................................................
.............................. CYCLE   53 ..............................
........................................................................

 iter      E             dE          RMSdq      gap      omega  full diag
   1   -113.3186928 -0.113319E+03  0.290E-02    0.59       0.0  T
   2   -113.3186947 -0.185708E-05  0.167E-02    0.60       1.0  T
   3   -113.3186948 -0.187391E-06  0.306E-03    0.60       4.0  T
   4   -113.3186950 -0.176181E-06  0.134E-03    0.60       9.2  T
   5   -113.3186951 -0.364632E-07  0.636E-04    0.60      19.4  T
   6   -113.3186951 -0.382568E-08  0.205E-04    0.60      60.2  T
     SCC iter.                  ...        0 min,  0.032 sec
     gradient                   ...        0 min,  0.015 sec
 * total energy  :  -111.8792748 Eh     change       -0.2812304E-04 Eh
   gradient norm :     0.0022673 Eh/α   predicted    -0.2010867E-04 ( -28.50%)
   displ. norm   :     0.1803324 α      lambda       -0.3652379E-04
   maximum displ.:     0.1078194 α      in ANC's #3, #1, #7, ...

........................................................................
.............................. CYCLE   54 ..............................
........................................................................

 iter      E             dE          RMSdq      gap      omega  full diag
   1   -113.3190143 -0.113319E+03  0.235E-02    0.61       0.0  T
   2   -113.3190153 -0.955792E-06  0.135E-02    0.61       1.0  T
   3   -113.3190153 -0.189016E-07  0.262E-03    0.61       4.7  T
   4   -113.3190155 -0.188494E-06  0.941E-04    0.61      13.1  T
   5   -113.3190155 -0.144108E-07  0.476E-04    0.61      25.9  T
     SCC iter.                  ...        0 min,  0.020 sec
     gradient                   ...        0 min,  0.015 sec
 * total energy  :  -111.8793032 Eh     change       -0.2835144E-04 Eh
   gradient norm :     0.0022757 Eh/α   predicted    -0.1885797E-04 ( -33.48%)
   displ. norm   :     0.2164666 α      lambda       -0.3810009E-04
   maximum displ.:     0.1304546 α      in ANC's #3, #1, #4, ...

........................................................................
.............................. CYCLE   55 ..............................
........................................................................

 iter      E             dE          RMSdq      gap      omega  full diag
   1   -113.3185563 -0.113319E+03  0.268E-02    0.60       0.0  T
   2   -113.3185573 -0.106025E-05  0.155E-02    0.61       1.0  T
   3   -113.3185575 -0.138913E-06  0.208E-03    0.61       5.9  T
   4   -113.3185576 -0.906596E-07  0.983E-04    0.61      12.5  T
   5   -113.3185576 -0.160229E-07  0.484E-04    0.61      25.5  T
     SCC iter.                  ...        0 min,  0.024 sec
     gradient                   ...        0 min,  0.018 sec
 * total energy  :  -111.8793345 Eh     change       -0.3127712E-04 Eh
   gradient norm :     0.0021874 Eh/α   predicted    -0.1994641E-04 ( -36.23%)
   displ. norm   :     0.2117030 α      lambda       -0.4242952E-04
   maximum displ.:     0.1288111 α      in ANC's #3, #1, #4, ...

........................................................................
.............................. CYCLE   56 ..............................
........................................................................

 iter      E             dE          RMSdq      gap      omega  full diag
   1   -113.3185154 -0.113319E+03  0.258E-02    0.60       0.0  T
   2   -113.3185163 -0.978243E-06  0.149E-02    0.61       1.0  T
   3   -113.3185165 -0.133897E-06  0.182E-03    0.61       6.8  T
   4   -113.3185165 -0.500748E-07  0.845E-04    0.61      14.6  T
   5   -113.3185165 -0.111780E-07  0.454E-04    0.61      27.1  T
     SCC iter.                  ...        0 min,  0.023 sec
     gradient                   ...        0 min,  0.017 sec
 * total energy  :  -111.8793685 Eh     change       -0.3407065E-04 Eh
   gradient norm :     0.0019643 Eh/α   predicted    -0.2217345E-04 ( -34.92%)
   displ. norm   :     0.3538548 α      lambda       -0.4451747E-04
   maximum displ.:     0.2164316 α      in ANC's #3, #1, #4, ...

........................................................................
.............................. CYCLE   57 ..............................
........................................................................

 iter      E             dE          RMSdq      gap      omega  full diag
   1   -113.3175792 -0.113318E+03  0.431E-02    0.60       0.0  T
   2   -113.3175824 -0.317595E-05  0.250E-02    0.61       1.0  T
   3   -113.3175827 -0.307588E-06  0.347E-03    0.62       3.5  T
   4   -113.3175829 -0.168928E-06  0.140E-03    0.62       8.8  T
   5   -113.3175829 -0.358162E-07  0.767E-04    0.62      16.0  T
   6   -113.3175829 -0.793257E-08  0.259E-04    0.62      47.6  T
     SCC iter.                  ...        0 min,  0.030 sec
     gradient                   ...        0 min,  0.017 sec
 * total energy  :  -111.8794118 Eh     change       -0.4322352E-04 Eh
   gradient norm :     0.0026726 Eh/α   predicted    -0.2349967E-04 ( -45.63%)
   displ. norm   :     0.1124743 α      lambda       -0.3269005E-04
   maximum displ.:     0.0649192 α      in ANC's #3, #1, #4, ...

........................................................................
.............................. CYCLE   58 ..............................
........................................................................

 iter      E             dE          RMSdq      gap      omega  full diag
   1   -113.3187094 -0.113319E+03  0.159E-02    0.62       0.0  T
   2   -113.3187097 -0.350912E-06  0.925E-03    0.62       1.3  T
   3   -113.3187097  0.239445E-07  0.179E-03    0.62       6.9  T
   4   -113.3187098 -0.996900E-07  0.550E-04    0.62      22.4  T
   5   -113.3187098 -0.414525E-08  0.311E-04    0.62      39.6  T
     SCC iter.                  ...        0 min,  0.031 sec
     gradient                   ...        0 min,  0.018 sec
 * total energy  :  -111.8794338 Eh     change       -0.2201447E-04 Eh
   gradient norm :     0.0026683 Eh/α   predicted    -0.1655625E-04 ( -24.79%)
   displ. norm   :     0.1913438 α      lambda       -0.4413897E-04
   maximum displ.:     0.1209723 α      in ANC's #3, #1, #4, ...

........................................................................
.............................. CYCLE   59 ..............................
........................................................................

 iter      E             dE          RMSdq      gap      omega  full diag
   1   -113.3185359 -0.113319E+03  0.227E-02    0.61       0.0  T
   2   -113.3185368 -0.861572E-06  0.132E-02    0.62       1.0  T
   3   -113.3185369 -0.117217E-06  0.222E-03    0.62       5.5  T
   4   -113.3185370 -0.728120E-07  0.884E-04    0.62      13.9  T
   5   -113.3185370 -0.582199E-08  0.481E-04    0.62      25.6  T
     SCC iter.                  ...        0 min,  0.022 sec
     gradient                   ...        0 min,  0.016 sec
 * total energy  :  -111.8794669 Eh     change       -0.3309380E-04 Eh
   gradient norm :     0.0024172 Eh/α   predicted    -0.2287795E-04 ( -30.87%)
   displ. norm   :     0.1887338 α      lambda       -0.3448150E-04
   maximum displ.:     0.1216298 α      in ANC's #3, #1, #4, ...

........................................................................
.............................. CYCLE   60 ..............................
........................................................................

 iter      E             dE          RMSdq      gap      omega  full diag
   1   -113.3183894 -0.113318E+03  0.215E-02    0.62       0.0  T
   2   -113.3183898 -0.386670E-06  0.126E-02    0.62       1.0  T
   3   -113.3183899 -0.893894E-07  0.161E-03    0.62       7.6  T
   4   -113.3183899 -0.720016E-07  0.850E-04    0.62      14.5  T
   5   -113.3183899 -0.510667E-08  0.377E-04    0.62      32.6  T
     SCC iter.                  ...        0 min,  0.030 sec
     gradient                   ...        0 min,  0.016 sec
 * total energy  :  -111.8794924 Eh     change       -0.2550013E-04 Eh
   gradient norm :     0.0023446 Eh/α   predicted    -0.1785680E-04 ( -29.97%)
   displ. norm   :     0.1699130 α      lambda       -0.2772096E-04
   maximum displ.:     0.1123694 α      in ANC's #3, #1, #4, ...

........................................................................
.............................. CYCLE   61 ..............................
........................................................................

 iter      E             dE          RMSdq      gap      omega  full diag
   1   -113.3183484 -0.113318E+03  0.196E-02    0.63       0.0  T
   2   -113.3183487 -0.323018E-06  0.115E-02    0.63       1.1  T
   3   -113.3183488 -0.309638E-07  0.167E-03    0.63       7.4  T
   4   -113.3183489 -0.102898E-06  0.780E-04    0.63      15.8  T
   5   -113.3183489 -0.463162E-08  0.368E-04    0.63      33.5  T
     SCC iter.                  ...        0 min,  0.024 sec
     gradient                   ...        0 min,  0.018 sec
 * total energy  :  -111.8795139 Eh     change       -0.2153749E-04 Eh
   gradient norm :     0.0020395 Eh/α   predicted    -0.1426455E-04 ( -33.77%)
   displ. norm   :     0.1867214 α      lambda       -0.2857929E-04
   maximum displ.:     0.1257456 α      in ANC's #3, #1, #4, ...

........................................................................
.............................. CYCLE   62 ..............................
........................................................................

 iter      E             dE          RMSdq      gap      omega  full diag
   1   -113.3183095 -0.113318E+03  0.220E-02    0.63       0.0  T
   2   -113.3183100 -0.507451E-06  0.130E-02    0.63       1.0  T
   3   -113.3183100 -0.102377E-07  0.196E-03    0.63       6.3  T
   4   -113.3183101 -0.119831E-06  0.787E-04    0.63      15.6  T
   5   -113.3183101 -0.965386E-08  0.434E-04    0.63      28.3  T
     SCC iter.                  ...        0 min,  0.038 sec
     gradient                   ...        0 min,  0.017 sec
 * total energy  :  -111.8795359 Eh     change       -0.2197016E-04 Eh
   gradient norm :     0.0015792 Eh/α   predicted    -0.1479000E-04 ( -32.68%)
   displ. norm   :     0.3001523 α      lambda       -0.2471222E-04
   maximum displ.:     0.2045766 α      in ANC's #3, #1, #4, ...

........................................................................
.............................. CYCLE   63 ..............................
........................................................................

 iter      E             dE          RMSdq      gap      omega  full diag
   1   -113.3178251 -0.113318E+03  0.361E-02    0.64       0.0  T
   2   -113.3178260 -0.890981E-06  0.213E-02    0.64       1.0  T
   3   -113.3178261 -0.143347E-06  0.227E-03    0.64       5.4  T
   4   -113.3178263 -0.126426E-06  0.107E-03    0.64      11.5  T
   5   -113.3178263 -0.106183E-07  0.586E-04    0.64      21.0  T
   6   -113.3178263 -0.432694E-08  0.129E-04    0.64      95.2  T
     SCC iter.                  ...        0 min,  0.024 sec
     gradient                   ...        0 min,  0.017 sec
 * total energy  :  -111.8795594 Eh     change       -0.2352003E-04 Eh
   gradient norm :     0.0018246 Eh/α   predicted    -0.1285551E-04 ( -45.34%)
   displ. norm   :     0.1466317 α      lambda       -0.1295254E-04
   maximum displ.:     0.1019774 α      in ANC's #3, #1, #4, ...

........................................................................
.............................. CYCLE   64 ..............................
........................................................................

 iter      E             dE          RMSdq      gap      omega  full diag
   1   -113.3184654 -0.113318E+03  0.176E-02    0.65       0.0  T
   2   -113.3184657 -0.332754E-06  0.103E-02    0.65       1.2  T
   3   -113.3184658 -0.168883E-07  0.127E-03    0.65       9.7  T
   4   -113.3184658 -0.310900E-07  0.483E-04    0.65      25.5  T
   5   -113.3184658 -0.553668E-08  0.259E-04    0.65      47.6  T
     SCC iter.                  ...        0 min,  0.025 sec
     gradient                   ...        0 min,  0.017 sec
 * total energy  :  -111.8795743 Eh     change       -0.1490500E-04 Eh
   gradient norm :     0.0023399 Eh/α   predicted    -0.6542865E-05 ( -56.10%)
   displ. norm   :     0.2311009 α      lambda       -0.2452032E-04
   maximum displ.:     0.1574407 α      in ANC's #3, #1, #4, ...

........................................................................
.............................. CYCLE   65 ..............................
........................................................................

 iter      E             dE          RMSdq      gap      omega  full diag
   1   -113.3180050 -0.113318E+03  0.287E-02    0.64       0.0  T
   2   -113.3180062 -0.125813E-05  0.167E-02    0.65       1.0  T
   3   -113.3180063 -0.102100E-06  0.212E-03    0.65       5.8  T
   4   -113.3180064 -0.484302E-07  0.773E-04    0.65      15.9  T
   5   -113.3180064 -0.116793E-07  0.417E-04    0.65      29.6  T
     SCC iter.                  ...        0 min,  0.021 sec
     gradient                   ...        0 min,  0.014 sec
 * total energy  :  -111.8795913 Eh     change       -0.1699439E-04 Eh
   gradient norm :     0.0016132 Eh/α   predicted    -0.1291594E-04 ( -24.00%)
   displ. norm   :     0.3035551 α      lambda       -0.1889998E-04
   maximum displ.:     0.2117846 α      in ANC's #3, #1, #4, ...

........................................................................
.............................. CYCLE   66 ..............................
........................................................................

 iter      E             dE          RMSdq      gap      omega  full diag
   1   -113.3183616 -0.113318E+03  0.361E-02    0.65       0.0  T
   2   -113.3183623 -0.635845E-06  0.211E-02    0.65       1.0  T
   3   -113.3183624 -0.136372E-06  0.154E-03    0.65       8.0  T
   4   -113.3183624 -0.422591E-07  0.824E-04    0.65      14.9  T
   5   -113.3183625 -0.103927E-07  0.392E-04    0.65      31.4  T
     SCC iter.                  ...        0 min,  0.021 sec
     gradient                   ...        0 min,  0.016 sec
 * total energy  :  -111.8796100 Eh     change       -0.1867901E-04 Eh
   gradient norm :     0.0018478 Eh/α   predicted    -0.9839438E-05 ( -47.32%)
   displ. norm   :     0.2115038 α      lambda       -0.1087308E-04
   maximum displ.:     0.1509688 α      in ANC's #3, #1, #4, ...
 * RMSD in coord.:     0.4943165 α      energy gain  -0.9048227E-03 Eh

generating ANC from exact Hessian ...
Using Lindh-Hessian (1995)
 Shifting diagonal of input Hessian by    9.9107873677028984E-003
 Lowest  eigenvalues of input Hessian
    0.000000    0.000000    0.000000    0.000000    0.000000    0.000000
    0.010000    0.010008    0.010056    0.010265    0.010471    0.010899
    0.011000    0.011126    0.011302    0.011683    0.011986    0.013384
 Highest eigenvalues
    2.166907    2.316026    2.336223    2.336987    2.340680    2.627228


........................................................................
.............................. CYCLE   67 ..............................
........................................................................

 iter      E             dE          RMSdq      gap      omega  full diag
   1   -113.3189407 -0.113319E+03  0.233E-02    0.66       0.0  T
   2   -113.3189409 -0.246385E-06  0.137E-02    0.66       1.0  T
   3   -113.3189409  0.465895E-07  0.157E-03    0.66       7.8  T
   4   -113.3189410 -0.125750E-06  0.549E-04    0.66      22.4  T
   5   -113.3189410 -0.418103E-08  0.267E-04    0.66      46.0  T
     SCC iter.                  ...        0 min,  0.021 sec
     gradient                   ...        0 min,  0.016 sec
 * total energy  :  -111.8796222 Eh     change       -0.1221697E-04 Eh
   gradient norm :     0.0011206 Eh/α   predicted     0.0000000E+00 (-100.00%)
   displ. norm   :     0.0194927 α      lambda       -0.3772403E-05
   maximum displ.:     0.0083199 α      in ANC's #18, #17, #22, ...

........................................................................
.............................. CYCLE   68 ..............................
........................................................................

 iter      E             dE          RMSdq      gap      omega  full diag
   1   -113.3187509 -0.113319E+03  0.413E-03    0.65       0.0  T
   2   -113.3187510 -0.918552E-07  0.246E-03    0.65       5.0  T
   3   -113.3187510 -0.237104E-08  0.774E-04    0.65      15.9  T
   4   -113.3187510 -0.810127E-08  0.293E-04    0.65      42.1  T
     SCC iter.                  ...        0 min,  0.020 sec
     gradient                   ...        0 min,  0.018 sec
 * total energy  :  -111.8796267 Eh     change       -0.4552108E-05 Eh
   gradient norm :     0.0005253 Eh/α   predicted    -0.2150461E-05 ( -52.76%)
   displ. norm   :     0.0448675 α      lambda       -0.6097593E-05
   maximum displ.:     0.0186884 α      in ANC's #18, #17, #22, ...

   *** GEOMETRY OPTIMIZATION CONVERGED AFTER 68 ITERATIONS ***

------------------------------------------------------------------------
 total energy gain   :        -0.0342173 Eh      -21.4717 kcal/mol
 total RMSD          :         1.9416292 a0        1.0275 Å
 total power (kW/mol):        -1.3211408 (step)  -21.2605 (real)
------------------------------------------------------------------------

 ANCopt (total)                0 d,  0 h,  0 min,  4.226 sec
 optimizer setup                ...        0 min,  0.001 sec (  0.012%)
 model hessian                  ...        0 min,  0.185 sec (  4.367%)
 ANC generation                 ...        0 min,  0.013 sec (  0.302%)
 coordinate transformation      ...        0 min,  0.003 sec (  0.060%)
 single point calculation       ...        0 min,  3.962 sec ( 93.760%)
 optimization log               ...        0 min,  0.035 sec (  0.826%)
 hessian update                 ...        0 min,  0.008 sec (  0.185%)
 rational function              ...        0 min,  0.015 sec (  0.355%)

================
 final structure:
================
66
 xtb: 6.7.1 (edcfbbe)
C           -6.23154209256941       -5.78308713912462        0.77212780665896
C           -5.13850512227822       -4.90654496157356        1.33578631568184
O           -4.85551473744803       -4.88672591691866        2.52661908401111
N           -4.52218453692546       -4.16035944190500        0.38684306525873
C           -3.46995065193432       -3.24603831529743        0.51024901732546
C           -3.02525461381432       -2.61038635084535       -0.64932446725054
C           -1.98966411868092       -1.70198283765184       -0.59694283920610
C           -1.36336952817600       -1.41063807726768        0.60995471881981
C           -0.25319289134854       -0.38461625059185        0.67361059267538
C           -0.92900136572865        0.96882039574234        0.64933784988965
C           -1.29640041826415        1.56906656029616       -0.54847598204866
C           -1.96204367794622        2.77953117641394       -0.56682651299193
C           -2.28675803564534        3.41438620366473        0.62839604753448
N           -2.96454885202975        4.63738423228657        0.68982013230268
C           -3.41118663873555        5.43169254852740       -0.31436027009587
C           -4.10872320603449        6.67374021510558        0.18704065296780
O           -3.27220093035661        5.18783917033032       -1.50513922042499
C           -1.92528034929602        2.81317370934376        1.83293332657500
C           -1.25421538118076        1.60673765470809        1.83924876199671
N            0.67453251771913       -0.54233366566296       -0.44142367590591
C            1.73406779570182        0.44858765908541       -0.42206839690979
C            2.53560371730819        0.33811491285797       -1.72176515431454
N            3.08983442601289       -0.99323842967226       -1.82084864370581
C            4.36372727588350       -1.30069814126320       -1.61405503912619
O            4.81583223437694       -2.44116647860921       -1.52832791828192
C            5.34367894111273       -0.17247423899962       -1.49353690156510
N            5.97688333309134        0.36920931886286       -2.49086947310320
O            6.92801939766929        1.20223932773393       -1.97002925061610
C            6.91070697069424        1.17173930156406       -0.64644697628196
C            7.86255700774714        1.98076141510078        0.12075808733788
C            5.89693035780127        0.29901569147818       -0.25970324471659
N            5.45119615141671       -0.01817456072019        1.02371409235470
O            4.41579374344477       -0.66450219815695        1.12342232296629
O            6.09602596813252        0.38207271081238        1.98130821386466
C            2.07056359011343       -2.02255791185738       -1.77248039664510
C            1.26707576631841       -1.86939611765345       -0.48201943678432
C           -1.80997426984512       -2.04315092681351        1.76060287194289
C           -2.85224102364146       -2.95171047602410        1.72066974895098
H           -5.81842683391316       -6.46485246875795        0.03338775331108
H           -6.99527370446884       -5.16977651011764        0.30115533969036
H           -6.67880730218625       -6.35618822973207        1.57865637131899
H           -4.86082217711606       -4.27349063162384       -0.56062455410489
H           -3.49643114780919       -2.83089575187395       -1.59516156200418
H           -1.64801952076098       -1.22031614290614       -1.49791724789507
H            0.27902733700008       -0.49952494737671        1.63789697187956
H           -1.04576859037928        1.08686059968643       -1.47884430869844
H           -2.23556317469624        3.23657878496848       -1.50323386393054
H           -3.14425700351387        4.96322181968224        1.63123628147126
H           -3.42312663147085        7.27255310803078        0.78100137020208
H           -4.96313154182651        6.40038272456811        0.80065040534943
H           -4.44924546110891        7.25695506239695       -0.66322349092354
H           -2.16991231900870        3.29303435759114        2.76876622058102
H           -0.98088230085413        1.15524007505804        2.78167783012030
H            1.29762927480499        1.44441573419924       -0.34310071001681
H            2.41241606850611        0.28690626397443        0.43720611532906
H            3.33030797372982        1.08191174373176       -1.75203659836642
H            1.86578020168979        0.49017001019154       -2.57065355506589
H            7.44206379455131        2.23190815654846        1.09125596886872
H            8.13284780338719        2.86847050556052       -0.44355923358882
H            8.76758142725418        1.39800779035258        0.29636080357584
H            2.56232549517986       -2.99472345969643       -1.80744284107522
H            1.41459475310270       -1.89969693281316       -2.63573781150419
H            1.93918817641045       -2.03398937937927        0.37991244030670
H            0.47673228309220       -2.61926363335401       -0.45513741110897
H           -1.33699678032022       -1.83143088303596        2.70847063437100
H           -3.18510285187625       -3.43680053314974        2.62326477297105

 Bond Distances (Angstroems)
 ---------------------------
C1-C2=1.5102         C1-H39=1.0868        C1-H40=1.0869        C1-H41=1.0858        C2-C1=1.5102         C2-O3=1.2242         
C2-N4=1.3554         O3-C2=1.2242         N4-C2=1.3554         N4-C5=1.3994         N4-H42=1.0125        C5-N4=1.3994         
C5-C6=1.3951         C5-C38=1.3904        C6-C5=1.3951         C6-C7=1.3785         C6-H43=1.0795        C7-C6=1.3785         
C7-C8=1.3906         C7-H44=1.0773        C8-C7=1.3906         C8-C9=1.5130         C8-C37=1.3869        C9-C8=1.5130         
C9-C10=1.5130        C9-N20=1.4591        C9-H45=1.1074        C10-C9=1.5130        C10-C11=1.3893       C10-C19=1.3887       
C11-C10=1.3893       C11-C12=1.3815       C11-H46=1.0775       C12-C11=1.3815       C12-C13=1.3918       C12-H47=1.0773       
C13-C12=1.3918       C13-N14=1.3996       C13-C18=1.3939       N14-C13=1.3996       N14-C15=1.3560       N14-H48=1.0123       
C15-N14=1.3560       C15-C16=1.5102       C15-O17=1.2234       C16-C15=1.5102       C16-H49=1.0869       C16-H50=1.0869       
C16-H51=1.0858       O17-C15=1.2234       C18-C13=1.3939       C18-C19=1.3805       C18-H52=1.0798       C19-C10=1.3887       
C19-C18=1.3805       C19-H53=1.0802       N20-C9=1.4591        N20-C21=1.4508       N20-C36=1.4539       C21-N20=1.4508       
C21-C22=1.5310       C21-H54=1.0901       C21-H55=1.1066       C22-C21=1.5310       C22-N23=1.4455       C22-H56=1.0889       
C22-H57=1.0920       N23-C22=1.4455       N23-C24=1.3267       N23-C35=1.4494       C24-N23=1.3267       C24-O25=1.2298       
C24-C26=1.4992       O25-C24=1.2298       C26-C24=1.4992       C26-N27=1.2996       C26-C31=1.4320       N27-C26=1.2996       
N27-O28=1.3674       O28-N27=1.3674       O28-C29=1.3240       C29-O28=1.3240       C29-C30=1.4660       C29-C31=1.3925       
C30-C29=1.4660       C30-H58=1.0871       C30-H59=1.0861       C30-H60=1.0906       C31-C26=1.4320       C31-C29=1.3925       
C31-N32=1.3952       N32-C31=1.3952       N32-O33=1.2246       N32-O34=1.2219       O33-N32=1.2246       O34-N32=1.2219       
C35-N23=1.4494       C35-C36=1.5279       C35-H61=1.0900       C35-H62=1.0911       C36-N20=1.4539       C36-C35=1.5279       
C36-H63=1.1053       C36-H64=1.0898       C37-C8=1.3869        C37-C38=1.3833       C37-H65=1.0803       C38-C5=1.3904        
C38-C37=1.3833       C38-H66=1.0774       H39-C1=1.0868        H40-C1=1.0869        H41-C1=1.0858        H42-N4=1.0125        
H43-C6=1.0795        H44-C7=1.0773        H45-C9=1.1074        H46-C11=1.0775       H47-C12=1.0773       H48-N14=1.0123       
H49-C16=1.0869       H50-C16=1.0869       H51-C16=1.0858       H52-C18=1.0798       H53-C19=1.0802       H54-C21=1.0901       
H55-C21=1.1066       H56-C22=1.0889       H57-C22=1.0920       H58-C30=1.0871       H59-C30=1.0861       H60-C30=1.0906       
H61-C35=1.0900       H62-C35=1.0911       H63-C36=1.1053       H64-C36=1.0898       H65-C37=1.0803       H66-C38=1.0774       
 C  H  Rav=1.0874 sigma=0.0083  Rmin=1.0773  Rmax=1.1074    26
 C  C  Rav=1.4339 sigma=0.0586  Rmin=1.3785  Rmax=1.5310    22
 N  H  Rav=1.0124 sigma=0.0001  Rmin=1.0123  Rmax=1.0125     2
 N  C  Rav=1.3992 sigma=0.0523  Rmin=1.2996  Rmax=1.4591    12
 O  C  Rav=1.2504 sigma=0.0426  Rmin=1.2234  Rmax=1.3240     4
 O  N  Rav=1.2713 sigma=0.0680  Rmin=1.2219  Rmax=1.3674     3

 selected bond angles (degree)
 --------------------
H39-C1-C2=110.04               H40-C1-C2=110.05               H40-C1-H39=109.06              H41-C1-C2=109.10               
H41-C1-H39=109.29              H41-C1-H40=109.28              O3-C2-C1=122.67                N4-C2-C1=112.79                
N4-C2-O3=124.54                C5-N4-C2=129.78                H42-N4-C2=116.20               H42-N4-C5=114.02               
C6-C5-N4=117.65                C38-C5-N4=123.31               C38-C5-C6=119.04               C7-C6-C5=120.54                
H43-C6-C5=119.74               H43-C6-C7=119.72               C8-C7-C6=120.62                H44-C7-C6=120.07               
H44-C7-C8=119.30               C9-C8-C7=120.60                C37-C8-C7=118.65               C37-C8-C9=120.71               
C10-C9-C8=106.15               N20-C9-C8=111.17               N20-C9-C10=111.62              H45-C9-C8=108.60               
H45-C9-C10=108.75              H45-C9-N20=110.40              C11-C10-C9=121.23              C19-C10-C9=120.12              
C19-C10-C11=118.58             

 selected dihedral angles (degree)
 ---------------------------------
O3-C2-C1-H39=239.74           O3-C2-C1-H40=119.53           O3-C2-C1-H41=359.64           N4-C2-C1-H39= 59.77           
N4-C2-C1-H40=299.56           N4-C2-C1-H41=179.67           C5-N4-C2-C1=180.50            C5-N4-C2-O3=  0.53            
H42-N4-C2-C1=  0.22           H42-N4-C2-O3=180.25           C6-C5-N4-C2=179.98            C6-C5-N4-H42=  0.26           
C38-C5-N4-C2=  0.28           C38-C5-N4-H42=180.56          C7-C6-C5-N4=180.20            C7-C6-C5-C38=359.91           
H43-C6-C5-N4=  0.26           H43-C6-C5-C38=179.97          C8-C7-C6-C5=  0.49            C8-C7-C6-H43=180.43           
H44-C7-C6-C5=179.60           H44-C7-C6-H43=359.54          C9-C8-C7-C6=181.75            C9-C8-C7-H44=  2.63           
C37-C8-C7-C6=359.42           C37-C8-C7-H44=180.30          C10-C9-C8-C7= 78.18           C10-C9-C8-C37=260.56          
N20-C9-C8-C7=316.62           N20-C9-C8-C37=139.00          H45-C9-C8-C7=194.96           H45-C9-C8-C37= 17.35          
C11-C10-C9-C8=275.70          C11-C10-C9-N20= 36.98         C11-C10-C9-H45=159.02         C19-C10-C9-C8= 92.49          
C19-C10-C9-N20=213.77         C19-C10-C9-H45=335.82         
           -------------------------------------------------
          |                Final Singlepoint                |
           -------------------------------------------------

          ...................................................
          :                      SETUP                      :
          :.................................................:
          :  # basis functions                 180          :
          :  # atomic orbitals                 180          :
          :  # shells                          104          :
          :  # electrons                       198          :
          :  max. iterations                   250          :
          :  Hamiltonian                  GFN2-xTB          :
          :  restarted?                      false          :
          :  GBSA solvation                   true          :
          :  PC potential                    false          :
          :  electronic temp.          300.0000000     K    :
          :  accuracy                    1.0000000          :
          :  -> integral cutoff          0.2500000E+02      :
          :  -> integral neglect         0.1000000E-07      :
          :  -> SCF convergence          0.1000000E-05 Eh   :
          :  -> wf. convergence          0.1000000E-03 e    :
          :  Broyden damping             0.4000000          :
          :  net charge                          0          :
          :  unpaired electrons                  0          :
          ...................................................

 iter      E             dE          RMSdq      gap      omega  full diag
   1   -113.3187511 -0.113319E+03  0.117E-04    0.65       0.0  T
   2   -113.3187511 -0.900542E-10  0.727E-05    0.65     169.4  T
   3   -113.3187511 -0.527223E-11  0.425E-05    0.65     289.4  T

   *** convergence criteria satisfied after 3 iterations ***

         #    Occupation            Energy/Eh            Energy/eV
      -------------------------------------------------------------
         1        2.0000           -0.8007961             -21.7908
       ...           ...                  ...                  ...
        93        2.0000           -0.4062542             -11.0547
        94        2.0000           -0.4051299             -11.0241
        95        2.0000           -0.3980097             -10.8304
        96        2.0000           -0.3975186             -10.8170
        97        2.0000           -0.3835904             -10.4380
        98        2.0000           -0.3748421             -10.2000
        99        2.0000           -0.3637552              -9.8983 (HOMO)
       100        0.0000           -0.3397127              -9.2441 (LUMO)
       101                         -0.2809491              -7.6450
       102                         -0.2449320              -6.6649
       103                         -0.2361089              -6.4249
       104                         -0.2353566              -6.4044
       ...                                ...                  ...
       180                          0.6684491              18.1894
      -------------------------------------------------------------
                  HL-Gap            0.0240425 Eh            0.6542 eV
             Fermi-level           -0.3517340 Eh           -9.5712 eV

 SCC (total)                   0 d,  0 h,  0 min,  0.037 sec
 SCC setup                      ...        0 min,  0.001 sec (  3.120%)
 Dispersion                     ...        0 min,  0.001 sec (  3.825%)
 classical contributions        ...        0 min,  0.000 sec (  0.440%)
 integral evaluation            ...        0 min,  0.005 sec ( 13.187%)
 iterations                     ...        0 min,  0.013 sec ( 35.579%)
 molecular gradient             ...        0 min,  0.016 sec ( 42.217%)
 printout                       ...        0 min,  0.001 sec (  1.561%)

         :::::::::::::::::::::::::::::::::::::::::::::::::::::
         ::                     SUMMARY                     ::
         :::::::::::::::::::::::::::::::::::::::::::::::::::::
         :: total energy            -111.879626743858 Eh    ::
         :: total w/o Gsasa/hb      -111.873014251668 Eh    ::
         :: gradient norm              0.000526579960 Eh/a0 ::
         :: HOMO-LUMO gap              0.654229161934 eV    ::
         ::.................................................::
         :: SCC energy              -113.318125564859 Eh    ::
         :: -> isotropic ES            0.242722289514 Eh    ::
         :: -> anisotropic ES          0.004800163762 Eh    ::
         :: -> anisotropic XC          0.040723042645 Eh    ::
         :: -> dispersion             -0.077476698644 Eh    ::
         :: -> Gsolv                  -0.056739376054 Eh    ::
         ::    -> Gelec               -0.050126883864 Eh    ::
         ::    -> Gsasa                0.002354209351 Eh    ::
         ::    -> Ghb                 -0.010047461238 Eh    ::
         ::    -> Gshift               0.001080759698 Eh    ::
         :: repulsion energy           1.438498821001 Eh    ::
         :: add. restraining           0.000000000000 Eh    ::
         :: total charge               0.000000000055 e     ::
         :::::::::::::::::::::::::::::::::::::::::::::::::::::

           -------------------------------------------------
          |                Property Printout                |
           -------------------------------------------------

    * Orbital Energies and Occupations

         #    Occupation            Energy/Eh            Energy/eV
      -------------------------------------------------------------
         1        2.0000           -0.8007961             -21.7908
       ...           ...                  ...                  ...
        87        2.0000           -0.4391066             -11.9487
        88        2.0000           -0.4296108             -11.6903
        89        2.0000           -0.4258934             -11.5891
        90        2.0000           -0.4238858             -11.5345
        91        2.0000           -0.4232971             -11.5185
        92        2.0000           -0.4087797             -11.1235
        93        2.0000           -0.4062542             -11.0547
        94        2.0000           -0.4051299             -11.0241
        95        2.0000           -0.3980097             -10.8304
        96        2.0000           -0.3975186             -10.8170
        97        2.0000           -0.3835904             -10.4380
        98        2.0000           -0.3748421             -10.2000
        99        2.0000           -0.3637552              -9.8983 (HOMO)
       100        0.0000           -0.3397127              -9.2441 (LUMO)
       101                         -0.2809491              -7.6450
       102                         -0.2449320              -6.6649
       103                         -0.2361089              -6.4249
       104                         -0.2353566              -6.4044
       105                         -0.2249665              -6.1216
       106                         -0.2220677              -6.0428
       107                         -0.2048439              -5.5741
       108                         -0.1972225              -5.3667
       109                         -0.1861391              -5.0651
       110                         -0.0937077              -2.5499
       ...                                ...                  ...
       180                          0.6684491              18.1894
      -------------------------------------------------------------
                  HL-Gap            0.0240425 Eh            0.6542 eV
             Fermi-level           -0.3517340 Eh           -9.5712 eV

     #   Z          covCN         q      C6AA      α(0)
     1   6 C        3.759    -0.168    23.811     6.957
     2   6 C        2.746     0.286    22.158     7.708
     3   8 O        0.857    -0.511    24.040     6.574
     4   7 N        2.698    -0.165    24.567     7.361
     5   6 C        2.905     0.071    26.411     8.427
     6   6 C        2.925    -0.060    29.489     8.905
     7   6 C        2.923    -0.039    28.960     8.825
     8   6 C        2.981     0.002    27.978     8.676
     9   6 C        3.818     0.039    19.906     6.350
    10   6 C        2.981     0.001    27.991     8.678
    11   6 C        2.924    -0.039    28.972     8.827
    12   6 C        2.919    -0.051    29.257     8.870
    13   6 C        2.905     0.071    26.412     8.427
    14   7 N        2.697    -0.165    24.565     7.361
    15   6 C        2.746     0.286    22.157     7.707
    16   6 C        3.759    -0.167    23.807     6.956
    17   8 O        0.857    -0.506    23.911     6.556
    18   6 C        2.925    -0.060    29.490     8.905
    19   6 C        2.924    -0.041    29.013     8.833
    20   7 N        2.735    -0.167    24.619     7.369
    21   6 C        3.772     0.004    20.542     6.458
    22   6 C        3.758    -0.018    20.937     6.524
    23   7 N        2.740    -0.054    22.291     7.012
    24   6 C        2.767     0.276    22.329     7.739
    25   8 O        0.859    -0.510    24.010     6.570
    26   6 C        3.013     0.072    26.366     8.423
    27   7 N        1.946    -0.136    24.717     7.372
    28   8 O        1.821    -0.088    15.643     5.341
    29   6 C        2.985     0.180    24.149     8.061
    30   6 C        3.754    -0.163    23.719     6.945
    31   6 C        2.958    -0.033    28.832     8.807
    32   7 N        2.756     0.559    13.384     5.433
    33   8 O        0.933    -0.447    22.612     6.377
    34   8 O        0.932    -0.435    22.346     6.340
    35   6 C        3.765    -0.016    20.899     6.516
    36   6 C        3.772     0.005    20.522     6.455
    37   6 C        2.925    -0.040    29.003     8.832
    38   6 C        2.919    -0.050    29.253     8.869
    39   1 H        0.925     0.087     1.907     2.159
    40   1 H        0.925     0.088     1.902     2.156
    41   1 H        0.925     0.076     2.025     2.226
    42   1 H        0.860     0.227     0.976     1.548
    43   1 H        0.926     0.058     2.226     2.333
    44   1 H        0.926     0.066     2.133     2.284
    45   1 H        0.922     0.010     2.888     2.658
    46   1 H        0.926     0.062     2.173     2.305
    47   1 H        0.926     0.064     2.152     2.294
    48   1 H        0.860     0.224     0.993     1.561
    49   1 H        0.925     0.086     1.916     2.165
    50   1 H        0.925     0.086     1.921     2.167
    51   1 H        0.925     0.077     2.014     2.219
    52   1 H        0.926     0.049     2.326     2.385
    53   1 H        0.926     0.037     2.495     2.470
    54   1 H        0.925     0.063     2.161     2.299
    55   1 H        0.922     0.020     2.727     2.583
    56   1 H        0.925     0.063     2.161     2.299
    57   1 H        0.924     0.098     1.802     2.099
    58   1 H        0.925     0.123     1.587     1.970
    59   1 H        0.925     0.131     1.530     1.934
    60   1 H        0.924     0.146     1.421     1.864
    61   1 H        0.925     0.080     1.982     2.201
    62   1 H        0.924     0.091     1.871     2.139
    63   1 H        0.922     0.016     2.793     2.614
    64   1 H        0.925     0.061     2.188     2.313
    65   1 H        0.926     0.033     2.542     2.493
    66   1 H        0.926     0.055     2.253     2.347

 Mol. C6AA /au·bohr⁶  :      51284.394170
 Mol. C8AA /au·bohr⁸  :    1207114.997693
 Mol. α(0) /au        :        348.435010


Wiberg/Mayer (AO) data.
largest (>0.10) Wiberg bond orders for each atom

 ---------------------------------------------------------------------------
     #   Z sym  total        # sym  WBO       # sym  WBO       # sym  WBO
 ---------------------------------------------------------------------------
     1   6 C    3.988 --     2 C    0.991    41 H    0.983    39 H    0.963
                            40 H    0.963
     2   6 C    3.937 --     3 O    1.641     4 N    1.239     1 C    0.991
     3   8 O    1.949 --     2 C    1.641     4 N    0.162
     4   7 N    3.509 --     2 C    1.239     5 C    1.074    42 H    0.916
                             3 O    0.162
     5   6 C    3.960 --    38 C    1.378     6 C    1.357     4 N    1.074
     6   6 C    3.987 --     7 C    1.470     5 C    1.357    43 H    0.964
                            37 C    0.104
     7   6 C    3.988 --     6 C    1.470     8 C    1.389    44 H    0.964
                            38 C    0.105
     8   6 C    3.984 --    37 C    1.414     7 C    1.389     9 C    0.976
     9   6 C    3.981 --    20 N    0.979    10 C    0.977     8 C    0.976
                            45 H    0.950
    10   6 C    3.984 --    19 C    1.402    11 C    1.400     9 C    0.977
    11   6 C    3.988 --    12 C    1.456    10 C    1.400    46 H    0.964
                            18 C    0.105
    12   6 C    3.988 --    11 C    1.456    13 C    1.370    47 H    0.962
                            19 C    0.103
    13   6 C    3.961 --    12 C    1.370    18 C    1.365    14 N    1.074
    14   7 N    3.508 --    15 C    1.236    13 C    1.074    48 H    0.917
                            17 O    0.162
    15   6 C    3.938 --    17 O    1.645    14 N    1.236    16 C    0.991
    16   6 C    3.988 --    15 C    0.991    51 H    0.983    50 H    0.963
                            49 H    0.963
    17   8 O    1.953 --    15 C    1.645    14 N    0.162
    18   6 C    3.987 --    19 C    1.460    13 C    1.365    52 H    0.965
                            11 C    0.105
    19   6 C    3.989 --    18 C    1.460    10 C    1.402    53 H    0.968
                            12 C    0.103
    20   7 N    3.133 --    21 C    1.008    36 C    1.004     9 C    0.979
    21   6 C    3.986 --    20 N    1.008    22 C    0.989    54 H    0.964
                            55 H    0.953
    22   6 C    3.957 --    21 C    0.989    23 N    0.980    56 H    0.965
                            57 H    0.960
    23   7 N    3.564 --    24 C    1.337    22 C    0.980    35 C    0.973
                            25 O    0.208
    24   6 C    3.960 --    25 O    1.580    23 N    1.337    26 C    0.940
    25   8 O    1.946 --    24 C    1.580    23 N    0.208
    26   6 C    3.970 --    27 N    1.617    31 C    1.201    24 C    0.940
    27   7 N    2.951 --    26 C    1.617    28 O    1.061    29 C    0.121
    28   8 O    2.490 --    29 C    1.219    27 N    1.061
    29   6 C    3.912 --    31 C    1.387    28 O    1.219    30 C    1.064
                            27 N    0.121
    30   6 C    3.961 --    29 C    1.064    59 H    0.956    58 H    0.954
                            60 H    0.913
    31   6 C    3.936 --    29 C    1.387    26 C    1.201    32 N    1.046
    32   7 N    3.912 --    34 O    1.407    33 O    1.401    31 C    1.046
    33   8 O    1.883 --    32 N    1.401    34 O    0.317
    34   8 O    1.877 --    32 N    1.407    33 O    0.317
    35   6 C    3.955 --    36 C    0.992    23 N    0.973    61 H    0.967
                            62 H    0.962
    36   6 C    3.985 --    20 N    1.004    35 C    0.992    64 H    0.964
                            63 H    0.963
    37   6 C    3.989 --    38 C    1.446     8 C    1.414    65 H    0.968
                             6 C    0.104
    38   6 C    3.989 --    37 C    1.446     5 C    1.378    66 H    0.963
                             7 C    0.105
    39   1 H    0.992 --     1 C    0.963
    40   1 H    0.992 --     1 C    0.963
    41   1 H    0.994 --     1 C    0.983
    42   1 H    0.948 --     4 N    0.916
    43   1 H    0.996 --     6 C    0.964
    44   1 H    0.995 --     7 C    0.964
    45   1 H    0.998 --     9 C    0.950
    46   1 H    0.996 --    11 C    0.964
    47   1 H    0.996 --    12 C    0.962
    48   1 H    0.949 --    14 N    0.917
    49   1 H    0.992 --    16 C    0.963
    50   1 H    0.992 --    16 C    0.963
    51   1 H    0.994 --    16 C    0.983
    52   1 H    0.997 --    18 C    0.965
    53   1 H    0.998 --    19 C    0.968
    54   1 H    0.995 --    21 C    0.964
    55   1 H    0.999 --    21 C    0.953
    56   1 H    0.996 --    22 C    0.965
    57   1 H    0.990 --    22 C    0.960
    58   1 H    0.985 --    30 C    0.954
    59   1 H    0.982 --    30 C    0.956
    60   1 H    0.978 --    30 C    0.913
    61   1 H    0.993 --    35 C    0.967
    62   1 H    0.991 --    35 C    0.962
    63   1 H    0.999 --    36 C    0.963
    64   1 H    0.996 --    36 C    0.964
    65   1 H    0.998 --    37 C    0.968
    66   1 H    0.996 --    38 C    0.963
 ---------------------------------------------------------------------------

Topologies differ in total number of bonds
Writing topology from bond orders to xtbtopo.mol

molecular dipole:
                 x           y           z       tot (Debye)
 q only:       -1.160       2.854      -1.381
   full:       -1.066       2.788      -0.668       7.776
molecular quadrupole (traceless):
                xx          xy          yy          xz          yz          zz
 q only:       25.861      47.994       4.151       4.695      51.176     -30.012
  q+dip:       25.964      44.592       4.797      10.740      53.640     -30.761
   full:       28.520      43.690       6.715       9.642      54.856     -35.235

           -------------------------------------------------
          |                Geometry Summary                 |
           -------------------------------------------------

      molecular mass/u    :      520.5381232
   center of mass at/Å    :        0.4868084      -0.0720017      -0.0113298
  moments of inertia/u·Å² :        0.5109131E+04   0.9737880E+04   0.1336443E+05
rotational constants/cm⁻¹ :        0.3299510E-02   0.1731140E-02   0.1261380E-02

 * 64 selected distances

     #   Z          #   Z                                           value/Å
     2   6 C        3   8 O                                       1.2241566
     2   6 C        4   7 N                                       1.3554105
     4   7 N        5   6 C                                       1.3994316
     5   6 C        6   6 C                                       1.3951412
     6   6 C        7   6 C                                       1.3785459
     7   6 C        8   6 C                                       1.3905858
    10   6 C       11   6 C                                       1.3892573
    11   6 C       12   6 C                                       1.3815363
    12   6 C       13   6 C                                       1.3917750
    13   6 C       14   7 N                                       1.3996063
    14   7 N       15   6 C                                       1.3560198
    15   6 C       17   8 O                                       1.2234117
    13   6 C       18   6 C                                       1.3939272
    10   6 C       19   6 C                                       1.3887372
    18   6 C       19   6 C                                       1.3805276
     9   6 C       20   7 N                                       1.4590583
    20   7 N       21   6 C                                       1.4508326
    21   6 C       22   6 C                                       1.5309723 (max)
    22   6 C       23   7 N                                       1.4455073
    23   7 N       24   6 C                                       1.3266870
    24   6 C       25   8 O                                       1.2298034
    26   6 C       27   7 N                                       1.2996313
    27   7 N       28   8 O                                       1.3674333
    28   8 O       29   6 C                                       1.3240470
    29   6 C       30   6 C                                       1.4659943
    26   6 C       31   6 C                                       1.4320390
    29   6 C       31   6 C                                       1.3924657
    31   6 C       32   7 N                                       1.3951520
    32   7 N       33   8 O                                       1.2246385
    32   7 N       34   8 O                                       1.2218798
    23   7 N       35   6 C                                       1.4493969
    20   7 N       36   6 C                                       1.4539088
    35   6 C       36   6 C                                       1.5278551
     8   6 C       37   6 C                                       1.3869102
     5   6 C       38   6 C                                       1.3904362
    37   6 C       38   6 C                                       1.3832554
     1   6 C       39   1 H                                       1.0868327
     1   6 C       40   1 H                                       1.0868538
     1   6 C       41   1 H                                       1.0858083
     4   7 N       42   1 H                                       1.0125064
     6   6 C       43   1 H                                       1.0794627
     7   6 C       44   1 H                                       1.0772553
     9   6 C       45   1 H                                       1.1073892
    11   6 C       46   1 H                                       1.0774620
    12   6 C       47   1 H                                       1.0772949
    14   7 N       48   1 H                                       1.0122893 (min)
    16   6 C       49   1 H                                       1.0869264
    16   6 C       50   1 H                                       1.0868556
    16   6 C       51   1 H                                       1.0858381
    18   6 C       52   1 H                                       1.0797659
    19   6 C       53   1 H                                       1.0801545
    21   6 C       54   1 H                                       1.0901322
    21   6 C       55   1 H                                       1.1066391
    22   6 C       56   1 H                                       1.0889009
    22   6 C       57   1 H                                       1.0919689
    30   6 C       58   1 H                                       1.0870858
    30   6 C       59   1 H                                       1.0860657
    30   6 C       60   1 H                                       1.0906455
    35   6 C       61   1 H                                       1.0900267
    35   6 C       62   1 H                                       1.0911478
    36   6 C       63   1 H                                       1.1053293
    36   6 C       64   1 H                                       1.0898013
    37   6 C       65   1 H                                       1.0802715
    38   6 C       66   1 H                                       1.0773984

 * 6 distinct bonds (by element types)

   Z      Z             #   av. dist./Å        max./Å        min./Å
   1 H    6 C          26     1.0874351     1.1073892     1.0772553
   6 C    6 C          17     1.4117624     1.5309723     1.3785459
   1 H    7 N           2     1.0123979     1.0125064     1.0122893
   6 C    7 N          12     1.3992202     1.4590583     1.2996313
   6 C    8 O           4     1.2503547     1.3240470     1.2234117
   7 N    8 O           3     1.2713172     1.3674333     1.2218798


optimized geometry written to: xtbopt.xyz


           -------------------------------------------------
          | TOTAL ENERGY             -111.879626743858 Eh   |
          | GRADIENT NORM               0.000526579960 Eh/α |
          | HOMO-LUMO GAP               0.654229161934 eV   |
           -------------------------------------------------
########################################################################
[WARNING] Runtime exception occurred
-2- restart_readRestart: Dimension missmatch in restart file.
-1- restart_readRestart: Number of electron missmatch in restart file.
########################################################################

------------------------------------------------------------------------
 * finished run on 2026/08/28 at 18:28:38.263     
------------------------------------------------------------------------
 total:
 * wall-time:     0 d,  0 h,  0 min,  4.399 sec
 *  cpu-time:     0 d,  0 h,  0 min, 29.719 sec
 * ratio c/w:     6.755 speedup
 SCF:
 * wall-time:     0 d,  0 h,  0 min,  0.083 sec
 *  cpu-time:     0 d,  0 h,  0 min,  0.562 sec
 * ratio c/w:     6.775 speedup
 ANC optimizer:
 * wall-time:     0 d,  0 h,  0 min,  4.268 sec
 *  cpu-time:     0 d,  0 h,  0 min, 29.047 sec
 * ratio c/w:     6.805 speedup

