66

C     -6.341662   -6.128850    0.230090
C     -5.363584   -5.194130    0.897894
O     -5.195245   -5.228111    2.111582
N     -4.715993   -4.378952   -0.012531
C     -3.744149   -3.393029    0.255910
C     -3.218616   -2.698578   -0.839498
C     -2.252193   -1.703866   -0.659332
C     -1.785207   -1.381071    0.623418
C     -0.739365   -0.281588    0.850729
C     -1.421097    1.090032    0.740259
C     -1.629930    1.718931   -0.497310
C     -2.273994    2.959416   -0.579368
C     -2.733875    3.595362    0.572483
N     -3.396254    4.840405    0.576855
C     -3.678344    5.648457   -0.509734
C     -4.410620    6.905458   -0.109568
O     -3.375987    5.447273   -1.680332
C     -2.540731    2.969386    1.809662
C     -1.894190    1.731297    1.894297
N      0.468727   -0.422899   -0.020583
C      1.485031    0.609019    0.306555
C      2.751506    0.501576   -0.565892
N      3.326088   -0.845970   -0.569591
C      4.666615   -1.140824   -0.842890
O      5.071669   -2.301423   -0.907051
C      5.617562   -0.048436   -1.054158
N      5.360577    1.001150   -1.857756
O      6.524860    1.746001   -1.905600
C      7.482923    1.148569   -1.146245
C      8.796046    1.818629   -1.094509
C      6.947777    0.015079   -0.584139
N      7.605177   -0.871426    0.306525
O      6.935203   -1.312965    1.246481
O      8.808395   -1.076348    0.105798
C      2.355788   -1.928577   -0.719047
C      1.110825   -1.749777    0.166446
C     -2.320266   -2.077921    1.717311
C     -3.287313   -3.074219    1.534147
H     -5.808016   -7.009477   -0.136776
H     -6.851038   -5.633640   -0.601641
H     -7.100100   -6.439011    0.954727
H     -4.958875   -4.502293   -0.987177
H     -3.550831   -2.916459   -1.850969
H     -1.857964   -1.183135   -1.529224
H     -0.383609   -0.379105    1.887683
H     -1.282876    1.247561   -1.414634
H     -2.403310    3.396461   -1.564459
H     -3.690100    5.179551    1.483721
H     -3.687491    7.656775    0.218269
H     -5.123359    6.704334    0.695435
H     -4.969612    7.288801   -0.968114
H     -2.893603    3.431131    2.728075
H     -1.770577    1.267686    2.870562
H      1.087059    1.618304    0.160655
H      1.776355    0.526214    1.362711
H      3.483272    1.220349   -0.186331
H      2.516301    0.760635   -1.605164
H      9.151396    1.895093   -0.062288
H      8.741477    2.831565   -1.505724
H      9.534122    1.256179   -1.674311
H      2.820663   -2.893892   -0.491246
H      2.063314   -1.951150   -1.776502
H      1.397227   -1.886233    1.218105
H      0.422285   -2.560858   -0.091701
H     -1.992576   -1.852824    2.729885
H     -3.665684   -3.579645    2.417150
