66
 energy: -111.879626743858 gnorm: 0.000526579960 xtb: 6.7.1 (edcfbbe)
C           -6.23154209256941       -5.78308713912462        0.77212780665896
C           -5.13850512227822       -4.90654496157356        1.33578631568184
O           -4.85551473744803       -4.88672591691866        2.52661908401111
N           -4.52218453692546       -4.16035944190500        0.38684306525873
C           -3.46995065193432       -3.24603831529743        0.51024901732546
C           -3.02525461381432       -2.61038635084535       -0.64932446725054
C           -1.98966411868092       -1.70198283765184       -0.59694283920610
C           -1.36336952817600       -1.41063807726768        0.60995471881981
C           -0.25319289134854       -0.38461625059185        0.67361059267538
C           -0.92900136572865        0.96882039574234        0.64933784988965
C           -1.29640041826415        1.56906656029616       -0.54847598204866
C           -1.96204367794622        2.77953117641394       -0.56682651299193
C           -2.28675803564534        3.41438620366473        0.62839604753448
N           -2.96454885202975        4.63738423228657        0.68982013230268
C           -3.41118663873555        5.43169254852740       -0.31436027009587
C           -4.10872320603449        6.67374021510558        0.18704065296780
O           -3.27220093035661        5.18783917033032       -1.50513922042499
C           -1.92528034929602        2.81317370934376        1.83293332657500
C           -1.25421538118076        1.60673765470809        1.83924876199671
N            0.67453251771913       -0.54233366566296       -0.44142367590591
C            1.73406779570182        0.44858765908541       -0.42206839690979
C            2.53560371730819        0.33811491285797       -1.72176515431454
N            3.08983442601289       -0.99323842967226       -1.82084864370581
C            4.36372727588350       -1.30069814126320       -1.61405503912619
O            4.81583223437694       -2.44116647860921       -1.52832791828192
C            5.34367894111273       -0.17247423899962       -1.49353690156510
N            5.97688333309134        0.36920931886286       -2.49086947310320
O            6.92801939766929        1.20223932773393       -1.97002925061610
C            6.91070697069424        1.17173930156406       -0.64644697628196
C            7.86255700774714        1.98076141510078        0.12075808733788
C            5.89693035780127        0.29901569147818       -0.25970324471659
N            5.45119615141671       -0.01817456072019        1.02371409235470
O            4.41579374344477       -0.66450219815695        1.12342232296629
O            6.09602596813252        0.38207271081238        1.98130821386466
C            2.07056359011343       -2.02255791185738       -1.77248039664510
C            1.26707576631841       -1.86939611765345       -0.48201943678432
C           -1.80997426984512       -2.04315092681351        1.76060287194289
C           -2.85224102364146       -2.95171047602410        1.72066974895098
H           -5.81842683391316       -6.46485246875795        0.03338775331108
H           -6.99527370446884       -5.16977651011764        0.30115533969036
H           -6.67880730218625       -6.35618822973207        1.57865637131899
H           -4.86082217711606       -4.27349063162384       -0.56062455410489
H           -3.49643114780919       -2.83089575187395       -1.59516156200418
H           -1.64801952076098       -1.22031614290614       -1.49791724789507
H            0.27902733700008       -0.49952494737671        1.63789697187956
H           -1.04576859037928        1.08686059968643       -1.47884430869844
H           -2.23556317469624        3.23657878496848       -1.50323386393054
H           -3.14425700351387        4.96322181968224        1.63123628147126
H           -3.42312663147085        7.27255310803078        0.78100137020208
H           -4.96313154182651        6.40038272456811        0.80065040534943
H           -4.44924546110891        7.25695506239695       -0.66322349092354
H           -2.16991231900870        3.29303435759114        2.76876622058102
H           -0.98088230085413        1.15524007505804        2.78167783012030
H            1.29762927480499        1.44441573419924       -0.34310071001681
H            2.41241606850611        0.28690626397443        0.43720611532906
H            3.33030797372982        1.08191174373176       -1.75203659836642
H            1.86578020168979        0.49017001019154       -2.57065355506589
H            7.44206379455131        2.23190815654846        1.09125596886872
H            8.13284780338719        2.86847050556052       -0.44355923358882
H            8.76758142725418        1.39800779035258        0.29636080357584
H            2.56232549517986       -2.99472345969643       -1.80744284107522
H            1.41459475310270       -1.89969693281316       -2.63573781150419
H            1.93918817641045       -2.03398937937927        0.37991244030670
H            0.47673228309220       -2.61926363335401       -0.45513741110897
H           -1.33699678032022       -1.83143088303596        2.70847063437100
H           -3.18510285187625       -3.43680053314974        2.62326477297105
