66

C     -7.093289   -5.048500   -0.641632
N     -6.011415   -4.122626   -0.865658
C     -5.556658   -3.319048    0.161155
O     -6.069811   -3.288820    1.273869
C     -4.352035   -2.493170   -0.131334
C     -4.052505   -2.048736   -1.424245
C     -2.913097   -1.269614   -1.652146
C     -2.055731   -0.920042   -0.594304
C     -0.828589   -0.035653   -0.866938
C     -1.201046    1.430807   -0.602635
C     -1.297203    1.943553    0.703450
C     -1.653526    3.276698    0.927296
C     -1.930293    4.117805   -0.155614
C     -2.311212    5.544979    0.031571
O     -2.065235    6.367422   -0.843430
N     -2.972643    5.851660    1.203852
C     -3.495141    7.177130    1.421632
C     -1.824892    3.622568   -1.459888
C     -1.470978    2.289100   -1.681788
N      0.399683   -0.478019   -0.137651
C      1.558972    0.392848   -0.459085
C      2.853603   -0.036094    0.260681
N      3.165497   -1.454738    0.072078
C      4.446943   -2.009570    0.164777
O      4.632799   -3.222378    0.066696
C      5.598792   -1.132431    0.378327
N      5.614751   -0.159642    1.309386
O      6.895637    0.362154    1.301217
C      7.652557   -0.294580    0.380638
C      9.055768    0.141140    0.249126
C      6.868203   -1.242400   -0.230603
N      7.264749   -2.114047   -1.276811
O      6.437089   -2.321490   -2.170950
O      8.424656   -2.541909   -1.239861
C      2.027766   -2.359824    0.217355
C      0.771278   -1.865978   -0.519007
C     -2.381090   -1.354675    0.702481
C     -3.518642   -2.132328    0.932144
H     -6.710360   -5.906884   -0.083307
H     -7.475506   -5.377280   -1.610681
H     -7.891251   -4.568024   -0.069053
H     -5.396816   -4.300330   -1.647849
H     -4.711498   -2.270113   -2.258968
H     -2.707206   -0.922351   -2.662759
H     -0.600141   -0.125726   -1.939742
H     -1.076508    1.304072    1.555883
H     -1.683627    3.646281    1.948201
H     -3.373341    5.095371    1.742102
H     -3.726272    7.289454    2.483325
H     -4.406013    7.296755    0.829025
H     -2.761502    7.928644    1.117595
H     -2.024812    4.275765   -2.307440
H     -1.407275    1.928066   -2.705982
H      1.367194    1.430019   -0.165602
H      1.740121    0.389826   -1.542726
H      3.671041    0.582449   -0.120566
H      2.759952    0.137914    1.339330
H      9.320532    0.281803   -0.803352
H      9.729023   -0.606734    0.678880
H      9.227176    1.089989    0.767216
H      1.823364   -2.446997    1.291962
H      2.284551   -3.360824   -0.145668
H      0.945546   -1.926208   -1.601951
H     -0.033050   -2.569263   -0.280531
H     -1.743540   -1.090988    1.543935
H     -3.753493   -2.456238    1.944365
