      -----------------------------------------------------------      
     |                   =====================                   |     
     |                           x T B                           |     
     |                   =====================                   |     
     |                         S. Grimme                         |     
     |          Mulliken Center for Theoretical Chemistry        |     
     |                    University of Bonn                     |     
      -----------------------------------------------------------      

   * xtb version 6.7.1 (edcfbbe) compiled by 'VssAdministrator@runnervm171ch' on 2026-06-10

   xtb is free software: you can redistribute it and/or modify it under
   the terms of the GNU Lesser General Public License as published by
   the Free Software Foundation, either version 3 of the License, or
   (at your option) any later version.
   
   xtb is distributed in the hope that it will be useful,
   but WITHOUT ANY WARRANTY; without even the implied warranty of
   MERCHANTABILITY or FITNESS FOR A PARTICULAR PURPOSE.  See the
   GNU Lesser General Public License for more details.
   
   Cite this work as:
   * C. Bannwarth, E. Caldeweyher, S. Ehlert, A. Hansen, P. Pracht,
     J. Seibert, S. Spicher, S. Grimme, WIREs Comput. Mol. Sci., 2020, 11,
     e01493. DOI: 10.1002/wcms.1493
   
   for GFN2-xTB:
   * C. Bannwarth, S. Ehlert and S. Grimme., J. Chem. Theory Comput., 2019,
     15, 1652-1671. DOI: 10.1021/acs.jctc.8b01176
   for GFN1-xTB:
   * S. Grimme, C. Bannwarth, P. Shushkov, J. Chem. Theory Comput., 2017,
     13, 1989-2009. DOI: 10.1021/acs.jctc.7b00118
   for GFN0-xTB:
   * P. Pracht, E. Caldeweyher, S. Ehlert, S. Grimme, ChemRxiv, 2019, preprint.
     DOI: 10.26434/chemrxiv.8326202.v1
   for GFN-FF:
   * S. Spicher and S. Grimme, Angew. Chem. Int. Ed., 2020, 59, 15665-15673.
     DOI: 10.1002/anie.202004239
   
   for ALPB and GBSA implicit solvation:
   * S. Ehlert, M. Stahn, S. Spicher, S. Grimme, J. Chem. Theory Comput.,
     2021, 17, 4250-4261. DOI: 10.1021/acs.jctc.1c00471
   
   for ddCOSMO and CPCM-X implicit solvation:
   * M. Stahn, S. Ehlert, S. Grimme, J. Phys. Chem. A,
     2023, XX, XXXX-XXXX. DOI: 10.1021/acs.jpca.3c04382
   
   for DFT-D4:
   * E. Caldeweyher, C. Bannwarth and S. Grimme, J. Chem. Phys., 2017,
     147, 034112. DOI: 10.1063/1.4993215
   * E. Caldeweyher, S. Ehlert, A. Hansen, H. Neugebauer, S. Spicher,
     C. Bannwarth and S. Grimme, J. Chem. Phys., 2019, 150, 154122.
     DOI: 10.1063/1.5090222
   * E. Caldeweyher, J.-M. Mewes, S. Ehlert and S. Grimme, Phys. Chem. Chem. Phys.
     2020, 22, 8499-8512. DOI: 10.1039/D0CP00502A
   
   for sTDA-xTB:
   * S. Grimme and C. Bannwarth, J. Chem. Phys., 2016, 145, 054103.
     DOI: 10.1063/1.4959605
   
   in the mass-spec context:
   * V. Asgeirsson, C. Bauer and S. Grimme, Chem. Sci., 2017, 8, 4879.
     DOI: 10.1039/c7sc00601b
   * J. Koopman and S. Grimme, ACS Omega 2019, 4, 12, 15120-15133.
     DOI: 10.1021/acsomega.9b02011
   
   for metadynamics refer to:
   * S. Grimme, J. Chem. Theory Comput., 2019, 155, 2847-2862
     DOI: 10.1021/acs.jctc.9b00143
   
   for SPH calculations refer to:
   * S. Spicher and S. Grimme, J. Chem. Theory Comput., 2021, 17, 1701-1714
     DOI: 10.1021/acs.jctc.0c01306
   
   for ONIOM refer to:
   * C. Plett, A. Katbashev, S. Ehlert, S. Grimme, M. Bursch,
     Phys. Chem. Chem. Phys., 2023, 25, 17860-17868. DOI: 10.1039/D3CP02178E
   
   for DIPRO refer to:
   * J. Kohn, N. Gildemeister, S. Grimme, D. Fazzi, A. Hansen,
     J. Chem. Phys., 2023, just accepted.
   
   for PTB refer to:
   * S. Grimme, M. Mueller, A. Hansen, J. Chem. Phys., 2023, 158, 124111.
     DOI: 10.1063/5.0137838
   
   with help from (in alphabetical order)
   P. Atkinson, C. Bannwarth, F. Bohle, G. Brandenburg, E. Caldeweyher
   M. Checinski, S. Dohm, S. Ehlert, S. Ehrlich, I. Gerasimov, C. Hölzer
   A. Katbashev, J. Kohn, J. Koopman, C. Lavigne, S. Lehtola, F. März, M. Müller,
   F. Musil, H. Neugebauer, J. Pisarek, C. Plett, P. Pracht, F. Pultar,
   J. Seibert, P. Shushkov, S. Spicher, M. Stahn, M. Steiner, T. Strunk,
   J. Stückrath, T. Rose, and J. Unsleber
   
 * started run on 2026/08/28 at 19:12:10.266     
   ID    Z sym.   atoms
    1    6 C      1, 3, 5-14, 17-19, 21, 22, 24, 26, 29-31, 35-38
    2    7 N      2, 16, 20, 23, 27, 32
    3    8 O      4, 15, 25, 28, 33, 34
    4    1 H      39-66

           -------------------------------------------------
          |                Calculation Setup                |
           -------------------------------------------------

          program call               : C:\Users\Christian\Miniconda3\Library\bin\xtb.exe GPX4_M1.xyz --gfn 2 --opt --alpb water --wbo
          coordinate file            : GPX4_M1.xyz
          omp threads                :                    12


           -------------------------------------------------
          |                 G F N 2 - x T B                 |
           -------------------------------------------------

        Reference                      10.1021/acs.jctc.8b01176
      * Hamiltonian:
        H0-scaling (s, p, d)           1.850000    2.230000    2.230000
        zeta-weighting                 0.500000
      * Dispersion:
        s8                             2.700000
        a1                             0.520000
        a2                             5.000000
        s9                             5.000000
      * Repulsion:
        kExp                           1.500000    1.000000
        rExp                           1.000000
      * Coulomb:
        alpha                          2.000000
        third order                    shell-resolved
        anisotropic                    true
        a3                             3.000000
        a5                             4.000000
        cn-shift                       1.200000
        cn-exp                         4.000000
        max-rad                        5.000000

      * Solvation model:               ALPB
        Solvent                        water
        Parameter file                 internal GFN2-xTB/ALPB
        Dielectric constant                8.0200E+01
        Reference state                gsolv [1 M gas/solution]
        Free energy shift                  1.0808E-03 Eh       6.7819E-01 kcal/mol
        Temperature                        2.9815E+02 K
        Density                            1.0000E+00 kg/L
        Solvent mass                       1.8000E+01 g/mol
        Interaction kernel             P16
        Born radius scaling (c1)           1.4744E+00
        Born radii integrator          GBOBC
        Born offset                        0.0000E+00 a0       0.0000E+00 AA
        H-bond correction              true
        Ion screening                  false
        Surface tension                    1.0000E-05 Eh       1.5569E+01 dyn/cm
        Grid points                               230 per atom

          ...................................................
          :                      SETUP                      :
          :.................................................:
          :  # basis functions                 180          :
          :  # atomic orbitals                 180          :
          :  # shells                          104          :
          :  # electrons                       198          :
          :  max. iterations                   250          :
          :  Hamiltonian                  GFN2-xTB          :
          :  restarted?                      false          :
          :  GBSA solvation                   true          :
          :  PC potential                    false          :
          :  electronic temp.          300.0000000     K    :
          :  accuracy                    1.0000000          :
          :  -> integral cutoff          0.2500000E+02      :
          :  -> integral neglect         0.1000000E-07      :
          :  -> SCF convergence          0.1000000E-05 Eh   :
          :  -> wf. convergence          0.1000000E-03 e    :
          :  Broyden damping             0.4000000          :
          :  net charge                          0          :
          :  unpaired electrons                  0          :
          ...................................................

 iter      E             dE          RMSdq      gap      omega  full diag
   1   -112.8587575 -0.112859E+03  0.476E+00    1.81       0.0  T
   2   -113.1338864 -0.275129E+00  0.260E+00    1.15       1.0  T
   3   -113.1423430 -0.845655E-02  0.126E+00    0.71       1.0  T
   4   -113.1501526 -0.780961E-02  0.501E-01    0.52       1.0  T
   5   -113.1584455 -0.829285E-02  0.102E-01    0.42       1.0  T
   6   -113.1585807 -0.135262E-03  0.552E-02    0.43       1.0  T
   7   -113.1586171 -0.363268E-04  0.281E-02    0.44       1.0  T
   8   -113.1586281 -0.110537E-04  0.927E-03    0.46       1.3  T
   9   -113.1586297 -0.161594E-05  0.460E-03    0.46       2.7  T
  10   -113.1586299 -0.220329E-06  0.234E-03    0.46       5.3  T
  11   -113.1586300 -0.757346E-07  0.929E-04    0.46      13.3  T
  12   -113.1586300 -0.174884E-07  0.410E-04    0.46      30.0  T

   *** convergence criteria satisfied after 12 iterations ***

         #    Occupation            Energy/Eh            Energy/eV
      -------------------------------------------------------------
         1        2.0000           -0.7945590             -21.6211
       ...           ...                  ...                  ...
        93        2.0000           -0.4066924             -11.0667
        94        2.0000           -0.4019456             -10.9375
        95        2.0000           -0.3999547             -10.8833
        96        2.0000           -0.3976489             -10.8206
        97        2.0000           -0.3937778             -10.7152
        98        2.0000           -0.3927502             -10.6873
        99        1.9997           -0.3637403              -9.8979 (HOMO)
       100        0.0003           -0.3467600              -9.4358 (LUMO)
       101                         -0.3057165              -8.3190
       102                         -0.2647874              -7.2052
       103                         -0.2562634              -6.9733
       104                         -0.2530034              -6.8846
       ...                                ...                  ...
       180                          0.6454907              17.5647
      -------------------------------------------------------------
                  HL-Gap            0.0169803 Eh            0.4621 eV
             Fermi-level           -0.3552502 Eh           -9.6668 eV

 SCC (total)                   0 d,  0 h,  0 min,  0.083 sec
 SCC setup                      ...        0 min,  0.001 sec (  1.515%)
 Dispersion                     ...        0 min,  0.002 sec (  2.508%)
 classical contributions        ...        0 min,  0.000 sec (  0.179%)
 integral evaluation            ...        0 min,  0.005 sec (  5.504%)
 iterations                     ...        0 min,  0.055 sec ( 66.969%)
 molecular gradient             ...        0 min,  0.018 sec ( 21.632%)
 printout                       ...        0 min,  0.001 sec (  1.653%)

         :::::::::::::::::::::::::::::::::::::::::::::::::::::
         ::                     SUMMARY                     ::
         :::::::::::::::::::::::::::::::::::::::::::::::::::::
         :: total energy            -111.822659094058 Eh    ::
         :: total w/o Gsasa/hb      -111.818243456833 Eh    ::
         :: gradient norm              0.130817014517 Eh/a0 ::
         :: HOMO-LUMO gap              0.462056920324 eV    ::
         ::.................................................::
         :: SCC energy              -113.158505005248 Eh    ::
         :: -> isotropic ES            0.237348414349 Eh    ::
         :: -> anisotropic ES          0.009854213351 Eh    ::
         :: -> anisotropic XC          0.046891372282 Eh    ::
         :: -> dispersion             -0.073679589016 Eh    ::
         :: -> Gsolv                  -0.053328513367 Eh    ::
         ::    -> Gelec               -0.048912876142 Eh    ::
         ::    -> Gsasa                0.004354732576 Eh    ::
         ::    -> Ghb                 -0.009851129499 Eh    ::
         ::    -> Gshift               0.001080759698 Eh    ::
         :: repulsion energy           1.335845911190 Eh    ::
         :: add. restraining           0.000000000000 Eh    ::
         :: total charge               0.000000000000 e     ::
         :::::::::::::::::::::::::::::::::::::::::::::::::::::

      ----------------------------------------------------------- 
     |                   =====================                   |
     |                        A N C O P T                        |
     |                   =====================                   |
     |               Approximate Normal Coordinate               |
     |                Rational Function Optimizer                |
      ----------------------------------------------------------- 
      ----------------------------------------------------------- 
     |                   =====================                   |
     |                        A N C O P T                        |
     |                   =====================                   |
     |               Approximate Normal Coordinate               |
     |                Rational Function Optimizer                |
      ----------------------------------------------------------- 

          ...................................................
          :                      SETUP                      :
          :.................................................:
          :   optimization level            normal          :
          :   max. optcycles                   200          :
          :   ANC micro-cycles                  20          :
          :   degrees of freedom               192          :
          :.................................................:
          :   RF solver                   davidson          :
          :   write xtbopt.log                true          :
          :   linear?                        false          :
          :   energy convergence         0.5000000E-05 Eh   :
          :   grad. convergence          0.1000000E-02 Eh/α :
          :   maxmium RF displ.          1.0000000          :
          :   Hlow (freq-cutoff)         0.1000000E-01      :
          :   Hmax (freq-cutoff)         5.0000000          :
          :   S6 in model hess.         20.0000000          :
          ...................................................

generating ANC from exact Hessian ...
Using Lindh-Hessian (1995)
 Shifting diagonal of input Hessian by    9.9187137013529506E-003
 Lowest  eigenvalues of input Hessian
    0.000000    0.000000    0.000000    0.000000    0.000000    0.000000
    0.010000    0.010015    0.010046    0.010272    0.010525    0.010720
    0.010883    0.010952    0.011157    0.011478    0.011631    0.012451
 Highest eigenvalues
    1.973303    2.176601    2.247684    2.269625    2.270522    2.522059


........................................................................
.............................. CYCLE    1 ..............................
........................................................................

 iter      E             dE          RMSdq      gap      omega  full diag
   1   -113.1586300 -0.113159E+03  0.187E-04    0.46       0.0  T
   2   -113.1586300 -0.528090E-09  0.123E-04    0.46     100.4  T
   3   -113.1586300 -0.194518E-09  0.842E-05    0.46     146.2  T
     SCC iter.                  ...        0 min,  0.014 sec
     gradient                   ...        0 min,  0.015 sec
 * total energy  :  -111.8226591 Eh     change       -0.1883066E-08 Eh
   gradient norm :     0.1308150 Eh/α   predicted     0.0000000E+00 (-100.00%)
   displ. norm   :     0.3517562 α      lambda       -0.2367823E-01
   maximum displ.:     0.1071102 α      in ANC's #62, #16, #19, ...

........................................................................
.............................. CYCLE    2 ..............................
........................................................................

 iter      E             dE          RMSdq      gap      omega  full diag
   1   -113.2247742 -0.113225E+03  0.209E-01    0.70       0.0  T
   2   -113.2253236 -0.549483E-03  0.124E-01    0.76       1.0  T
   3   -113.2253566 -0.329595E-04  0.610E-02    0.76       1.0  T
   4   -113.2253705 -0.139011E-04  0.170E-02    0.76       1.0  T
   5   -113.2253823 -0.118018E-04  0.505E-03    0.76       2.4  T
   6   -113.2253827 -0.398005E-06  0.258E-03    0.76       4.8  T
   7   -113.2253827 -0.363223E-07  0.115E-03    0.76      10.7  T
   8   -113.2253828 -0.221063E-07  0.413E-04    0.76      29.8  T
   9   -113.2253828 -0.376819E-08  0.196E-04    0.76      62.8  T
     SCC iter.                  ...        0 min,  0.048 sec
     gradient                   ...        0 min,  0.016 sec
 * total energy  :  -111.8391034 Eh     change       -0.1644431E-01 Eh
   gradient norm :     0.0570833 Eh/α   predicted    -0.1332158E-01 ( -18.99%)
   displ. norm   :     0.3933365 α      lambda       -0.8535421E-02
   maximum displ.:     0.1958027 α      in ANC's #16, #23, #19, ...

........................................................................
.............................. CYCLE    3 ..............................
........................................................................

 iter      E             dE          RMSdq      gap      omega  full diag
   1   -113.2639538 -0.113264E+03  0.149E-01    0.84       0.0  T
   2   -113.2643992 -0.445483E-03  0.867E-02    0.89       1.0  T
   3   -113.2644363 -0.370919E-04  0.463E-02    0.89       1.0  T
   4   -113.2644358  0.549236E-06  0.157E-02    0.90       1.0  T
   5   -113.2644454 -0.957755E-05  0.369E-03    0.90       3.3  T
   6   -113.2644456 -0.189209E-06  0.193E-03    0.90       6.4  T
   7   -113.2644456 -0.279871E-07  0.918E-04    0.90      13.4  T
   8   -113.2644456 -0.113475E-07  0.342E-04    0.90      36.0  T
     SCC iter.                  ...        0 min,  0.034 sec
     gradient                   ...        0 min,  0.016 sec
 * total energy  :  -111.8439426 Eh     change       -0.4839198E-02 Eh
   gradient norm :     0.0201167 Eh/α   predicted    -0.4927983E-02 (   1.83%)
   displ. norm   :     0.3881577 α      lambda       -0.3239291E-02
   maximum displ.:     0.2149624 α      in ANC's #16, #19, #23, ...

........................................................................
.............................. CYCLE    4 ..............................
........................................................................

 iter      E             dE          RMSdq      gap      omega  full diag
   1   -113.2726268 -0.113273E+03  0.978E-02    0.83       0.0  T
   2   -113.2726942 -0.673748E-04  0.565E-02    0.87       1.0  T
   3   -113.2726944 -0.149397E-06  0.233E-02    0.88       1.0  T
   4   -113.2727001 -0.572086E-05  0.697E-03    0.89       1.8  T
   5   -113.2727021 -0.201680E-05  0.244E-03    0.89       5.1  T
   6   -113.2727022 -0.543711E-07  0.119E-03    0.89      10.4  T
   7   -113.2727022 -0.129252E-07  0.531E-04    0.89      23.2  T
   8   -113.2727022 -0.530217E-08  0.215E-04    0.89      57.3  T
     SCC iter.                  ...        0 min,  0.039 sec
     gradient                   ...        0 min,  0.015 sec
 * total energy  :  -111.8457584 Eh     change       -0.1815764E-02 Eh
   gradient norm :     0.0231939 Eh/α   predicted    -0.1863671E-02 (   2.64%)
   displ. norm   :     0.4103507 α      lambda       -0.2385951E-02
   maximum displ.:     0.2339947 α      in ANC's #16, #8, #23, ...

........................................................................
.............................. CYCLE    5 ..............................
........................................................................

 iter      E             dE          RMSdq      gap      omega  full diag
   1   -113.2728502 -0.113273E+03  0.776E-02    0.84       0.0  T
   2   -113.2728716 -0.214835E-04  0.450E-02    0.86       1.0  T
   3   -113.2728709  0.748570E-06  0.133E-02    0.87       1.0  T
   4   -113.2728747 -0.376553E-05  0.441E-03    0.87       2.8  T
   5   -113.2728753 -0.612793E-06  0.209E-03    0.87       5.9  T
   6   -113.2728753 -0.246664E-07  0.844E-04    0.87      14.6  T
   7   -113.2728753 -0.104663E-07  0.335E-04    0.87      36.7  T
     SCC iter.                  ...        0 min,  0.029 sec
     gradient                   ...        0 min,  0.018 sec
 * total energy  :  -111.8475383 Eh     change       -0.1779931E-02 Eh
   gradient norm :     0.0139602 Eh/α   predicted    -0.1393862E-02 ( -21.69%)
   displ. norm   :     0.4807239 α      lambda       -0.1685825E-02
   maximum displ.:     0.2577965 α      in ANC's #16, #8, #23, ...

........................................................................
.............................. CYCLE    6 ..............................
........................................................................

 iter      E             dE          RMSdq      gap      omega  full diag
   1   -113.2736447 -0.113274E+03  0.865E-02    0.81       0.0  T
   2   -113.2736681 -0.234633E-04  0.505E-02    0.82       1.0  T
   3   -113.2736680  0.114625E-06  0.147E-02    0.83       1.0  T
   4   -113.2736720 -0.395846E-05  0.407E-03    0.83       3.0  T
   5   -113.2736723 -0.306326E-06  0.220E-03    0.83       5.6  T
   6   -113.2736723 -0.265533E-07  0.639E-04    0.83      19.3  T
   7   -113.2736723 -0.845644E-08  0.248E-04    0.83      49.7  T
     SCC iter.                  ...        0 min,  0.036 sec
     gradient                   ...        0 min,  0.015 sec
 * total energy  :  -111.8487622 Eh     change       -0.1223882E-02 Eh
   gradient norm :     0.0131051 Eh/α   predicted    -0.1037743E-02 ( -15.21%)
   displ. norm   :     0.4721906 α      lambda       -0.1124502E-02
   maximum displ.:     0.2250903 α      in ANC's #8, #16, #9, ...

........................................................................
.............................. CYCLE    7 ..............................
........................................................................

 iter      E             dE          RMSdq      gap      omega  full diag
   1   -113.2754219 -0.113275E+03  0.760E-02    0.83       0.0  T
   2   -113.2754325 -0.105521E-04  0.444E-02    0.82       1.0  T
   3   -113.2754310  0.142207E-05  0.113E-02    0.83       1.1  T
   4   -113.2754348 -0.371932E-05  0.332E-03    0.83       3.7  T
   5   -113.2754350 -0.218723E-06  0.168E-03    0.83       7.3  T
   6   -113.2754350 -0.131494E-07  0.582E-04    0.83      21.1  T
   7   -113.2754350 -0.707847E-08  0.220E-04    0.83      55.8  T
     SCC iter.                  ...        0 min,  0.029 sec
     gradient                   ...        0 min,  0.016 sec
 * total energy  :  -111.8496628 Eh     change       -0.9006305E-03 Eh
   gradient norm :     0.0137512 Eh/α   predicted    -0.6876166E-03 ( -23.65%)
   displ. norm   :     0.5360424 α      lambda       -0.1189136E-02
   maximum displ.:     0.2696614 α      in ANC's #8, #16, #9, ...

........................................................................
.............................. CYCLE    8 ..............................
........................................................................

 iter      E             dE          RMSdq      gap      omega  full diag
   1   -113.2783627 -0.113278E+03  0.828E-02    0.84       0.0  T
   2   -113.2783724 -0.977976E-05  0.484E-02    0.84       1.0  T
   3   -113.2783704  0.207056E-05  0.116E-02    0.84       1.1  T
   4   -113.2783749 -0.452410E-05  0.352E-03    0.84       3.5  T
   5   -113.2783751 -0.242522E-06  0.167E-03    0.84       7.4  T
   6   -113.2783752 -0.151710E-07  0.679E-04    0.84      18.1  T
   7   -113.2783752 -0.702316E-08  0.249E-04    0.84      49.4  T
     SCC iter.                  ...        0 min,  0.035 sec
     gradient                   ...        0 min,  0.016 sec
 * total energy  :  -111.8506239 Eh     change       -0.9611390E-03 Eh
   gradient norm :     0.0111625 Eh/α   predicted    -0.7654219E-03 ( -20.36%)
   displ. norm   :     0.5683819 α      lambda       -0.1078283E-02
   maximum displ.:     0.3007280 α      in ANC's #8, #9, #6, ...

........................................................................
.............................. CYCLE    9 ..............................
........................................................................

 iter      E             dE          RMSdq      gap      omega  full diag
   1   -113.2803829 -0.113280E+03  0.881E-02    0.82       0.0  T
   2   -113.2803953 -0.124181E-04  0.513E-02    0.82       1.0  T
   3   -113.2803949  0.422420E-06  0.112E-02    0.82       1.1  T
   4   -113.2803980 -0.307346E-05  0.372E-03    0.82       3.3  T
   5   -113.2803983 -0.278160E-06  0.191E-03    0.82       6.5  T
   6   -113.2803983 -0.265805E-07  0.587E-04    0.82      21.0  T
   7   -113.2803983 -0.544956E-08  0.233E-04    0.82      52.8  T
     SCC iter.                  ...        0 min,  0.028 sec
     gradient                   ...        0 min,  0.017 sec
 * total energy  :  -111.8514704 Eh     change       -0.8464272E-03 Eh
   gradient norm :     0.0092303 Eh/α   predicted    -0.7133292E-03 ( -15.72%)
   displ. norm   :     0.5284434 α      lambda       -0.7943887E-03
   maximum displ.:     0.2913865 α      in ANC's #8, #9, #6, ...

........................................................................
.............................. CYCLE   10 ..............................
........................................................................

 iter      E             dE          RMSdq      gap      omega  full diag
   1   -113.2821384 -0.113282E+03  0.812E-02    0.84       0.0  T
   2   -113.2821488 -0.103665E-04  0.472E-02    0.83       1.0  T
   3   -113.2821491 -0.325482E-06  0.894E-03    0.83       1.4  T
   4   -113.2821508 -0.168159E-05  0.291E-03    0.83       4.2  T
   5   -113.2821509 -0.102609E-06  0.157E-03    0.83       7.9  T
   6   -113.2821509 -0.349269E-07  0.573E-04    0.83      21.5  T
   7   -113.2821509 -0.392942E-08  0.207E-04    0.83      59.5  T
     SCC iter.                  ...        0 min,  0.036 sec
     gradient                   ...        0 min,  0.016 sec
 * total energy  :  -111.8520622 Eh     change       -0.5918050E-03 Eh
   gradient norm :     0.0087900 Eh/α   predicted    -0.5081130E-03 ( -14.14%)
   displ. norm   :     0.5056851 α      lambda       -0.5673134E-03
   maximum displ.:     0.2894364 α      in ANC's #8, #9, #6, ...

........................................................................
.............................. CYCLE   11 ..............................
........................................................................

 iter      E             dE          RMSdq      gap      omega  full diag
   1   -113.2799822 -0.113280E+03  0.767E-02    0.76       0.0  T
   2   -113.2799969 -0.147226E-04  0.445E-02    0.77       1.0  T
   3   -113.2799980 -0.112864E-05  0.951E-03    0.77       1.3  T
   4   -113.2799993 -0.125408E-05  0.329E-03    0.78       3.7  T
   5   -113.2799995 -0.190907E-06  0.169E-03    0.78       7.3  T
   6   -113.2799995 -0.257786E-07  0.715E-04    0.78      17.2  T
   7   -113.2799995 -0.651877E-08  0.207E-04    0.78      59.6  T
     SCC iter.                  ...        0 min,  0.028 sec
     gradient                   ...        0 min,  0.015 sec
 * total energy  :  -111.8524521 Eh     change       -0.3899494E-03 Eh
   gradient norm :     0.0093161 Eh/α   predicted    -0.3561975E-03 (  -8.66%)
   displ. norm   :     0.4672710 α      lambda       -0.6580148E-03
   maximum displ.:     0.2687304 α      in ANC's #8, #9, #6, ...

........................................................................
.............................. CYCLE   12 ..............................
........................................................................

 iter      E             dE          RMSdq      gap      omega  full diag
   1   -113.2845487 -0.113285E+03  0.746E-02    0.82       0.0  T
   2   -113.2845725 -0.237874E-04  0.427E-02    0.81       1.0  T
   3   -113.2845727 -0.221997E-06  0.134E-02    0.81       1.0  T
   4   -113.2845748 -0.209752E-05  0.391E-03    0.81       3.2  T
   5   -113.2845752 -0.397401E-06  0.165E-03    0.81       7.5  T
   6   -113.2845752 -0.253245E-07  0.775E-04    0.81      15.9  T
   7   -113.2845752 -0.432054E-08  0.272E-04    0.81      45.3  T
     SCC iter.                  ...        0 min,  0.039 sec
     gradient                   ...        0 min,  0.015 sec
 * total energy  :  -111.8528489 Eh     change       -0.3967804E-03 Eh
   gradient norm :     0.0099787 Eh/α   predicted    -0.4008513E-03 (   1.03%)
   displ. norm   :     0.4514126 α      lambda       -0.4291199E-03
   maximum displ.:     0.2683762 α      in ANC's #8, #6, #9, ...

........................................................................
.............................. CYCLE   13 ..............................
........................................................................

 iter      E             dE          RMSdq      gap      omega  full diag
   1   -113.2806340 -0.113281E+03  0.652E-02    0.77       0.0  T
   2   -113.2806396 -0.559224E-05  0.380E-02    0.77       1.0  T
   3   -113.2806403 -0.630739E-06  0.540E-03    0.78       2.3  T
   4   -113.2806409 -0.607332E-06  0.225E-03    0.78       5.5  T
   5   -113.2806409 -0.439371E-07  0.114E-03    0.78      10.8  T
   6   -113.2806409 -0.130927E-07  0.386E-04    0.78      31.9  T
   7   -113.2806409 -0.350725E-08  0.153E-04    0.78      80.3  T
     SCC iter.                  ...        0 min,  0.028 sec
     gradient                   ...        0 min,  0.017 sec
 * total energy  :  -111.8531612 Eh     change       -0.3122432E-03 Eh
   gradient norm :     0.0073617 Eh/α   predicted    -0.2582876E-03 ( -17.28%)
   displ. norm   :     0.4086850 α      lambda       -0.5195031E-03
   maximum displ.:     0.2089706 α      in ANC's #8, #5, #6, ...

........................................................................
.............................. CYCLE   14 ..............................
........................................................................

 iter      E             dE          RMSdq      gap      omega  full diag
   1   -113.2849858 -0.113285E+03  0.651E-02    0.72       0.0  T
   2   -113.2849989 -0.131524E-04  0.373E-02    0.73       1.0  T
   3   -113.2849993 -0.338416E-06  0.909E-03    0.73       1.4  T
   4   -113.2850007 -0.139327E-05  0.265E-03    0.73       4.6  T
   5   -113.2850008 -0.957014E-07  0.138E-03    0.73       8.9  T
   6   -113.2850008 -0.153997E-07  0.574E-04    0.73      21.5  T
   7   -113.2850008 -0.702576E-08  0.199E-04    0.73      61.8  T
     SCC iter.                  ...        0 min,  0.036 sec
     gradient                   ...        0 min,  0.014 sec
 * total energy  :  -111.8534560 Eh     change       -0.2948628E-03 Eh
   gradient norm :     0.0095940 Eh/α   predicted    -0.3031367E-03 (   2.81%)
   displ. norm   :     0.4082123 α      lambda       -0.3796650E-03
   maximum displ.:     0.2262561 α      in ANC's #8, #5, #6, ...

........................................................................
.............................. CYCLE   15 ..............................
........................................................................

 iter      E             dE          RMSdq      gap      omega  full diag
   1   -113.2811445 -0.113281E+03  0.625E-02    0.75       0.0  T
   2   -113.2811544 -0.990783E-05  0.357E-02    0.74       1.0  T
   3   -113.2811550 -0.542502E-06  0.815E-03    0.74       1.5  T
   4   -113.2811555 -0.553043E-06  0.227E-03    0.74       5.4  T
   5   -113.2811556 -0.740127E-07  0.124E-03    0.74       9.9  T
   6   -113.2811556 -0.230910E-07  0.400E-04    0.74      30.8  T
   7   -113.2811556 -0.138988E-08  0.169E-04    0.74      73.0  T
     SCC iter.                  ...        0 min,  0.033 sec
     gradient                   ...        0 min,  0.017 sec
 * total energy  :  -111.8536682 Eh     change       -0.2121475E-03 Eh
   gradient norm :     0.0104252 Eh/α   predicted    -0.2214661E-03 (   4.39%)
   displ. norm   :     0.2587864 α      lambda       -0.3423431E-03
   maximum displ.:     0.1327919 α      in ANC's #5, #8, #6, ...

........................................................................
.............................. CYCLE   16 ..............................
........................................................................

 iter      E             dE          RMSdq      gap      omega  full diag
   1   -113.2841239 -0.113284E+03  0.449E-02    0.77       0.0  T
   2   -113.2841288 -0.488418E-05  0.260E-02    0.76       1.0  T
   3   -113.2841285  0.310834E-06  0.669E-03    0.76       1.8  T
   4   -113.2841297 -0.117191E-05  0.216E-03    0.76       5.7  T
   5   -113.2841298 -0.980789E-07  0.966E-04    0.76      12.7  T
   6   -113.2841298 -0.423454E-08  0.327E-04    0.76      37.7  T
     SCC iter.                  ...        0 min,  0.035 sec
     gradient                   ...        0 min,  0.015 sec
 * total energy  :  -111.8539139 Eh     change       -0.2457305E-03 Eh
   gradient norm :     0.0063693 Eh/α   predicted    -0.1826380E-03 ( -25.68%)
   displ. norm   :     0.4516907 α      lambda       -0.4430747E-03
   maximum displ.:     0.2141641 α      in ANC's #5, #8, #6, ...

........................................................................
.............................. CYCLE   17 ..............................
........................................................................

 iter      E             dE          RMSdq      gap      omega  full diag
   1   -113.2866231 -0.113287E+03  0.748E-02    0.74       0.0  T
   2   -113.2866320 -0.887458E-05  0.432E-02    0.74       1.0  T
   3   -113.2866318  0.174251E-06  0.811E-03    0.74       1.5  T
   4   -113.2866337 -0.189842E-05  0.302E-03    0.74       4.1  T
   5   -113.2866339 -0.161279E-06  0.133E-03    0.74       9.3  T
   6   -113.2866339 -0.850561E-08  0.415E-04    0.74      29.7  T
   7   -113.2866339 -0.148930E-08  0.149E-04    0.74      82.6  T
     SCC iter.                  ...        0 min,  0.032 sec
     gradient                   ...        0 min,  0.018 sec
 * total energy  :  -111.8542197 Eh     change       -0.3057848E-03 Eh
   gradient norm :     0.0089584 Eh/α   predicted    -0.2667371E-03 ( -12.77%)
   displ. norm   :     0.4103178 α      lambda       -0.3668714E-03
   maximum displ.:     0.2086230 α      in ANC's #5, #8, #3, ...

........................................................................
.............................. CYCLE   18 ..............................
........................................................................

 iter      E             dE          RMSdq      gap      omega  full diag
   1   -113.2877905 -0.113288E+03  0.711E-02    0.75       0.0  T
   2   -113.2878056 -0.150332E-04  0.403E-02    0.75       1.0  T
   3   -113.2878064 -0.801152E-06  0.104E-02    0.75       1.2  T
   4   -113.2878071 -0.748375E-06  0.249E-03    0.75       4.9  T
   5   -113.2878072 -0.924134E-07  0.142E-03    0.75       8.7  T
   6   -113.2878072 -0.379259E-07  0.395E-04    0.75      31.2  T
   7   -113.2878073 -0.231941E-08  0.188E-04    0.75      65.5  T
     SCC iter.                  ...        0 min,  0.036 sec
     gradient                   ...        0 min,  0.016 sec
 * total energy  :  -111.8544593 Eh     change       -0.2395832E-03 Eh
   gradient norm :     0.0087243 Eh/α   predicted    -0.2143241E-03 ( -10.54%)
   displ. norm   :     0.4598172 α      lambda       -0.3191420E-03
   maximum displ.:     0.2235758 α      in ANC's #5, #8, #3, ...

........................................................................
.............................. CYCLE   19 ..............................
........................................................................

 iter      E             dE          RMSdq      gap      omega  full diag
   1   -113.2849939 -0.113285E+03  0.726E-02    0.73       0.0  T
   2   -113.2849996 -0.571773E-05  0.419E-02    0.73       1.0  T
   3   -113.2850001 -0.504217E-06  0.578E-03    0.73       2.1  T
   4   -113.2850010 -0.846438E-06  0.267E-03    0.74       4.6  T
   5   -113.2850011 -0.103551E-06  0.129E-03    0.74       9.6  T
   6   -113.2850011 -0.175010E-07  0.360E-04    0.74      34.2  T
   7   -113.2850011 -0.294025E-08  0.164E-04    0.74      74.8  T
     SCC iter.                  ...        0 min,  0.031 sec
     gradient                   ...        0 min,  0.016 sec
 * total energy  :  -111.8546433 Eh     change       -0.1840037E-03 Eh
   gradient norm :     0.0091875 Eh/α   predicted    -0.1933097E-03 (   5.06%)
   displ. norm   :     0.3152649 α      lambda       -0.3428266E-03
   maximum displ.:     0.1433648 α      in ANC's #5, #3, #15, ...

........................................................................
.............................. CYCLE   20 ..............................
........................................................................

 iter      E             dE          RMSdq      gap      omega  full diag
   1   -113.2861165 -0.113286E+03  0.573E-02    0.73       0.0  T
   2   -113.2861262 -0.966050E-05  0.327E-02    0.73       1.0  T
   3   -113.2861264 -0.229856E-06  0.839E-03    0.73       1.5  T
   4   -113.2861273 -0.860306E-06  0.253E-03    0.73       4.9  T
   5   -113.2861274 -0.145848E-06  0.124E-03    0.73       9.9  T
   6   -113.2861275 -0.111224E-07  0.458E-04    0.73      26.9  T
   7   -113.2861275 -0.322650E-08  0.181E-04    0.73      68.0  T
     SCC iter.                  ...        0 min,  0.035 sec
     gradient                   ...        0 min,  0.014 sec
 * total energy  :  -111.8547746 Eh     change       -0.1312913E-03 Eh
   gradient norm :     0.0110757 Eh/α   predicted    -0.1884542E-03 (  43.54%)
   displ. norm   :     0.1870147 α      lambda       -0.2197706E-03
   maximum displ.:     0.0821477 α      in ANC's #5, #3, #8, ...
 * RMSD in coord.:     0.8233827 α      energy gain  -0.3211546E-01 Eh

generating ANC from exact Hessian ...
Using Lindh-Hessian (1995)
 Shifting diagonal of input Hessian by    9.9048983173414748E-003
 Lowest  eigenvalues of input Hessian
    0.000000    0.000000    0.000000    0.000000    0.000000    0.000000
    0.010000    0.010012    0.010043    0.010269    0.010484    0.010778
    0.011011    0.011032    0.011209    0.011786    0.011971    0.012460
 Highest eigenvalues
    2.077116    2.295727    2.316881    2.320023    2.356222    2.630811


........................................................................
.............................. CYCLE   21 ..............................
........................................................................

 iter      E             dE          RMSdq      gap      omega  full diag
   1   -113.2865290 -0.113287E+03  0.357E-02    0.73       0.0  T
   2   -113.2865355 -0.654963E-05  0.202E-02    0.73       1.0  T
   3   -113.2865356 -0.129573E-07  0.786E-03    0.73       1.6  T
   4   -113.2865362 -0.614399E-06  0.204E-03    0.73       6.0  T
   5   -113.2865363 -0.138997E-06  0.840E-04    0.73      14.7  T
   6   -113.2865363 -0.268973E-08  0.247E-04    0.73      49.9  T
     SCC iter.                  ...        0 min,  0.033 sec
     gradient                   ...        0 min,  0.016 sec
 * total energy  :  -111.8549213 Eh     change       -0.1467372E-03 Eh
   gradient norm :     0.0070110 Eh/α   predicted     0.0000000E+00 (-100.00%)
   displ. norm   :     0.0695673 α      lambda       -0.1341730E-03
   maximum displ.:     0.0314635 α      in ANC's #28, #3, #7, ...

........................................................................
.............................. CYCLE   22 ..............................
........................................................................

 iter      E             dE          RMSdq      gap      omega  full diag
   1   -113.2884661 -0.113288E+03  0.164E-02    0.74       0.0  T
   2   -113.2884673 -0.114924E-05  0.961E-03    0.74       1.3  T
   3   -113.2884672  0.731930E-07  0.423E-03    0.74       2.9  T
   4   -113.2884676 -0.437238E-06  0.116E-03    0.74      10.6  T
   5   -113.2884677 -0.185225E-07  0.580E-04    0.74      21.2  T
   6   -113.2884677 -0.114112E-08  0.211E-04    0.74      58.4  T
     SCC iter.                  ...        0 min,  0.025 sec
     gradient                   ...        0 min,  0.017 sec
 * total energy  :  -111.8550387 Eh     change       -0.1173850E-03 Eh
   gradient norm :     0.0031238 Eh/α   predicted    -0.7146490E-04 ( -39.12%)
   displ. norm   :     0.2216196 α      lambda       -0.2758281E-03
   maximum displ.:     0.0955378 α      in ANC's #28, #3, #7, ...

........................................................................
.............................. CYCLE   23 ..............................
........................................................................

 iter      E             dE          RMSdq      gap      omega  full diag
   1   -113.2902737 -0.113290E+03  0.457E-02    0.74       0.0  T
   2   -113.2902800 -0.629149E-05  0.269E-02    0.73       1.0  T
   3   -113.2902790  0.103519E-05  0.107E-02    0.74       1.2  T
   4   -113.2902829 -0.389229E-05  0.302E-03    0.74       4.1  T
   5   -113.2902829 -0.283487E-07  0.133E-03    0.74       9.2  T
   6   -113.2902829 -0.196273E-07  0.352E-04    0.74      34.9  T
   7   -113.2902829 -0.248546E-08  0.154E-04    0.74      79.7  T
     SCC iter.                  ...        0 min,  0.040 sec
     gradient                   ...        0 min,  0.015 sec
 * total energy  :  -111.8552189 Eh     change       -0.1802223E-03 Eh
   gradient norm :     0.0048223 Eh/α   predicted    -0.1446949E-03 ( -19.71%)
   displ. norm   :     0.2108943 α      lambda       -0.1542008E-03
   maximum displ.:     0.0941080 α      in ANC's #3, #28, #7, ...

........................................................................
.............................. CYCLE   24 ..............................
........................................................................

 iter      E             dE          RMSdq      gap      omega  full diag
   1   -113.2894685 -0.113289E+03  0.406E-02    0.72       0.0  T
   2   -113.2894733 -0.479377E-05  0.237E-02    0.72       1.0  T
   3   -113.2894732  0.977501E-07  0.782E-03    0.72       1.6  T
   4   -113.2894751 -0.190062E-05  0.263E-03    0.72       4.7  T
   5   -113.2894751 -0.504089E-07  0.129E-03    0.72       9.6  T
   6   -113.2894751 -0.975589E-08  0.343E-04    0.72      35.9  T
   7   -113.2894751 -0.207424E-08  0.128E-04    0.72      96.1  T
     SCC iter.                  ...        0 min,  0.029 sec
     gradient                   ...        0 min,  0.016 sec
 * total energy  :  -111.8553096 Eh     change       -0.9065332E-04 Eh
   gradient norm :     0.0070551 Eh/α   predicted    -0.8053058E-04 ( -11.17%)
   displ. norm   :     0.2058068 α      lambda       -0.1389653E-03
   maximum displ.:     0.0974876 α      in ANC's #3, #7, #4, ...

........................................................................
.............................. CYCLE   25 ..............................
........................................................................

 iter      E             dE          RMSdq      gap      omega  full diag
   1   -113.2881336 -0.113288E+03  0.383E-02    0.71       0.0  T
   2   -113.2881366 -0.307840E-05  0.221E-02    0.71       1.0  T
   3   -113.2881371 -0.490980E-06  0.512E-03    0.71       2.4  T
   4   -113.2881377 -0.609625E-06  0.220E-03    0.71       5.6  T
   5   -113.2881378 -0.459875E-07  0.115E-03    0.71      10.7  T
   6   -113.2881378 -0.127821E-07  0.254E-04    0.71      48.5  T
   7   -113.2881378 -0.134088E-08  0.125E-04    0.71      98.7  T
     SCC iter.                  ...        0 min,  0.039 sec
     gradient                   ...        0 min,  0.016 sec
 * total energy  :  -111.8554140 Eh     change       -0.1044179E-03 Eh
   gradient norm :     0.0063938 Eh/α   predicted    -0.7242783E-04 ( -30.64%)
   displ. norm   :     0.2945768 α      lambda       -0.2288751E-03
   maximum displ.:     0.1496652 α      in ANC's #3, #7, #4, ...

........................................................................
.............................. CYCLE   26 ..............................
........................................................................

 iter      E             dE          RMSdq      gap      omega  full diag
   1   -113.2865558 -0.113287E+03  0.549E-02    0.72       0.0  T
   2   -113.2865611 -0.531826E-05  0.316E-02    0.72       1.0  T
   3   -113.2865613 -0.140694E-06  0.645E-03    0.72       1.9  T
   4   -113.2865625 -0.120097E-05  0.280E-03    0.72       4.4  T
   5   -113.2865626 -0.160783E-06  0.128E-03    0.72       9.6  T
   6   -113.2865626 -0.710006E-08  0.568E-04    0.72      21.7  T
   7   -113.2865626 -0.710149E-08  0.165E-04    0.72      74.4  T
     SCC iter.                  ...        0 min,  0.029 sec
     gradient                   ...        0 min,  0.015 sec
 * total energy  :  -111.8555708 Eh     change       -0.1568615E-03 Eh
   gradient norm :     0.0043979 Eh/α   predicted    -0.1244236E-03 ( -20.68%)
   displ. norm   :     0.3462435 α      lambda       -0.1459425E-03
   maximum displ.:     0.1786802 α      in ANC's #3, #7, #4, ...

........................................................................
.............................. CYCLE   27 ..............................
........................................................................

 iter      E             dE          RMSdq      gap      omega  full diag
   1   -113.2851870 -0.113285E+03  0.622E-02    0.70       0.0  T
   2   -113.2851915 -0.446632E-05  0.359E-02    0.71       1.0  T
   3   -113.2851925 -0.101603E-05  0.559E-03    0.71       2.2  T
   4   -113.2851933 -0.799341E-06  0.291E-03    0.71       4.2  T
   5   -113.2851934 -0.889412E-07  0.119E-03    0.71      10.4  T
   6   -113.2851934 -0.184043E-07  0.369E-04    0.71      33.3  T
   7   -113.2851934 -0.268940E-08  0.162E-04    0.71      76.0  T
     SCC iter.                  ...        0 min,  0.038 sec
     gradient                   ...        0 min,  0.017 sec
 * total energy  :  -111.8556842 Eh     change       -0.1133363E-03 Eh
   gradient norm :     0.0066543 Eh/α   predicted    -0.8172173E-04 ( -27.89%)
   displ. norm   :     0.3687252 α      lambda       -0.1993284E-03
   maximum displ.:     0.2003266 α      in ANC's #3, #4, #7, ...

........................................................................
.............................. CYCLE   28 ..............................
........................................................................

 iter      E             dE          RMSdq      gap      omega  full diag
   1   -113.2863960 -0.113286E+03  0.651E-02    0.72       0.0  T
   2   -113.2864015 -0.553968E-05  0.375E-02    0.72       1.0  T
   3   -113.2864019 -0.401168E-06  0.621E-03    0.72       2.0  T
   4   -113.2864030 -0.106227E-05  0.268E-03    0.72       4.6  T
   5   -113.2864031 -0.108508E-06  0.132E-03    0.72       9.3  T
   6   -113.2864031 -0.177560E-07  0.463E-04    0.72      26.6  T
   7   -113.2864031 -0.378816E-08  0.191E-04    0.72      64.3  T
     SCC iter.                  ...        0 min,  0.030 sec
     gradient                   ...        0 min,  0.017 sec
 * total energy  :  -111.8558349 Eh     change       -0.1506980E-03 Eh
   gradient norm :     0.0067848 Eh/α   predicted    -0.1132159E-03 ( -24.87%)
   displ. norm   :     0.4721152 α      lambda       -0.2104286E-03
   maximum displ.:     0.2578135 α      in ANC's #3, #4, #7, ...

........................................................................
.............................. CYCLE   29 ..............................
........................................................................

 iter      E             dE          RMSdq      gap      omega  full diag
   1   -113.2861524 -0.113286E+03  0.806E-02    0.70       0.0  T
   2   -113.2861591 -0.675887E-05  0.465E-02    0.71       1.0  T
   3   -113.2861608 -0.163686E-05  0.604E-03    0.71       2.0  T
   4   -113.2861614 -0.651647E-06  0.326E-03    0.71       3.8  T
   5   -113.2861616 -0.146977E-06  0.140E-03    0.71       8.8  T
   6   -113.2861616 -0.187112E-07  0.433E-04    0.71      28.4  T
   7   -113.2861616 -0.409538E-08  0.182E-04    0.71      67.8  T
     SCC iter.                  ...        0 min,  0.037 sec
     gradient                   ...        0 min,  0.015 sec
 * total energy  :  -111.8559989 Eh     change       -0.1640301E-03 Eh
   gradient norm :     0.0065042 Eh/α   predicted    -0.1286774E-03 ( -21.55%)
   displ. norm   :     0.4314540 α      lambda       -0.2889301E-03
   maximum displ.:     0.2530338 α      in ANC's #3, #6, #4, ...

........................................................................
.............................. CYCLE   30 ..............................
........................................................................

 iter      E             dE          RMSdq      gap      omega  full diag
   1   -113.2905218 -0.113291E+03  0.729E-02    0.74       0.0  T
   2   -113.2905354 -0.135469E-04  0.414E-02    0.74       1.0  T
   3   -113.2905367 -0.130593E-05  0.918E-03    0.74       1.3  T
   4   -113.2905373 -0.614218E-06  0.262E-03    0.74       4.7  T
   5   -113.2905374 -0.513561E-07  0.149E-03    0.74       8.2  T
   6   -113.2905374 -0.411583E-07  0.409E-04    0.74      30.1  T
   7   -113.2905374 -0.133710E-08  0.189E-04    0.74      65.1  T
     SCC iter.                  ...        0 min,  0.029 sec
     gradient                   ...        0 min,  0.014 sec
 * total energy  :  -111.8561909 Eh     change       -0.1920209E-03 Eh
   gradient norm :     0.0067844 Eh/α   predicted    -0.1713594E-03 ( -10.76%)
   displ. norm   :     0.5950576 α      lambda       -0.2459165E-03
   maximum displ.:     0.3389686 α      in ANC's #3, #6, #4, ...

........................................................................
.............................. CYCLE   31 ..............................
........................................................................

 iter      E             dE          RMSdq      gap      omega  full diag
   1   -113.2860731 -0.113286E+03  0.995E-02    0.71       0.0  T
   2   -113.2860839 -0.108696E-04  0.574E-02    0.71       1.0  T
   3   -113.2860864 -0.244716E-05  0.694E-03    0.71       1.8  T
   4   -113.2860871 -0.729540E-06  0.375E-03    0.71       3.3  T
   5   -113.2860873 -0.178079E-06  0.179E-03    0.71       6.9  T
   6   -113.2860873 -0.419077E-07  0.544E-04    0.71      22.6  T
   7   -113.2860873 -0.550348E-08  0.211E-04    0.71      58.3  T
     SCC iter.                  ...        0 min,  0.036 sec
     gradient                   ...        0 min,  0.017 sec
 * total energy  :  -111.8563587 Eh     change       -0.1677410E-03 Eh
   gradient norm :     0.0084310 Eh/α   predicted    -0.1665095E-03 (  -0.73%)
   displ. norm   :     0.3140896 α      lambda       -0.2427409E-03
   maximum displ.:     0.1997655 α      in ANC's #3, #6, #7, ...

........................................................................
.............................. CYCLE   32 ..............................
........................................................................

 iter      E             dE          RMSdq      gap      omega  full diag
   1   -113.2878428 -0.113288E+03  0.489E-02    0.70       0.0  T
   2   -113.2878472 -0.434108E-05  0.283E-02    0.70       1.0  T
   3   -113.2878467  0.499413E-06  0.678E-03    0.71       1.8  T
   4   -113.2878483 -0.159265E-05  0.196E-03    0.71       6.3  T
   5   -113.2878483 -0.406810E-07  0.997E-04    0.71      12.3  T
   6   -113.2878483 -0.100466E-07  0.306E-04    0.71      40.3  T
     SCC iter.                  ...        0 min,  0.025 sec
     gradient                   ...        0 min,  0.015 sec
 * total energy  :  -111.8565333 Eh     change       -0.1746823E-03 Eh
   gradient norm :     0.0073139 Eh/α   predicted    -0.1333454E-03 ( -23.66%)
   displ. norm   :     0.4267199 α      lambda       -0.2131369E-03
   maximum displ.:     0.2743370 α      in ANC's #3, #6, #7, ...

........................................................................
.............................. CYCLE   33 ..............................
........................................................................

 iter      E             dE          RMSdq      gap      omega  full diag
   1   -113.2875954 -0.113288E+03  0.673E-02    0.72       0.0  T
   2   -113.2876048 -0.946596E-05  0.383E-02    0.71       1.0  T
   3   -113.2876057 -0.836722E-06  0.786E-03    0.71       1.6  T
   4   -113.2876064 -0.704158E-06  0.272E-03    0.71       4.5  T
   5   -113.2876065 -0.137544E-06  0.147E-03    0.71       8.4  T
   6   -113.2876065 -0.299446E-07  0.409E-04    0.71      30.1  T
   7   -113.2876065 -0.160007E-08  0.202E-04    0.71      60.9  T
     SCC iter.                  ...        0 min,  0.036 sec
     gradient                   ...        0 min,  0.016 sec
 * total energy  :  -111.8566862 Eh     change       -0.1528486E-03 Eh
   gradient norm :     0.0067185 Eh/α   predicted    -0.1259830E-03 ( -17.58%)
   displ. norm   :     0.3945953 α      lambda       -0.1834282E-03
   maximum displ.:     0.2720825 α      in ANC's #3, #6, #7, ...

........................................................................
.............................. CYCLE   34 ..............................
........................................................................

 iter      E             dE          RMSdq      gap      omega  full diag
   1   -113.2894213 -0.113289E+03  0.545E-02    0.71       0.0  T
   2   -113.2894247 -0.340911E-05  0.314E-02    0.71       1.0  T
   3   -113.2894238  0.907446E-06  0.715E-03    0.71       1.7  T
   4   -113.2894260 -0.220532E-05  0.213E-03    0.71       5.8  T
   5   -113.2894260 -0.217216E-07  0.801E-04    0.71      15.4  T
   6   -113.2894260 -0.598162E-08  0.303E-04    0.71      40.6  T
     SCC iter.                  ...        0 min,  0.024 sec
     gradient                   ...        0 min,  0.016 sec
 * total energy  :  -111.8568247 Eh     change       -0.1385217E-03 Eh
   gradient norm :     0.0051410 Eh/α   predicted    -0.1059984E-03 ( -23.48%)
   displ. norm   :     0.5017263 α      lambda       -0.1684904E-03
   maximum displ.:     0.3413105 α      in ANC's #3, #6, #4, ...

........................................................................
.............................. CYCLE   35 ..............................
........................................................................

 iter      E             dE          RMSdq      gap      omega  full diag
   1   -113.2877478 -0.113288E+03  0.710E-02    0.69       0.0  T
   2   -113.2877531 -0.531766E-05  0.410E-02    0.69       1.0  T
   3   -113.2877540 -0.906859E-06  0.562E-03    0.70       2.2  T
   4   -113.2877549 -0.811053E-06  0.282E-03    0.70       4.4  T
   5   -113.2877550 -0.108075E-06  0.117E-03    0.70      10.5  T
   6   -113.2877550 -0.121693E-07  0.404E-04    0.70      30.5  T
   7   -113.2877550 -0.362186E-08  0.168E-04    0.70      73.5  T
     SCC iter.                  ...        0 min,  0.035 sec
     gradient                   ...        0 min,  0.015 sec
 * total energy  :  -111.8569523 Eh     change       -0.1275568E-03 Eh
   gradient norm :     0.0064712 Eh/α   predicted    -0.1054581E-03 ( -17.32%)
   displ. norm   :     0.4459254 α      lambda       -0.2627856E-03
   maximum displ.:     0.3317253 α      in ANC's #3, #6, #5, ...

........................................................................
.............................. CYCLE   36 ..............................
........................................................................

 iter      E             dE          RMSdq      gap      omega  full diag
   1   -113.2939155 -0.113294E+03  0.610E-02    0.73       0.0  T
   2   -113.2939226 -0.707807E-05  0.351E-02    0.72       1.0  T
   3   -113.2939232 -0.547495E-06  0.594E-03    0.72       2.1  T
   4   -113.2939237 -0.500834E-06  0.234E-03    0.72       5.3  T
   5   -113.2939238 -0.159140E-06  0.108E-03    0.72      11.4  T
   6   -113.2939238 -0.808565E-08  0.446E-04    0.72      27.6  T
   7   -113.2939238 -0.264701E-08  0.157E-04    0.72      78.4  T
     SCC iter.                  ...        0 min,  0.030 sec
     gradient                   ...        0 min,  0.014 sec
 * total energy  :  -111.8570572 Eh     change       -0.1049113E-03 Eh
   gradient norm :     0.0076664 Eh/α   predicted    -0.1575213E-03 (  50.15%)
   displ. norm   :     0.4754294 α      lambda       -0.1921837E-03
   maximum displ.:     0.3309710 α      in ANC's #3, #6, #4, ...

........................................................................
.............................. CYCLE   37 ..............................
........................................................................

 iter      E             dE          RMSdq      gap      omega  full diag
   1   -113.2892734 -0.113289E+03  0.677E-02    0.68       0.0  T
   2   -113.2892819 -0.852111E-05  0.391E-02    0.69       1.0  T
   3   -113.2892829 -0.102225E-05  0.633E-03    0.69       1.9  T
   4   -113.2892835 -0.518663E-06  0.281E-03    0.69       4.4  T
   5   -113.2892836 -0.158818E-06  0.133E-03    0.69       9.2  T
   6   -113.2892836 -0.116206E-07  0.483E-04    0.69      25.5  T
   7   -113.2892836 -0.402500E-08  0.161E-04    0.69      76.7  T
     SCC iter.                  ...        0 min,  0.033 sec
     gradient                   ...        0 min,  0.017 sec
 * total energy  :  -111.8571773 Eh     change       -0.1201608E-03 Eh
   gradient norm :     0.0076426 Eh/α   predicted    -0.1178049E-03 (  -1.96%)
   displ. norm   :     0.2995776 α      lambda       -0.1191902E-03
   maximum displ.:     0.2191510 α      in ANC's #3, #6, #4, ...

........................................................................
.............................. CYCLE   38 ..............................
........................................................................

 iter      E             dE          RMSdq      gap      omega  full diag
   1   -113.2867165 -0.113287E+03  0.389E-02    0.68       0.0  T
   2   -113.2867189 -0.236114E-05  0.225E-02    0.68       1.0  T
   3   -113.2867189 -0.751530E-07  0.408E-03    0.68       3.0  T
   4   -113.2867194 -0.409640E-06  0.146E-03    0.68       8.4  T
   5   -113.2867194 -0.350027E-07  0.745E-04    0.68      16.5  T
   6   -113.2867194 -0.459336E-08  0.222E-04    0.68      55.3  T
     SCC iter.                  ...        0 min,  0.026 sec
     gradient                   ...        0 min,  0.015 sec
 * total energy  :  -111.8572650 Eh     change       -0.8762759E-04 Eh
   gradient norm :     0.0078854 Eh/α   predicted    -0.6494224E-04 ( -25.89%)
   displ. norm   :     0.3696896 α      lambda       -0.2695935E-03
   maximum displ.:     0.2735809 α      in ANC's #3, #6, #5, ...

........................................................................
.............................. CYCLE   39 ..............................
........................................................................

 iter      E             dE          RMSdq      gap      omega  full diag
   1   -113.2890110 -0.113289E+03  0.503E-02    0.68       0.0  T
   2   -113.2890163 -0.524551E-05  0.291E-02    0.68       1.0  T
   3   -113.2890163  0.204327E-07  0.651E-03    0.68       1.9  T
   4   -113.2890172 -0.944998E-06  0.207E-03    0.68       6.0  T
   5   -113.2890173 -0.910737E-07  0.109E-03    0.68      11.3  T
   6   -113.2890173 -0.116865E-07  0.390E-04    0.68      31.5  T
   7   -113.2890173 -0.218503E-08  0.156E-04    0.68      79.0  T
     SCC iter.                  ...        0 min,  0.032 sec
     gradient                   ...        0 min,  0.018 sec
 * total energy  :  -111.8574231 Eh     change       -0.1581026E-03 Eh
   gradient norm :     0.0088197 Eh/α   predicted    -0.1532200E-03 (  -3.09%)
   displ. norm   :     0.5136075 α      lambda       -0.1737255E-03
   maximum displ.:     0.3890088 α      in ANC's #3, #6, #5, ...

........................................................................
.............................. CYCLE   40 ..............................
........................................................................

 iter      E             dE          RMSdq      gap      omega  full diag
   1   -113.2876353 -0.113288E+03  0.623E-02    0.68       0.0  T
   2   -113.2876411 -0.574448E-05  0.362E-02    0.68       1.0  T
   3   -113.2876408  0.294929E-06  0.747E-03    0.68       1.6  T
   4   -113.2876425 -0.168627E-05  0.246E-03    0.68       5.0  T
   5   -113.2876426 -0.104844E-06  0.124E-03    0.68       9.9  T
   6   -113.2876426 -0.941554E-08  0.368E-04    0.68      33.5  T
   7   -113.2876426 -0.162919E-08  0.201E-04    0.68      61.2  T
     SCC iter.                  ...        0 min,  0.030 sec
     gradient                   ...        0 min,  0.016 sec
 * total energy  :  -111.8575616 Eh     change       -0.1385468E-03 Eh
   gradient norm :     0.0075255 Eh/α   predicted    -0.1097781E-03 ( -20.76%)
   displ. norm   :     0.4848917 α      lambda       -0.2579739E-03
   maximum displ.:     0.3674053 α      in ANC's #3, #6, #5, ...

........................................................................
.............................. CYCLE   41 ..............................
........................................................................

 iter      E             dE          RMSdq      gap      omega  full diag
   1   -113.2912860 -0.113291E+03  0.600E-02    0.70       0.0  T
   2   -113.2912929 -0.686383E-05  0.348E-02    0.70       1.0  T
   3   -113.2912929 -0.282576E-07  0.725E-03    0.70       1.7  T
   4   -113.2912940 -0.116656E-05  0.242E-03    0.70       5.1  T
   5   -113.2912942 -0.130075E-06  0.127E-03    0.70       9.7  T
   6   -113.2912942 -0.138539E-07  0.488E-04    0.70      25.2  T
   7   -113.2912942 -0.321215E-08  0.175E-04    0.70      70.3  T
     SCC iter.                  ...        0 min,  0.033 sec
     gradient                   ...        0 min,  0.017 sec
 * total energy  :  -111.8577032 Eh     change       -0.1415893E-03 Eh
   gradient norm :     0.0062544 Eh/α   predicted    -0.1593110E-03 (  12.52%)
   displ. norm   :     0.6550054 α      lambda       -0.2260781E-03
   maximum displ.:     0.5037610 α      in ANC's #3, #6, #5, ...

........................................................................
.............................. CYCLE   42 ..............................
........................................................................

 iter      E             dE          RMSdq      gap      omega  full diag
   1   -113.2884383 -0.113288E+03  0.808E-02    0.65       0.0  T
   2   -113.2884500 -0.116967E-04  0.467E-02    0.66       1.0  T
   3   -113.2884506 -0.531997E-06  0.859E-03    0.66       1.4  T
   4   -113.2884521 -0.150345E-05  0.359E-03    0.67       3.4  T
   5   -113.2884524 -0.328062E-06  0.156E-03    0.67       7.9  T
   6   -113.2884524 -0.128986E-07  0.599E-04    0.67      20.6  T
   7   -113.2884524 -0.546302E-08  0.230E-04    0.67      53.6  T
     SCC iter.                  ...        0 min,  0.037 sec
     gradient                   ...        0 min,  0.015 sec
 * total energy  :  -111.8578376 Eh     change       -0.1343518E-03 Eh
   gradient norm :     0.0072357 Eh/α   predicted    -0.1615293E-03 (  20.23%)
   displ. norm   :     0.2525396 α      lambda       -0.1307444E-03
   maximum displ.:     0.1935820 α      in ANC's #3, #5, #6, ...
 * RMSD in coord.:     0.9403091 α      energy gain  -0.3063003E-02 Eh

generating ANC from exact Hessian ...
Using Lindh-Hessian (1995)
 Shifting diagonal of input Hessian by    9.9074550075295212E-003
 Lowest  eigenvalues of input Hessian
    0.000000    0.000000    0.000000    0.000000    0.000000    0.000000
    0.010000    0.010006    0.010051    0.010274    0.010432    0.010863
    0.010989    0.011076    0.011298    0.011718    0.011931    0.012605
 Highest eigenvalues
    2.079243    2.308268    2.319540    2.321603    2.345121    2.629411


........................................................................
.............................. CYCLE   43 ..............................
........................................................................

 iter      E             dE          RMSdq      gap      omega  full diag
   1   -113.2909430 -0.113291E+03  0.334E-02    0.68       0.0  T
   2   -113.2909461 -0.306795E-05  0.193E-02    0.68       1.0  T
   3   -113.2909461 -0.458283E-07  0.476E-03    0.68       2.6  T
   4   -113.2909464 -0.308143E-06  0.147E-03    0.68       8.4  T
   5   -113.2909465 -0.632296E-07  0.681E-04    0.68      18.1  T
   6   -113.2909465 -0.362289E-08  0.321E-04    0.68      38.3  T
     SCC iter.                  ...        0 min,  0.026 sec
     gradient                   ...        0 min,  0.015 sec
 * total energy  :  -111.8579259 Eh     change       -0.8835963E-04 Eh
   gradient norm :     0.0052994 Eh/α   predicted     0.0000000E+00 (-100.00%)
   displ. norm   :     0.0574487 α      lambda       -0.9927376E-04
   maximum displ.:     0.0223990 α      in ANC's #3, #16, #10, ...

........................................................................
.............................. CYCLE   44 ..............................
........................................................................

 iter      E             dE          RMSdq      gap      omega  full diag
   1   -113.2914414 -0.113291E+03  0.154E-02    0.68       0.0  T
   2   -113.2914424 -0.980842E-06  0.888E-03    0.68       1.4  T
   3   -113.2914423  0.118670E-06  0.360E-03    0.68       3.4  T
   4   -113.2914426 -0.318419E-06  0.957E-04    0.68      12.9  T
   5   -113.2914426 -0.208962E-07  0.393E-04    0.68      31.3  T
     SCC iter.                  ...        0 min,  0.021 sec
     gradient                   ...        0 min,  0.017 sec
 * total energy  :  -111.8580050 Eh     change       -0.7906293E-04 Eh
   gradient norm :     0.0023767 Eh/α   predicted    -0.5000724E-04 ( -36.75%)
   displ. norm   :     0.1567992 α      lambda       -0.1541362E-03
   maximum displ.:     0.0657212 α      in ANC's #3, #16, #10, ...

........................................................................
.............................. CYCLE   45 ..............................
........................................................................

 iter      E             dE          RMSdq      gap      omega  full diag
   1   -113.2917511 -0.113292E+03  0.319E-02    0.68       0.0  T
   2   -113.2917542 -0.311290E-05  0.186E-02    0.68       1.0  T
   3   -113.2917537  0.546722E-06  0.679E-03    0.68       1.8  T
   4   -113.2917551 -0.146866E-05  0.185E-03    0.68       6.6  T
   5   -113.2917552 -0.480467E-07  0.882E-04    0.68      14.0  T
   6   -113.2917552 -0.277892E-08  0.342E-04    0.68      36.0  T
     SCC iter.                  ...        0 min,  0.032 sec
     gradient                   ...        0 min,  0.016 sec
 * total energy  :  -111.8580971 Eh     change       -0.9213350E-04 Eh
   gradient norm :     0.0037600 Eh/α   predicted    -0.7896421E-04 ( -14.29%)
   displ. norm   :     0.1383922 α      lambda       -0.8429330E-04
   maximum displ.:     0.0629583 α      in ANC's #3, #10, #16, ...

........................................................................
.............................. CYCLE   46 ..............................
........................................................................

 iter      E             dE          RMSdq      gap      omega  full diag
   1   -113.2914000 -0.113291E+03  0.271E-02    0.68       0.0  T
   2   -113.2914012 -0.121562E-05  0.159E-02    0.68       1.0  T
   3   -113.2914012  0.943601E-09  0.364E-03    0.68       3.4  T
   4   -113.2914017 -0.474232E-06  0.142E-03    0.68       8.7  T
   5   -113.2914017 -0.203426E-07  0.673E-04    0.68      18.3  T
   6   -113.2914017 -0.252896E-08  0.206E-04    0.68      59.8  T
     SCC iter.                  ...        0 min,  0.026 sec
     gradient                   ...        0 min,  0.014 sec
 * total energy  :  -111.8581434 Eh     change       -0.4628801E-04 Eh
   gradient norm :     0.0047290 Eh/α   predicted    -0.4295672E-04 (  -7.20%)
   displ. norm   :     0.1245381 α      lambda       -0.6798128E-04
   maximum displ.:     0.0620533 α      in ANC's #3, #10, #4, ...

........................................................................
.............................. CYCLE   47 ..............................
........................................................................

 iter      E             dE          RMSdq      gap      omega  full diag
   1   -113.2911472 -0.113291E+03  0.215E-02    0.68       0.0  T
   2   -113.2911479 -0.717412E-06  0.126E-02    0.68       1.0  T
   3   -113.2911481 -0.162693E-06  0.209E-03    0.68       5.9  T
   4   -113.2911482 -0.764344E-07  0.101E-03    0.68      12.2  T
   5   -113.2911482 -0.108863E-07  0.560E-04    0.68      22.0  T
   6   -113.2911482 -0.447554E-08  0.131E-04    0.68      94.0  T
     SCC iter.                  ...        0 min,  0.031 sec
     gradient                   ...        0 min,  0.016 sec
 * total energy  :  -111.8581990 Eh     change       -0.5560338E-04 Eh
   gradient norm :     0.0033627 Eh/α   predicted    -0.3452041E-04 ( -37.92%)
   displ. norm   :     0.2304072 α      lambda       -0.1151244E-03
   maximum displ.:     0.1193648 α      in ANC's #3, #4, #10, ...

........................................................................
.............................. CYCLE   48 ..............................
........................................................................

 iter      E             dE          RMSdq      gap      omega  full diag
   1   -113.2908255 -0.113291E+03  0.393E-02    0.68       0.0  T
   2   -113.2908281 -0.261653E-05  0.230E-02    0.68       1.0  T
   3   -113.2908285 -0.370899E-06  0.401E-03    0.68       3.1  T
   4   -113.2908288 -0.269844E-06  0.168E-03    0.68       7.3  T
   5   -113.2908288 -0.344879E-07  0.909E-04    0.68      13.5  T
   6   -113.2908288 -0.777692E-08  0.275E-04    0.68      44.7  T
     SCC iter.                  ...        0 min,  0.025 sec
     gradient                   ...        0 min,  0.015 sec
 * total energy  :  -111.8582807 Eh     change       -0.8167655E-04 Eh
   gradient norm :     0.0027878 Eh/α   predicted    -0.6063140E-04 ( -25.77%)
   displ. norm   :     0.2305097 α      lambda       -0.7219201E-04
   maximum displ.:     0.1213876 α      in ANC's #3, #4, #10, ...

........................................................................
.............................. CYCLE   49 ..............................
........................................................................

 iter      E             dE          RMSdq      gap      omega  full diag
   1   -113.2902940 -0.113290E+03  0.382E-02    0.68       0.0  T
   2   -113.2902953 -0.135086E-05  0.224E-02    0.68       1.0  T
   3   -113.2902957 -0.388811E-06  0.257E-03    0.68       4.8  T
   4   -113.2902958 -0.101966E-06  0.146E-03    0.68       8.4  T
   5   -113.2902958 -0.297899E-07  0.701E-04    0.68      17.6  T
   6   -113.2902958 -0.584018E-08  0.208E-04    0.68      59.1  T
     SCC iter.                  ...        0 min,  0.027 sec
     gradient                   ...        0 min,  0.016 sec
 * total energy  :  -111.8583377 Eh     change       -0.5698512E-04 Eh
   gradient norm :     0.0037720 Eh/α   predicted    -0.3801980E-04 ( -33.28%)
   displ. norm   :     0.2641876 α      lambda       -0.8707395E-04
   maximum displ.:     0.1424168 α      in ANC's #3, #4, #10, ...

........................................................................
.............................. CYCLE   50 ..............................
........................................................................

 iter      E             dE          RMSdq      gap      omega  full diag
   1   -113.2904515 -0.113290E+03  0.435E-02    0.69       0.0  T
   2   -113.2904530 -0.143693E-05  0.254E-02    0.69       1.0  T
   3   -113.2904533 -0.295377E-06  0.294E-03    0.69       4.2  T
   4   -113.2904535 -0.215650E-06  0.151E-03    0.69       8.2  T
   5   -113.2904535 -0.277176E-07  0.717E-04    0.69      17.2  T
   6   -113.2904535 -0.634493E-08  0.237E-04    0.69      51.9  T
     SCC iter.                  ...        0 min,  0.025 sec
     gradient                   ...        0 min,  0.015 sec
 * total energy  :  -111.8584057 Eh     change       -0.6801407E-04 Eh
   gradient norm :     0.0038804 Eh/α   predicted    -0.4660010E-04 ( -31.48%)
   displ. norm   :     0.2900145 α      lambda       -0.8666269E-04
   maximum displ.:     0.1598997 α      in ANC's #3, #4, #7, ...

........................................................................
.............................. CYCLE   51 ..............................
........................................................................

 iter      E             dE          RMSdq      gap      omega  full diag
   1   -113.2905310 -0.113291E+03  0.470E-02    0.69       0.0  T
   2   -113.2905328 -0.189183E-05  0.273E-02    0.69       1.0  T
   3   -113.2905331 -0.295230E-06  0.340E-03    0.69       3.6  T
   4   -113.2905334 -0.280905E-06  0.163E-03    0.69       7.5  T
   5   -113.2905335 -0.341114E-07  0.884E-04    0.69      13.9  T
   6   -113.2905335 -0.120070E-07  0.191E-04    0.69      64.4  T
     SCC iter.                  ...        0 min,  0.026 sec
     gradient                   ...        0 min,  0.018 sec
 * total energy  :  -111.8584717 Eh     change       -0.6602672E-04 Eh
   gradient norm :     0.0033418 Eh/α   predicted    -0.4697700E-04 ( -28.85%)
   displ. norm   :     0.2470234 α      lambda       -0.7880255E-04
   maximum displ.:     0.1418712 α      in ANC's #3, #4, #7, ...

........................................................................
.............................. CYCLE   52 ..............................
........................................................................

 iter      E             dE          RMSdq      gap      omega  full diag
   1   -113.2921387 -0.113292E+03  0.395E-02    0.70       0.0  T
   2   -113.2921402 -0.148077E-05  0.229E-02    0.70       1.0  T
   3   -113.2921403 -0.595121E-07  0.321E-03    0.70       3.8  T
   4   -113.2921406 -0.335981E-06  0.135E-03    0.70       9.1  T
   5   -113.2921406 -0.282106E-07  0.687E-04    0.70      17.9  T
   6   -113.2921407 -0.558593E-08  0.206E-04    0.70      59.7  T
     SCC iter.                  ...        0 min,  0.028 sec
     gradient                   ...        0 min,  0.017 sec
 * total energy  :  -111.8585297 Eh     change       -0.5801840E-04 Eh
   gradient norm :     0.0033134 Eh/α   predicted    -0.4180692E-04 ( -27.94%)
   displ. norm   :     0.3272915 α      lambda       -0.7652448E-04
   maximum displ.:     0.1871585 α      in ANC's #3, #4, #7, ...

........................................................................
.............................. CYCLE   53 ..............................
........................................................................

 iter      E             dE          RMSdq      gap      omega  full diag
   1   -113.2906345 -0.113291E+03  0.511E-02    0.68       0.0  T
   2   -113.2906378 -0.331472E-05  0.296E-02    0.69       1.0  T
   3   -113.2906382 -0.333342E-06  0.421E-03    0.69       2.9  T
   4   -113.2906385 -0.362520E-06  0.195E-03    0.69       6.3  T
   5   -113.2906386 -0.831906E-07  0.936E-04    0.69      13.1  T
   6   -113.2906386 -0.908935E-08  0.334E-04    0.69      36.8  T
     SCC iter.                  ...        0 min,  0.025 sec
     gradient                   ...        0 min,  0.016 sec
 * total energy  :  -111.8585831 Eh     change       -0.5332143E-04 Eh
   gradient norm :     0.0042172 Eh/α   predicted    -0.4236648E-04 ( -20.55%)
   displ. norm   :     0.2411867 α      lambda       -0.8016214E-04
   maximum displ.:     0.1411925 α      in ANC's #3, #4, #6, ...

........................................................................
.............................. CYCLE   54 ..............................
........................................................................

 iter      E             dE          RMSdq      gap      omega  full diag
   1   -113.2924140 -0.113292E+03  0.371E-02    0.69       0.0  T
   2   -113.2924159 -0.192508E-05  0.213E-02    0.69       1.0  T
   3   -113.2924160 -0.869121E-07  0.351E-03    0.70       3.5  T
   4   -113.2924163 -0.309158E-06  0.135E-03    0.70       9.1  T
   5   -113.2924163 -0.336162E-07  0.698E-04    0.70      17.6  T
   6   -113.2924163 -0.438588E-08  0.212E-04    0.70      58.1  T
     SCC iter.                  ...        0 min,  0.031 sec
     gradient                   ...        0 min,  0.016 sec
 * total energy  :  -111.8586394 Eh     change       -0.5638490E-04 Eh
   gradient norm :     0.0034561 Eh/α   predicted    -0.4241598E-04 ( -24.77%)
   displ. norm   :     0.3196709 α      lambda       -0.6587408E-04
   maximum displ.:     0.1889010 α      in ANC's #3, #4, #6, ...

........................................................................
.............................. CYCLE   55 ..............................
........................................................................

 iter      E             dE          RMSdq      gap      omega  full diag
   1   -113.2909316 -0.113291E+03  0.479E-02    0.69       0.0  T
   2   -113.2909336 -0.198125E-05  0.278E-02    0.70       1.0  T
   3   -113.2909339 -0.319734E-06  0.318E-03    0.70       3.9  T
   4   -113.2909341 -0.227181E-06  0.150E-03    0.70       8.2  T
   5   -113.2909341 -0.258424E-07  0.762E-04    0.70      16.2  T
   6   -113.2909342 -0.715248E-08  0.203E-04    0.70      60.7  T
     SCC iter.                  ...        0 min,  0.026 sec
     gradient                   ...        0 min,  0.015 sec
 * total energy  :  -111.8586869 Eh     change       -0.4747243E-04 Eh
   gradient norm :     0.0032322 Eh/α   predicted    -0.3630353E-04 ( -23.53%)
   displ. norm   :     0.1987955 α      lambda       -0.6450160E-04
   maximum displ.:     0.1220183 α      in ANC's #3, #4, #6, ...

........................................................................
.............................. CYCLE   56 ..............................
........................................................................

 iter      E             dE          RMSdq      gap      omega  full diag
   1   -113.2921900 -0.113292E+03  0.298E-02    0.69       0.0  T
   2   -113.2921913 -0.134804E-05  0.173E-02    0.69       1.0  T
   3   -113.2921913 -0.952423E-08  0.296E-03    0.70       4.2  T
   4   -113.2921916 -0.267089E-06  0.108E-03    0.70      11.4  T
   5   -113.2921916 -0.203607E-07  0.552E-04    0.70      22.3  T
   6   -113.2921916 -0.187967E-08  0.189E-04    0.70      65.3  T
     SCC iter.                  ...        0 min,  0.034 sec
     gradient                   ...        0 min,  0.016 sec
 * total energy  :  -111.8587319 Eh     change       -0.4502744E-04 Eh
   gradient norm :     0.0030397 Eh/α   predicted    -0.3353489E-04 ( -25.52%)
   displ. norm   :     0.2275934 α      lambda       -0.5773732E-04
   maximum displ.:     0.1414526 α      in ANC's #3, #4, #6, ...

........................................................................
.............................. CYCLE   57 ..............................
........................................................................

 iter      E             dE          RMSdq      gap      omega  full diag
   1   -113.2917803 -0.113292E+03  0.336E-02    0.69       0.0  T
   2   -113.2917816 -0.130043E-05  0.196E-02    0.70       1.0  T
   3   -113.2917818 -0.140731E-06  0.250E-03    0.70       4.9  T
   4   -113.2917819 -0.142171E-06  0.103E-03    0.70      11.9  T
   5   -113.2917819 -0.129858E-07  0.564E-04    0.70      21.8  T
   6   -113.2917819 -0.334910E-08  0.204E-04    0.70      60.4  T
     SCC iter.                  ...        0 min,  0.026 sec
     gradient                   ...        0 min,  0.016 sec
 * total energy  :  -111.8587761 Eh     change       -0.4414403E-04 Eh
   gradient norm :     0.0027210 Eh/α   predicted    -0.3036566E-04 ( -31.21%)
   displ. norm   :     0.2192072 α      lambda       -0.6080413E-04
   maximum displ.:     0.1373326 α      in ANC's #3, #4, #6, ...

........................................................................
.............................. CYCLE   58 ..............................
........................................................................

 iter      E             dE          RMSdq      gap      omega  full diag
   1   -113.2921836 -0.113292E+03  0.328E-02    0.70       0.0  T
   2   -113.2921852 -0.166862E-05  0.191E-02    0.70       1.0  T
   3   -113.2921853 -0.577459E-07  0.345E-03    0.70       3.6  T
   4   -113.2921856 -0.301790E-06  0.121E-03    0.70      10.2  T
   5   -113.2921856 -0.217091E-07  0.680E-04    0.70      18.1  T
   6   -113.2921856 -0.392568E-08  0.236E-04    0.70      52.2  T
     SCC iter.                  ...        0 min,  0.031 sec
     gradient                   ...        0 min,  0.016 sec
 * total energy  :  -111.8588200 Eh     change       -0.4397003E-04 Eh
   gradient norm :     0.0031363 Eh/α   predicted    -0.3186687E-04 ( -27.53%)
   displ. norm   :     0.2163703 α      lambda       -0.4088343E-04
   maximum displ.:     0.1382256 α      in ANC's #3, #4, #6, ...

........................................................................
.............................. CYCLE   59 ..............................
........................................................................

 iter      E             dE          RMSdq      gap      omega  full diag
   1   -113.2916637 -0.113292E+03  0.309E-02    0.70       0.0  T
   2   -113.2916645 -0.809646E-06  0.181E-02    0.70       1.0  T
   3   -113.2916646 -0.856848E-07  0.234E-03    0.71       5.3  T
   4   -113.2916647 -0.163418E-06  0.108E-03    0.71      11.4  T
   5   -113.2916648 -0.183585E-07  0.594E-04    0.71      20.7  T
   6   -113.2916648 -0.363016E-08  0.162E-04    0.71      75.9  T
     SCC iter.                  ...        0 min,  0.026 sec
     gradient                   ...        0 min,  0.016 sec
 * total energy  :  -111.8588499 Eh     change       -0.2987954E-04 Eh
   gradient norm :     0.0030467 Eh/α   predicted    -0.2140166E-04 ( -28.37%)
   displ. norm   :     0.1625004 α      lambda       -0.3149356E-04
   maximum displ.:     0.1053050 α      in ANC's #3, #4, #1, ...

........................................................................
.............................. CYCLE   60 ..............................
........................................................................

 iter      E             dE          RMSdq      gap      omega  full diag
   1   -113.2922080 -0.113292E+03  0.222E-02    0.71       0.0  T
   2   -113.2922084 -0.392322E-06  0.130E-02    0.71       1.0  T
   3   -113.2922084  0.413833E-08  0.183E-03    0.71       6.7  T
   4   -113.2922086 -0.132097E-06  0.780E-04    0.71      15.8  T
   5   -113.2922086 -0.100711E-07  0.422E-04    0.71      29.1  T
     SCC iter.                  ...        0 min,  0.023 sec
     gradient                   ...        0 min,  0.017 sec
 * total energy  :  -111.8588724 Eh     change       -0.2244059E-04 Eh
   gradient norm :     0.0020091 Eh/α   predicted    -0.1616305E-04 ( -27.97%)
   displ. norm   :     0.1674399 α      lambda       -0.2458582E-04
   maximum displ.:     0.1124823 α      in ANC's #3, #4, #1, ...

........................................................................
.............................. CYCLE   61 ..............................
........................................................................

 iter      E             dE          RMSdq      gap      omega  full diag
   1   -113.2915384 -0.113292E+03  0.231E-02    0.71       0.0  T
   2   -113.2915390 -0.567008E-06  0.134E-02    0.71       1.0  T
   3   -113.2915390 -0.211666E-07  0.203E-03    0.71       6.1  T
   4   -113.2915391 -0.118316E-06  0.826E-04    0.71      14.9  T
   5   -113.2915392 -0.120076E-07  0.431E-04    0.71      28.5  T
     SCC iter.                  ...        0 min,  0.022 sec
     gradient                   ...        0 min,  0.019 sec
 * total energy  :  -111.8588896 Eh     change       -0.1718159E-04 Eh
   gradient norm :     0.0017750 Eh/α   predicted    -0.1264050E-04 ( -26.43%)
   displ. norm   :     0.1814355 α      lambda       -0.1961840E-04
   maximum displ.:     0.1236471 α      in ANC's #3, #4, #2, ...

........................................................................
.............................. CYCLE   62 ..............................
........................................................................

 iter      E             dE          RMSdq      gap      omega  full diag
   1   -113.2925677 -0.113293E+03  0.238E-02    0.72       0.0  T
   2   -113.2925692 -0.153840E-05  0.138E-02    0.72       1.0  T
   3   -113.2925692  0.401937E-07  0.361E-03    0.72       3.4  T
   4   -113.2925694 -0.204776E-06  0.927E-04    0.72      13.3  T
   5   -113.2925694 -0.272691E-07  0.446E-04    0.72      27.6  T
     SCC iter.                  ...        0 min,  0.025 sec
     gradient                   ...        0 min,  0.017 sec
 * total energy  :  -111.8589049 Eh     change       -0.1533620E-04 Eh
   gradient norm :     0.0025784 Eh/α   predicted    -0.9955471E-05 ( -35.09%)
   displ. norm   :     0.0970198 α      lambda       -0.1375190E-04
   maximum displ.:     0.0664095 α      in ANC's #3, #4, #2, ...

........................................................................
.............................. CYCLE   63 ..............................
........................................................................

 iter      E             dE          RMSdq      gap      omega  full diag
   1   -113.2920001 -0.113292E+03  0.136E-02    0.71       0.0  T
   2   -113.2920005 -0.350551E-06  0.789E-03    0.72       1.6  T
   3   -113.2920005 -0.325325E-07  0.125E-03    0.72       9.9  T
   4   -113.2920005 -0.139947E-07  0.458E-04    0.72      26.9  T
   5   -113.2920005 -0.391455E-08  0.247E-04    0.72      49.9  T
     SCC iter.                  ...        0 min,  0.028 sec
     gradient                   ...        0 min,  0.016 sec
 * total energy  :  -111.8589158 Eh     change       -0.1091551E-04 Eh
   gradient norm :     0.0020066 Eh/α   predicted    -0.6942063E-05 ( -36.40%)
   displ. norm   :     0.1243082 α      lambda       -0.2023507E-04
   maximum displ.:     0.0838863 α      in ANC's #3, #4, #2, ...

........................................................................
.............................. CYCLE   64 ..............................
........................................................................

 iter      E             dE          RMSdq      gap      omega  full diag
   1   -113.2919494 -0.113292E+03  0.169E-02    0.72       0.0  T
   2   -113.2919497 -0.298306E-06  0.988E-03    0.72       1.2  T
   3   -113.2919497 -0.449600E-08  0.127E-03    0.72       9.7  T
   4   -113.2919497 -0.416617E-07  0.458E-04    0.72      26.9  T
   5   -113.2919497 -0.437684E-08  0.239E-04    0.72      51.5  T
     SCC iter.                  ...        0 min,  0.022 sec
     gradient                   ...        0 min,  0.017 sec
 * total energy  :  -111.8589308 Eh     change       -0.1501834E-04 Eh
   gradient norm :     0.0014401 Eh/α   predicted    -0.1027495E-04 ( -31.58%)
   displ. norm   :     0.2304618 α      lambda       -0.1799097E-04
   maximum displ.:     0.1566474 α      in ANC's #3, #4, #2, ...

........................................................................
.............................. CYCLE   65 ..............................
........................................................................

 iter      E             dE          RMSdq      gap      omega  full diag
   1   -113.2916912 -0.113292E+03  0.303E-02    0.72       0.0  T
   2   -113.2916921 -0.881053E-06  0.177E-02    0.72       1.0  T
   3   -113.2916921 -0.146406E-08  0.228E-03    0.72       5.4  T
   4   -113.2916923 -0.146375E-06  0.804E-04    0.72      15.3  T
   5   -113.2916923 -0.131769E-07  0.414E-04    0.72      29.8  T
     SCC iter.                  ...        0 min,  0.032 sec
     gradient                   ...        0 min,  0.016 sec
 * total energy  :  -111.8589447 Eh     change       -0.1383319E-04 Eh
   gradient norm :     0.0023916 Eh/α   predicted    -0.9210269E-05 ( -33.42%)
   displ. norm   :     0.1157858 α      lambda       -0.1579020E-04
   maximum displ.:     0.0803760 α      in ANC's #3, #4, #2, ...

........................................................................
.............................. CYCLE   66 ..............................
........................................................................

 iter      E             dE          RMSdq      gap      omega  full diag
   1   -113.2924206 -0.113292E+03  0.139E-02    0.73       0.0  T
   2   -113.2924208 -0.191995E-06  0.809E-03    0.73       1.5  T
   3   -113.2924208 -0.150824E-08  0.101E-03    0.73      12.2  T
   4   -113.2924208 -0.290098E-07  0.431E-04    0.73      28.5  T
   5   -113.2924208 -0.540463E-08  0.211E-04    0.73      58.5  T
     SCC iter.                  ...        0 min,  0.022 sec
     gradient                   ...        0 min,  0.017 sec
 * total energy  :  -111.8589550 Eh     change       -0.1039274E-04 Eh
   gradient norm :     0.0021695 Eh/α   predicted    -0.8005439E-05 ( -22.97%)
   displ. norm   :     0.1193160 α      lambda        0.1116895E-05
   maximum displ.:     0.0828521 α      in ANC's #3, #4, #2, ...
 * RMSD in coord.:     0.5134934 α      energy gain  -0.1117486E-02 Eh

generating ANC from exact Hessian ...
Using Lindh-Hessian (1995)
 Shifting diagonal of input Hessian by    9.9089417785637769E-003
 Lowest  eigenvalues of input Hessian
    0.000000    0.000000    0.000000    0.000000    0.000000    0.000000
    0.010000    0.010006    0.010053    0.010253    0.010442    0.010836
    0.010980    0.011118    0.011310    0.011665    0.011912    0.012494
 Highest eigenvalues
    2.078162    2.317792    2.318870    2.321373    2.343008    2.632050


........................................................................
.............................. CYCLE   67 ..............................
........................................................................

 iter      E             dE          RMSdq      gap      omega  full diag
   1   -113.2930530 -0.113293E+03  0.143E-02    0.73       0.0  T
   2   -113.2930532 -0.198405E-06  0.832E-03    0.73       1.5  T
   3   -113.2930532 -0.415541E-08  0.102E-03    0.73      12.1  T
   4   -113.2930532 -0.282195E-07  0.436E-04    0.73      28.2  T
   5   -113.2930532 -0.506003E-08  0.214E-04    0.73      57.7  T
     SCC iter.                  ...        0 min,  0.022 sec
     gradient                   ...        0 min,  0.015 sec
 * total energy  :  -111.8589547 Eh     change        0.3308022E-06 Eh
   gradient norm :     0.0033375 Eh/α   predicted     0.0000000E+00 (-100.00%)
   displ. norm   :     0.0178251 α      lambda       -0.1955648E-04
   maximum displ.:     0.0066797 α      in ANC's #25, #9, #3, ...

........................................................................
.............................. CYCLE   68 ..............................
........................................................................

 iter      E             dE          RMSdq      gap      omega  full diag
   1   -113.2925644 -0.113293E+03  0.578E-03    0.73       0.0  T
   2   -113.2925646 -0.281500E-06  0.325E-03    0.73       3.8  T
   3   -113.2925646 -0.726618E-08  0.139E-03    0.73       8.9  T
   4   -113.2925647 -0.143011E-07  0.339E-04    0.73      36.3  T
   5   -113.2925647 -0.321003E-08  0.141E-04    0.73      87.1  T
     SCC iter.                  ...        0 min,  0.022 sec
     gradient                   ...        0 min,  0.015 sec
 * total energy  :  -111.8589689 Eh     change       -0.1420848E-04 Eh
   gradient norm :     0.0013171 Eh/α   predicted    -0.1036914E-04 ( -27.02%)
   displ. norm   :     0.0395395 α      lambda       -0.9643312E-05
   maximum displ.:     0.0166954 α      in ANC's #3, #9, #17, ...

........................................................................
.............................. CYCLE   69 ..............................
........................................................................

 iter      E             dE          RMSdq      gap      omega  full diag
   1   -113.2921322 -0.113292E+03  0.824E-03    0.73       0.0  T
   2   -113.2921326 -0.456391E-06  0.467E-03    0.73       2.6  T
   3   -113.2921327 -0.879930E-08  0.191E-03    0.73       6.4  T
   4   -113.2921327 -0.347567E-07  0.452E-04    0.73      27.2  T
   5   -113.2921327 -0.576230E-08  0.198E-04    0.73      62.3  T
     SCC iter.                  ...        0 min,  0.024 sec
     gradient                   ...        0 min,  0.014 sec
 * total energy  :  -111.8589750 Eh     change       -0.6100488E-05 Eh
   gradient norm :     0.0014395 Eh/α   predicted    -0.4825317E-05 ( -20.90%)
   displ. norm   :     0.0304901 α      lambda       -0.5633407E-05
   maximum displ.:     0.0142679 α      in ANC's #3, #9, #25, ...

........................................................................
.............................. CYCLE   70 ..............................
........................................................................

 iter      E             dE          RMSdq      gap      omega  full diag
   1   -113.2922025 -0.113292E+03  0.581E-03    0.73       0.0  T
   2   -113.2922026 -0.658544E-07  0.338E-03    0.73       3.6  T
   3   -113.2922026  0.102235E-07  0.909E-04    0.73      13.5  T
   4   -113.2922026 -0.255388E-07  0.236E-04    0.73      52.2  T
     SCC iter.                  ...        0 min,  0.018 sec
     gradient                   ...        0 min,  0.015 sec
 * total energy  :  -111.8589781 Eh     change       -0.3040511E-05 Eh
   gradient norm :     0.0015260 Eh/α   predicted    -0.2819762E-05 (  -7.26%)
   displ. norm   :     0.0291896 α      lambda       -0.5701436E-05
   maximum displ.:     0.0152750 α      in ANC's #3, #9, #2, ...

........................................................................
.............................. CYCLE   71 ..............................
........................................................................

 iter      E             dE          RMSdq      gap      omega  full diag
   1   -113.2924971 -0.113292E+03  0.495E-03    0.73       0.0  T
   2   -113.2924971 -0.823637E-07  0.287E-03    0.73       4.3  T
   3   -113.2924971  0.184006E-08  0.778E-04    0.73      15.8  T
   4   -113.2924971 -0.102428E-07  0.241E-04    0.73      51.1  T
     SCC iter.                  ...        0 min,  0.022 sec
     gradient                   ...        0 min,  0.017 sec
 * total energy  :  -111.8589838 Eh     change       -0.5750968E-05 Eh
   gradient norm :     0.0006530 Eh/α   predicted    -0.2872086E-05 ( -50.06%)
   displ. norm   :     0.0518983 α      lambda       -0.4149283E-05
   maximum displ.:     0.0277882 α      in ANC's #3, #9, #2, ...

........................................................................
.............................. CYCLE   72 ..............................
........................................................................

 iter      E             dE          RMSdq      gap      omega  full diag
   1   -113.2925471 -0.113293E+03  0.717E-03    0.73       0.0  T
   2   -113.2925472 -0.387942E-07  0.421E-03    0.73       2.9  T
   3   -113.2925472  0.319704E-08  0.613E-04    0.73      20.1  T
   4   -113.2925472 -0.133153E-07  0.238E-04    0.73      51.7  T
     SCC iter.                  ...        0 min,  0.017 sec
     gradient                   ...        0 min,  0.016 sec
 * total energy  :  -111.8589889 Eh     change       -0.5052419E-05 Eh
   gradient norm :     0.0006943 Eh/α   predicted    -0.2079286E-05 ( -58.85%)
   displ. norm   :     0.1115241 α      lambda       -0.7251740E-05
   maximum displ.:     0.0595816 α      in ANC's #3, #9, #2, ...

........................................................................
.............................. CYCLE   73 ..............................
........................................................................

 iter      E             dE          RMSdq      gap      omega  full diag
   1   -113.2924296 -0.113292E+03  0.148E-02    0.73       0.0  T
   2   -113.2924297 -0.110909E-06  0.869E-03    0.73       1.4  T
   3   -113.2924297 -0.253947E-08  0.936E-04    0.73      13.1  T
   4   -113.2924297 -0.282593E-07  0.412E-04    0.73      29.9  T
     SCC iter.                  ...        0 min,  0.019 sec
     gradient                   ...        0 min,  0.017 sec
 * total energy  :  -111.8589970 Eh     change       -0.8102263E-05 Eh
   gradient norm :     0.0009823 Eh/α   predicted    -0.3650342E-05 ( -54.95%)
   displ. norm   :     0.1268924 α      lambda       -0.7102689E-05
   maximum displ.:     0.0694718 α      in ANC's #3, #2, #9, ...

........................................................................
.............................. CYCLE   74 ..............................
........................................................................

 iter      E             dE          RMSdq      gap      omega  full diag
   1   -113.2922835 -0.113292E+03  0.165E-02    0.73       0.0  T
   2   -113.2922836 -0.122566E-06  0.973E-03    0.73       1.3  T
   3   -113.2922835  0.305403E-07  0.124E-03    0.73       9.9  T
   4   -113.2922836 -0.653118E-07  0.430E-04    0.73      28.6  T
   5   -113.2922836 -0.341272E-08  0.222E-04    0.73      55.5  T
     SCC iter.                  ...        0 min,  0.028 sec
     gradient                   ...        0 min,  0.014 sec
 * total energy  :  -111.8590050 Eh     change       -0.8010449E-05 Eh
   gradient norm :     0.0010848 Eh/α   predicted    -0.3579632E-05 ( -55.31%)
   displ. norm   :     0.1341489 α      lambda       -0.7533733E-05
   maximum displ.:     0.0753367 α      in ANC's #3, #2, #20, ...

........................................................................
.............................. CYCLE   75 ..............................
........................................................................

 iter      E             dE          RMSdq      gap      omega  full diag
   1   -113.2922273 -0.113292E+03  0.170E-02    0.73       0.0  T
   2   -113.2922275 -0.142617E-06  0.100E-02    0.73       1.2  T
   3   -113.2922274  0.306222E-07  0.129E-03    0.73       9.5  T
   4   -113.2922275 -0.746037E-07  0.448E-04    0.73      27.4  T
   5   -113.2922275 -0.290771E-08  0.229E-04    0.73      53.8  T
     SCC iter.                  ...        0 min,  0.021 sec
     gradient                   ...        0 min,  0.015 sec
 * total energy  :  -111.8590135 Eh     change       -0.8486722E-05 Eh
   gradient norm :     0.0008912 Eh/α   predicted    -0.3824299E-05 ( -54.94%)
   displ. norm   :     0.1303848 α      lambda       -0.7542512E-05
   maximum displ.:     0.0753879 α      in ANC's #3, #2, #20, ...

........................................................................
.............................. CYCLE   76 ..............................
........................................................................

 iter      E             dE          RMSdq      gap      omega  full diag
   1   -113.2923296 -0.113292E+03  0.167E-02    0.73       0.0  T
   2   -113.2923298 -0.164178E-06  0.985E-03    0.73       1.3  T
   3   -113.2923298  0.375064E-08  0.126E-03    0.73       9.8  T
   4   -113.2923298 -0.652967E-07  0.527E-04    0.73      23.4  T
   5   -113.2923298 -0.286219E-08  0.238E-04    0.73      51.7  T
     SCC iter.                  ...        0 min,  0.023 sec
     gradient                   ...        0 min,  0.018 sec
 * total energy  :  -111.8590216 Eh     change       -0.8088323E-05 Eh
   gradient norm :     0.0006560 Eh/α   predicted    -0.3802008E-05 ( -52.99%)
   displ. norm   :     0.1069219 α      lambda       -0.4318821E-05
   maximum displ.:     0.0630860 α      in ANC's #3, #2, #20, ...

........................................................................
.............................. CYCLE   77 ..............................
........................................................................

 iter      E             dE          RMSdq      gap      omega  full diag
   1   -113.2922705 -0.113292E+03  0.136E-02    0.73       0.0  T
   2   -113.2922707 -0.126247E-06  0.798E-03    0.74       1.5  T
   3   -113.2922707 -0.165956E-08  0.108E-03    0.74      11.4  T
   4   -113.2922707 -0.446865E-07  0.449E-04    0.74      27.4  T
   5   -113.2922707 -0.168086E-08  0.201E-04    0.74      61.4  T
     SCC iter.                  ...        0 min,  0.023 sec
     gradient                   ...        0 min,  0.016 sec
 * total energy  :  -111.8590263 Eh     change       -0.4706329E-05 Eh
   gradient norm :     0.0005762 Eh/α   predicted    -0.2174880E-05 ( -53.79%)
   displ. norm   :     0.0779808 α      lambda       -0.2640500E-05
   maximum displ.:     0.0479866 α      in ANC's #3, #2, #20, ...

   *** GEOMETRY OPTIMIZATION CONVERGED AFTER 77 ITERATIONS ***

------------------------------------------------------------------------
 total energy gain   :        -0.0363672 Eh      -22.8207 kcal/mol
 total RMSD          :         1.9018140 a0        1.0064 Å
 total power (kW/mol):        -1.2400259 (step)  -21.8353 (real)
------------------------------------------------------------------------

 ANCopt (total)                0 d,  0 h,  0 min,  4.373 sec
 optimizer setup                ...        0 min,  0.000 sec (  0.011%)
 model hessian                  ...        0 min,  0.157 sec (  3.591%)
 ANC generation                 ...        0 min,  0.013 sec (  0.291%)
 coordinate transformation      ...        0 min,  0.003 sec (  0.073%)
 single point calculation       ...        0 min,  4.130 sec ( 94.450%)
 optimization log               ...        0 min,  0.037 sec (  0.847%)
 hessian update                 ...        0 min,  0.009 sec (  0.211%)
 rational function              ...        0 min,  0.016 sec (  0.371%)

================
 final structure:
================
66
 xtb: 6.7.1 (edcfbbe)
C           -6.88857920053350       -4.76286505929548       -1.16986765140434
N           -5.67420653384692       -3.98091719823355       -1.17865566690537
C           -5.38653155586403       -3.05857835378480       -0.24737073393012
O           -6.13425717142953       -2.81110911163951        0.70001047293885
C           -4.08553199623220       -2.35285471135266       -0.42287241870583
C           -3.55758012745973       -2.05225122958894       -1.67457476432176
C           -2.35421249827488       -1.37833662812268       -1.77683476437924
C           -1.65423637289677       -0.99710375998362       -0.63990289536374
C           -0.36306401873495       -0.21741702304394       -0.76609166982020
C           -0.75041407026824        1.23564127277786       -0.59560870677518
C           -0.89482031986642        1.78700315518320        0.67275777014474
C           -1.30745188266289        3.09560291140610        0.83058368419210
C           -1.58966275290541        3.88067558576110       -0.28470301120844
C           -2.02674686524060        5.30188148028828       -0.18067310729621
O           -1.71840824362214        6.13874476476332       -1.03175631260062
N           -2.78059869326511        5.59541807262104        0.88938222644769
C           -3.30580435172949        6.91461736786292        1.15304246441630
C           -1.42577568346880        3.33456413417662       -1.55361386592838
C           -1.01767645682640        2.02357796994332       -1.70736625021800
N            0.61146857550494       -0.63133358615752        0.23652831047528
C            1.84048900263000        0.13822046672597        0.15674050760415
C            2.72150407194640       -0.21630011666465        1.35735160058664
N            3.00827961979044       -1.63253791439160        1.32749348199410
C            4.17609507830500       -2.16351614108089        0.98983887133311
O            4.38568532835207       -3.36021416503582        0.80041744847620
C            5.34648010565180       -1.23748553491677        0.84590772411531
N            6.13961589470382       -0.89102741205464        1.81564033737359
O            7.19471623708322       -0.21933104869253        1.26296353808719
C            7.08095729351557       -0.16058361583610       -0.05426418387542
C            8.11222836262865        0.50778228230884       -0.85304122005189
C            5.89371123369591       -0.79974258919677       -0.40250603496176
N            5.31128909480552       -0.94833171241795       -1.66187753499394
O            4.16043077593385       -1.36263431882724       -1.71113230302749
O            5.96353204333919       -0.63605474155946       -2.64568356107958
C            1.80665736478749       -2.44267109146146        1.33050941325582
C            0.93344371080755       -2.04664080423752        0.14107391312608
C           -2.19112622680777       -1.28275406061788        0.61064695095931
C           -3.39508830074543       -1.94877267957029        0.71684719820359
H           -6.65909424537034       -5.82339264284389       -1.06756370034818
H           -7.44941524091995       -4.60023690798138       -2.09008810932468
H           -7.48587536256051       -4.43868340597862       -0.31929177044481
H           -4.99989425906717       -4.18218844998197       -1.90032715081527
H           -4.09316627481205       -2.31303068059543       -2.57455388049747
H           -1.95598753933862       -1.14668078306710       -2.75361150247250
H            0.04140449470978       -0.36164279775785       -1.78603153860228
H           -0.66664968552867        1.18380801225902        1.53592216241555
H           -1.37892807744818        3.50956581019313        1.82440494448481
H           -3.05315019984161        4.85556506353742        1.51760562750459
H           -2.95002571455069        7.27637038564603        2.11767929740718
H           -4.39566085466830        6.89862249171292        1.15127050887022
H           -2.95260857594954        7.57749310787699        0.36471862931244
H           -1.62479245240966        3.95740119309433       -2.41310093839043
H           -0.90141260238576        1.61385346951097       -2.69967690851521
H            1.60536603023352        1.20254618118181        0.17597934432458
H            2.39087658603600       -0.08698216914362       -0.77584879043050
H            3.64654559069305        0.35767039687986        1.33994760277856
H            2.17887156972039        0.00004032257827        2.27990516962870
H            7.67062566935823        0.93805042586514       -1.74896948690827
H            8.84936185939038       -0.22853239672205       -1.17625596180437
H            8.61654314042692        1.25877099164366       -0.25194435612890
H            1.27030476664042       -2.26078020789311        2.26332640551778
H            2.09917466356205       -3.49058462885457        1.26310982194792
H            1.47859453087412       -2.27132469472749       -0.79354000995408
H            0.01306544755429       -2.62986223375515        0.15796776267499
H           -1.65455056571502       -0.98811017770808        1.49694891851925
H           -3.82433216942433       -2.17009053098270        1.68247165220243

 Bond Distances (Angstroems)
 ---------------------------
C1-N2=1.4444         C1-H39=1.0899        C1-H40=1.0899        C1-H41=1.0887        N2-C1=1.4444         N2-C3=1.3419         
N2-H42=1.0080        C3-N2=1.3419         C3-O4=1.2320         C3-C5=1.4905         O4-C3=1.2320         C5-C3=1.4905         
C5-C6=1.3913         C5-C38=1.3925        C6-C5=1.3913         C6-C7=1.3830         C6-H43=1.0793        C7-C6=1.3830         
C7-C8=1.3885         C7-H44=1.0800        C8-C7=1.3885         C8-C9=1.5136         C8-C37=1.3906        C9-C8=1.5136         
C9-C10=1.5134        C9-N20=1.4582        C9-H45=1.1066        C10-C9=1.5134        C10-C11=1.3905       C10-C19=1.3886       
C11-C10=1.3905       C11-C12=1.3812       C11-H46=1.0775       C12-C11=1.3812       C12-C13=1.3928       C12-H47=1.0790       
C13-C12=1.3928       C13-C14=1.4905       C13-C18=1.3911       C14-C13=1.4905       C14-O15=1.2328       C14-N16=1.3414       
O15-C14=1.2328       N16-C14=1.3414       N16-C17=1.4442       N16-H48=1.0081       C17-N16=1.4442       C17-H49=1.0899       
C17-H50=1.0900       C17-H51=1.0889       C18-C13=1.3911       C18-C19=1.3816       C18-H52=1.0799       C19-C10=1.3886       
C19-C18=1.3816       C19-H53=1.0798       N20-C9=1.4582        N20-C21=1.4523       N20-C36=1.4546       C21-N20=1.4523       
C21-C22=1.5308       C21-H54=1.0902       C21-H55=1.1061       C22-C21=1.5308       C22-N23=1.4453       C22-H56=1.0888       
C22-H57=1.0920       N23-C22=1.4453       N23-C24=1.3266       N23-C35=1.4492       C24-N23=1.3266       C24-O25=1.2296       
C24-C26=1.4993       O25-C24=1.2296       C26-C24=1.4993       C26-N27=1.2998       C26-C31=1.4316       N27-C26=1.2998       
N27-O28=1.3674       O28-N27=1.3674       O28-C29=1.3234       C29-O28=1.3234       C29-C30=1.4657       C29-C31=1.3926       
C30-C29=1.4657       C30-H58=1.0876       C30-H59=1.0909       C30-H60=1.0861       C31-C26=1.4316       C31-C29=1.3926       
C31-N32=1.3955       N32-C31=1.3955       N32-O33=1.2242       N32-O34=1.2210       O33-N32=1.2242       O34-N32=1.2210       
C35-N23=1.4492       C35-C36=1.5278       C35-H61=1.0913       C35-H62=1.0901       C36-N20=1.4546       C36-C35=1.5278       
C36-H63=1.1051       C36-H64=1.0897       C37-C8=1.3906        C37-C38=1.3800       C37-H65=1.0772       C38-C5=1.3925        
C38-C37=1.3800       C38-H66=1.0797       H39-C1=1.0899        H40-C1=1.0899        H41-C1=1.0887        H42-N2=1.0080        
H43-C6=1.0793        H44-C7=1.0800        H45-C9=1.1066        H46-C11=1.0775       H47-C12=1.0790       H48-N16=1.0081       
H49-C17=1.0899       H50-C17=1.0900       H51-C17=1.0889       H52-C18=1.0799       H53-C19=1.0798       H54-C21=1.0902       
H55-C21=1.1061       H56-C22=1.0888       H57-C22=1.0920       H58-C30=1.0876       H59-C30=1.0909       H60-C30=1.0861       
H61-C35=1.0913       H62-C35=1.0901       H63-C36=1.1051       H64-C36=1.0897       H65-C37=1.0772       H66-C38=1.0797       
 C  H  Rav=1.0882 sigma=0.0080  Rmin=1.0772  Rmax=1.1066    26
 C  C  Rav=1.4322 sigma=0.0565  Rmin=1.3800  Rmax=1.5308    22
 N  H  Rav=1.0081 sigma=0.0001  Rmin=1.0080  Rmax=1.0081     2
 N  C  Rav=1.4044 sigma=0.0574  Rmin=1.2998  Rmax=1.4582    12
 O  C  Rav=1.2545 sigma=0.0398  Rmin=1.2296  Rmax=1.3234     4
 O  N  Rav=1.2709 sigma=0.0683  Rmin=1.2210  Rmax=1.3674     3

 selected bond angles (degree)
 --------------------
H39-C1-N2=110.51               H40-C1-N2=110.29               H40-C1-H39=109.44              H41-C1-N2=107.75               
H41-C1-H39=109.39              H41-C1-H40=109.45              C3-N2-C1=123.24                H42-N2-C1=117.30               
H42-N2-C3=119.39               O4-C3-N2=122.79                C5-C3-N2=115.52                C5-C3-O4=121.68                
C6-C5-C3=122.65                C38-C5-C3=118.28               C38-C5-C6=119.04               C7-C6-C5=120.13                
H43-C6-C5=120.64               H43-C6-C7=119.20               C8-C7-C6=120.79                H44-C7-C6=119.49               
H44-C7-C8=119.72               C9-C8-C7=120.21                C37-C8-C7=119.03               C37-C8-C9=120.67               
C10-C9-C8=105.48               N20-C9-C8=111.50               N20-C9-C10=111.48              H45-C9-C8=108.75               
H45-C9-C10=108.81              H45-C9-N20=110.64              C11-C10-C9=120.67              C19-C10-C9=120.26              
C19-C10-C11=119.03             

 selected dihedral angles (degree)
 ---------------------------------
C3-N2-C1-H39=242.11           C3-N2-C1-H40=120.97           C3-N2-C1-H41=  1.56           H42-N2-C1-H39= 59.00          
H42-N2-C1-H40=297.86          H42-N2-C1-H41=178.46          O4-C3-N2-C1=  0.58            O4-C3-N2-H42=183.75           
C5-C3-N2-C1=179.97            C5-C3-N2-H42=  3.14           C6-C5-C3-N2= 34.41            C6-C5-C3-O4=213.81            
C38-C5-C3-N2=212.58           C38-C5-C3-O4= 31.98           C7-C6-C5-C3=179.08            C7-C6-C5-C38=  0.92           
H43-C6-C5-C3=  0.98           H43-C6-C5-C38=182.82          C8-C7-C6-C5=  0.25            C8-C7-C6-H43=178.37           
H44-C7-C6-C5=180.25           H44-C7-C6-H43=358.38          C9-C8-C7-C6=182.16            C9-C8-C7-H44=  2.15           
C37-C8-C7-C6=358.94           C37-C8-C7-H44=178.93          C10-C9-C8-C7= 96.38           C10-C9-C8-C37=279.66          
N20-C9-C8-C7=217.54           N20-C9-C8-C37= 40.82          H45-C9-C8-C7=339.80           H45-C9-C8-C37=163.08          
C11-C10-C9-C8= 83.32          C11-C10-C9-N20=322.14         C11-C10-C9-H45=199.85         C19-C10-C9-C8=265.84          
C19-C10-C9-N20=144.66         C19-C10-C9-H45= 22.37         
           -------------------------------------------------
          |                Final Singlepoint                |
           -------------------------------------------------

          ...................................................
          :                      SETUP                      :
          :.................................................:
          :  # basis functions                 180          :
          :  # atomic orbitals                 180          :
          :  # shells                          104          :
          :  # electrons                       198          :
          :  max. iterations                   250          :
          :  Hamiltonian                  GFN2-xTB          :
          :  restarted?                      false          :
          :  GBSA solvation                   true          :
          :  PC potential                    false          :
          :  electronic temp.          300.0000000     K    :
          :  accuracy                    1.0000000          :
          :  -> integral cutoff          0.2500000E+02      :
          :  -> integral neglect         0.1000000E-07      :
          :  -> SCF convergence          0.1000000E-05 Eh   :
          :  -> wf. convergence          0.1000000E-03 e    :
          :  Broyden damping             0.4000000          :
          :  net charge                          0          :
          :  unpaired electrons                  0          :
          ...................................................

 iter      E             dE          RMSdq      gap      omega  full diag
   1   -113.2922707 -0.113292E+03  0.668E-05    0.74       0.0  T
   2   -113.2922707 -0.610498E-10  0.436E-05    0.74     282.5  T
   3   -113.2922707 -0.353708E-10  0.280E-05    0.74     440.1  T

   *** convergence criteria satisfied after 3 iterations ***

         #    Occupation            Energy/Eh            Energy/eV
      -------------------------------------------------------------
         1        2.0000           -0.8019114             -21.8211
       ...           ...                  ...                  ...
        93        2.0000           -0.4088215             -11.1246
        94        2.0000           -0.4055293             -11.0350
        95        2.0000           -0.4011690             -10.9164
        96        2.0000           -0.3988736             -10.8539
        97        2.0000           -0.3961284             -10.7792
        98        2.0000           -0.3941841             -10.7263
        99        2.0000           -0.3677193             -10.0062 (HOMO)
       100        0.0000           -0.3406635              -9.2699 (LUMO)
       101                         -0.2819514              -7.6723
       102                         -0.2618473              -7.1252
       103                         -0.2502309              -6.8091
       104                         -0.2365426              -6.4367
       ...                                ...                  ...
       180                          0.6580874              17.9075
      -------------------------------------------------------------
                  HL-Gap            0.0270558 Eh            0.7362 eV
             Fermi-level           -0.3541914 Eh           -9.6380 eV

 SCC (total)                   0 d,  0 h,  0 min,  0.037 sec
 SCC setup                      ...        0 min,  0.001 sec (  2.726%)
 Dispersion                     ...        0 min,  0.001 sec (  3.354%)
 classical contributions        ...        0 min,  0.000 sec (  0.404%)
 integral evaluation            ...        0 min,  0.005 sec ( 13.374%)
 iterations                     ...        0 min,  0.014 sec ( 37.246%)
 molecular gradient             ...        0 min,  0.015 sec ( 40.940%)
 printout                       ...        0 min,  0.001 sec (  1.880%)

         :::::::::::::::::::::::::::::::::::::::::::::::::::::
         ::                     SUMMARY                     ::
         :::::::::::::::::::::::::::::::::::::::::::::::::::::
         :: total energy            -111.859026264119 Eh    ::
         :: total w/o Gsasa/hb      -111.852780643186 Eh    ::
         :: gradient norm              0.000576362720 Eh/a0 ::
         :: HOMO-LUMO gap              0.736225587729 eV    ::
         ::.................................................::
         :: SCC energy              -113.291610168998 Eh    ::
         :: -> isotropic ES            0.249286451390 Eh    ::
         :: -> anisotropic ES          0.005848768330 Eh    ::
         :: -> anisotropic XC          0.042079385473 Eh    ::
         :: -> dispersion             -0.077633549746 Eh    ::
         :: -> Gsolv                  -0.058646095110 Eh    ::
         ::    -> Gelec               -0.052400474177 Eh    ::
         ::    -> Gsasa                0.002784844531 Eh    ::
         ::    -> Ghb                 -0.010111225162 Eh    ::
         ::    -> Gshift               0.001080759698 Eh    ::
         :: repulsion energy           1.432583904879 Eh    ::
         :: add. restraining           0.000000000000 Eh    ::
         :: total charge               0.000000000000 e     ::
         :::::::::::::::::::::::::::::::::::::::::::::::::::::

           -------------------------------------------------
          |                Property Printout                |
           -------------------------------------------------

    * Orbital Energies and Occupations

         #    Occupation            Energy/Eh            Energy/eV
      -------------------------------------------------------------
         1        2.0000           -0.8019114             -21.8211
       ...           ...                  ...                  ...
        87        2.0000           -0.4300238             -11.7015
        88        2.0000           -0.4267585             -11.6127
        89        2.0000           -0.4250824             -11.5671
        90        2.0000           -0.4156653             -11.3108
        91        2.0000           -0.4141910             -11.2707
        92        2.0000           -0.4130890             -11.2407
        93        2.0000           -0.4088215             -11.1246
        94        2.0000           -0.4055293             -11.0350
        95        2.0000           -0.4011690             -10.9164
        96        2.0000           -0.3988736             -10.8539
        97        2.0000           -0.3961284             -10.7792
        98        2.0000           -0.3941841             -10.7263
        99        2.0000           -0.3677193             -10.0062 (HOMO)
       100        0.0000           -0.3406635              -9.2699 (LUMO)
       101                         -0.2819514              -7.6723
       102                         -0.2618473              -7.1252
       103                         -0.2502309              -6.8091
       104                         -0.2365426              -6.4367
       105                         -0.2330514              -6.3417
       106                         -0.2300682              -6.2605
       107                         -0.2059145              -5.6032
       108                         -0.1906965              -5.1891
       109                         -0.1800461              -4.8993
       110                         -0.1002827              -2.7288
       ...                                ...                  ...
       180                          0.6580874              17.9075
      -------------------------------------------------------------
                  HL-Gap            0.0270558 Eh            0.7362 eV
             Fermi-level           -0.3541914 Eh           -9.6380 eV

     #   Z          covCN         q      C6AA      α(0)
     1   6 C        3.690    -0.060    21.845     6.689
     2   7 N        2.687    -0.174    24.763     7.391
     3   6 C        2.759     0.271    22.423     7.755
     4   8 O        0.858    -0.537    24.617     6.652
     5   6 C        2.976    -0.026    28.654     8.780
     6   6 C        2.920    -0.038    28.957     8.824
     7   6 C        2.923    -0.039    28.981     8.828
     8   6 C        2.984     0.015    27.677     8.630
     9   6 C        3.819     0.038    19.921     6.352
    10   6 C        2.984     0.014    27.689     8.632
    11   6 C        2.923    -0.038    28.943     8.822
    12   6 C        2.920    -0.039    28.968     8.826
    13   6 C        2.976    -0.027    28.661     8.782
    14   6 C        2.759     0.271    22.427     7.755
    15   8 O        0.858    -0.541    24.718     6.666
    16   7 N        2.687    -0.173    24.745     7.388
    17   6 C        3.689    -0.060    21.850     6.690
    18   6 C        2.925    -0.024    28.595     8.769
    19   6 C        2.922    -0.039    28.973     8.827
    20   7 N        2.734    -0.168    24.622     7.370
    21   6 C        3.772     0.003    20.552     6.460
    22   6 C        3.758    -0.018    20.948     6.525
    23   7 N        2.740    -0.054    22.276     7.010
    24   6 C        2.767     0.276    22.331     7.739
    25   8 O        0.859    -0.509    23.995     6.568
    26   6 C        3.013     0.072    26.366     8.423
    27   7 N        1.947    -0.136    24.703     7.370
    28   8 O        1.822    -0.087    15.632     5.339
    29   6 C        2.986     0.180    24.140     8.059
    30   6 C        3.754    -0.162    23.711     6.944
    31   6 C        2.959    -0.034    28.842     8.809
    32   7 N        2.756     0.562    13.355     5.428
    33   8 O        0.933    -0.446    22.591     6.374
    34   8 O        0.932    -0.432    22.297     6.333
    35   6 C        3.765    -0.016    20.906     6.517
    36   6 C        3.772     0.004    20.543     6.459
    37   6 C        2.922    -0.037    28.919     8.819
    38   6 C        2.925    -0.024    28.603     8.771
    39   1 H        0.925     0.072     2.066     2.248
    40   1 H        0.925     0.073     2.053     2.241
    41   1 H        0.925     0.078     2.000     2.211
    42   1 H        0.860     0.214     1.036     1.595
    43   1 H        0.926     0.051     2.305     2.374
    44   1 H        0.926     0.045     2.385     2.415
    45   1 H        0.922     0.018     2.765     2.601
    46   1 H        0.926     0.073     2.051     2.240
    47   1 H        0.926     0.059     2.208     2.324
    48   1 H        0.860     0.217     1.021     1.583
    49   1 H        0.925     0.075     2.029     2.227
    50   1 H        0.925     0.072     2.068     2.249
    51   1 H        0.925     0.077     2.015     2.220
    52   1 H        0.926     0.045     2.386     2.416
    53   1 H        0.926     0.042     2.425     2.435
    54   1 H        0.925     0.062     2.171     2.304
    55   1 H        0.922     0.021     2.720     2.579
    56   1 H        0.925     0.064     2.153     2.294
    57   1 H        0.924     0.099     1.790     2.092
    58   1 H        0.925     0.124     1.581     1.966
    59   1 H        0.924     0.146     1.421     1.864
    60   1 H        0.925     0.130     1.537     1.939
    61   1 H        0.924     0.091     1.871     2.139
    62   1 H        0.925     0.081     1.974     2.197
    63   1 H        0.922     0.019     2.755     2.596
    64   1 H        0.925     0.061     2.182     2.310
    65   1 H        0.926     0.071     2.079     2.255
    66   1 H        0.926     0.053     2.280     2.361

 Mol. C6AA /au·bohr⁶  :      51317.366804
 Mol. C8AA /au·bohr⁸  :    1207179.470964
 Mol. α(0) /au        :        348.647862


Wiberg/Mayer (AO) data.
largest (>0.10) Wiberg bond orders for each atom

 ---------------------------------------------------------------------------
     #   Z sym  total        # sym  WBO       # sym  WBO       # sym  WBO
 ---------------------------------------------------------------------------
     1   6 C    3.956 --     2 N    1.002    41 H    0.978    39 H    0.974
                            40 H    0.973
     2   7 N    3.474 --     3 C    1.297     1 C    1.002    42 H    0.923
                             4 O    0.198
     3   6 C    3.946 --     4 O    1.589     2 N    1.297     5 C    0.990
     4   8 O    1.913 --     3 C    1.589     2 N    0.198
     5   6 C    3.984 --     6 C    1.396    38 C    1.389     3 C    0.990
                             8 C    0.102
     6   6 C    3.990 --     7 C    1.450     5 C    1.396    43 H    0.964
                            37 C    0.107
     7   6 C    3.989 --     6 C    1.450     8 C    1.408    44 H    0.967
                            38 C    0.105
     8   6 C    3.984 --     7 C    1.408    37 C    1.397     9 C    0.975
                             5 C    0.102
     9   6 C    3.983 --    20 N    0.982    10 C    0.976     8 C    0.975
                            45 H    0.949
    10   6 C    3.984 --    19 C    1.410    11 C    1.395     9 C    0.976
                            13 C    0.102
    11   6 C    3.987 --    12 C    1.460    10 C    1.395    46 H    0.962
                            18 C    0.106
    12   6 C    3.989 --    11 C    1.460    13 C    1.388    47 H    0.963
                            19 C    0.105
    13   6 C    3.985 --    18 C    1.397    12 C    1.388    14 C    0.991
                            10 C    0.102
    14   6 C    3.946 --    15 O    1.586    16 N    1.299    13 C    0.991
    15   8 O    1.909 --    14 C    1.586    16 N    0.198
    16   7 N    3.475 --    14 C    1.299    17 C    1.002    48 H    0.922
                            15 O    0.198
    17   6 C    3.956 --    16 N    1.002    51 H    0.978    50 H    0.974
                            49 H    0.973
    18   6 C    3.989 --    19 C    1.451    13 C    1.397    52 H    0.968
                            11 C    0.106
    19   6 C    3.989 --    18 C    1.451    10 C    1.410    53 H    0.967
                            12 C    0.105
    20   7 N    3.129 --    21 C    1.006    36 C    1.003     9 C    0.982
    21   6 C    3.986 --    20 N    1.006    22 C    0.990    54 H    0.964
                            55 H    0.956
    22   6 C    3.957 --    21 C    0.990    23 N    0.980    56 H    0.965
                            57 H    0.960
    23   7 N    3.565 --    24 C    1.337    22 C    0.980    35 C    0.973
                            25 O    0.209
    24   6 C    3.960 --    25 O    1.581    23 N    1.337    26 C    0.940
    25   8 O    1.947 --    24 C    1.581    23 N    0.209
    26   6 C    3.970 --    27 N    1.616    31 C    1.202    24 C    0.940
    27   7 N    2.951 --    26 C    1.616    28 O    1.061    29 C    0.120
    28   8 O    2.492 --    29 C    1.220    27 N    1.061
    29   6 C    3.913 --    31 C    1.386    28 O    1.220    30 C    1.065
                            27 N    0.120
    30   6 C    3.961 --    29 C    1.065    60 H    0.958    58 H    0.951
                            59 H    0.913
    31   6 C    3.936 --    29 C    1.386    26 C    1.202    32 N    1.045
    32   7 N    3.913 --    34 O    1.412    33 O    1.403    31 C    1.045
    33   8 O    1.884 --    32 N    1.403    34 O    0.319
    34   8 O    1.884 --    32 N    1.412    33 O    0.319
    35   6 C    3.955 --    36 C    0.993    23 N    0.973    62 H    0.966
                            61 H    0.961
    36   6 C    3.985 --    20 N    1.003    35 C    0.993    64 H    0.965
                            63 H    0.963
    37   6 C    3.988 --    38 C    1.459     8 C    1.397    65 H    0.962
                             6 C    0.107
    38   6 C    3.988 --    37 C    1.459     5 C    1.389    66 H    0.967
                             7 C    0.105
    39   1 H    0.994 --     1 C    0.974
    40   1 H    0.993 --     1 C    0.973
    41   1 H    0.994 --     1 C    0.978
    42   1 H    0.954 --     2 N    0.923
    43   1 H    0.997 --     6 C    0.964
    44   1 H    0.997 --     7 C    0.967
    45   1 H    0.998 --     9 C    0.949
    46   1 H    0.994 --    11 C    0.962
    47   1 H    0.996 --    12 C    0.963
    48   1 H    0.953 --    16 N    0.922
    49   1 H    0.993 --    17 C    0.973
    50   1 H    0.994 --    17 C    0.974
    51   1 H    0.994 --    17 C    0.978
    52   1 H    0.998 --    18 C    0.968
    53   1 H    0.998 --    19 C    0.967
    54   1 H    0.995 --    21 C    0.964
    55   1 H    0.999 --    21 C    0.956
    56   1 H    0.996 --    22 C    0.965
    57   1 H    0.990 --    22 C    0.960
    58   1 H    0.984 --    30 C    0.951
    59   1 H    0.978 --    30 C    0.913
    60   1 H    0.982 --    30 C    0.958
    61   1 H    0.991 --    35 C    0.961
    62   1 H    0.993 --    35 C    0.966
    63   1 H    0.999 --    36 C    0.963
    64   1 H    0.996 --    36 C    0.965
    65   1 H    0.995 --    37 C    0.962
    66   1 H    0.997 --    38 C    0.967
 ---------------------------------------------------------------------------

Topologies differ in total number of bonds
Writing topology from bond orders to xtbtopo.mol

molecular dipole:
                 x           y           z       tot (Debye)
 q only:        0.145       0.744       1.504
   full:        0.361       0.520       0.745       2.485
molecular quadrupole (traceless):
                xx          xy          yy          xz          yz          zz
 q only:       26.531      41.041     -22.999      19.807      41.865      -3.533
  q+dip:       21.920      37.799     -25.283      16.516      46.959       3.363
   full:       24.037      36.751     -22.911      17.260      46.333      -1.126

           -------------------------------------------------
          |                Geometry Summary                 |
           -------------------------------------------------

      molecular mass/u    :      520.5381232
   center of mass at/Å    :        0.4736119      -0.1036782      -0.1297179
  moments of inertia/u·Å² :        0.4970722E+04   0.9779330E+04   0.1333764E+05
rotational constants/cm⁻¹ :        0.3391385E-02   0.1723802E-02   0.1263914E-02

 * 64 selected distances

     #   Z          #   Z                                           value/Å
     1   6 C        2   7 N                                       1.4443757
     2   7 N        3   6 C                                       1.3419232
     3   6 C        4   8 O                                       1.2320171
     5   6 C        6   6 C                                       1.3913500
     6   6 C        7   6 C                                       1.3830083
     7   6 C        8   6 C                                       1.3884954
    10   6 C       11   6 C                                       1.3905420
    11   6 C       12   6 C                                       1.3811616
    12   6 C       13   6 C                                       1.3927838
    14   6 C       15   8 O                                       1.2327837
    14   6 C       16   7 N                                       1.3414451
    16   7 N       17   6 C                                       1.4441762
    13   6 C       18   6 C                                       1.3911261
    10   6 C       19   6 C                                       1.3886247
    18   6 C       19   6 C                                       1.3816186
     9   6 C       20   7 N                                       1.4581797
    20   7 N       21   6 C                                       1.4522641
    21   6 C       22   6 C                                       1.5307971 (max)
    22   6 C       23   7 N                                       1.4452895
    23   7 N       24   6 C                                       1.3265526
    24   6 C       25   8 O                                       1.2295914
    26   6 C       27   7 N                                       1.2997997
    27   7 N       28   8 O                                       1.3674300
    28   8 O       29   6 C                                       1.3234355
    29   6 C       30   6 C                                       1.4657006
    26   6 C       31   6 C                                       1.4316487
    29   6 C       31   6 C                                       1.3926055
    31   6 C       32   7 N                                       1.3954609
    32   7 N       33   8 O                                       1.2241519
    32   7 N       34   8 O                                       1.2209883
    23   7 N       35   6 C                                       1.4492140
    20   7 N       36   6 C                                       1.4546046
    35   6 C       36   6 C                                       1.5277759
     8   6 C       37   6 C                                       1.3905834
     5   6 C       38   6 C                                       1.3924640
    37   6 C       38   6 C                                       1.3799943
     1   6 C       39   1 H                                       1.0898846
     1   6 C       40   1 H                                       1.0898582
     1   6 C       41   1 H                                       1.0887314
     2   7 N       42   1 H                                       1.0079767 (min)
     6   6 C       43   1 H                                       1.0792688
     7   6 C       44   1 H                                       1.0799725
     9   6 C       45   1 H                                       1.1066496
    11   6 C       46   1 H                                       1.0774782
    12   6 C       47   1 H                                       1.0789602
    16   7 N       48   1 H                                       1.0081327
    17   6 C       49   1 H                                       1.0899395
    17   6 C       50   1 H                                       1.0899754
    17   6 C       51   1 H                                       1.0888555
    18   6 C       52   1 H                                       1.0799314
    19   6 C       53   1 H                                       1.0798482
    21   6 C       54   1 H                                       1.0901570
    21   6 C       55   1 H                                       1.1060587
    22   6 C       56   1 H                                       1.0887824
    22   6 C       57   1 H                                       1.0919517
    30   6 C       58   1 H                                       1.0875805
    30   6 C       59   1 H                                       1.0908680
    30   6 C       60   1 H                                       1.0861101
    35   6 C       61   1 H                                       1.0912865
    35   6 C       62   1 H                                       1.0900606
    36   6 C       63   1 H                                       1.1050682
    36   6 C       64   1 H                                       1.0897380
    37   6 C       65   1 H                                       1.0771536
    38   6 C       66   1 H                                       1.0796586

 * 6 distinct bonds (by element types)

   Z      Z             #   av. dist./Å        max./Å        min./Å
   1 H    6 C          26     1.0882241     1.1066496     1.0771536
   6 C    6 C          17     1.4117812     1.5307971     1.3799943
   1 H    7 N           2     1.0080547     1.0081327     1.0079767
   6 C    7 N          12     1.4044404     1.4581797     1.2997997
   6 C    8 O           4     1.2544569     1.3234355     1.2295914
   7 N    8 O           3     1.2708567     1.3674300     1.2209883


optimized geometry written to: xtbopt.xyz


           -------------------------------------------------
          | TOTAL ENERGY             -111.859026264119 Eh   |
          | GRADIENT NORM               0.000576362720 Eh/α |
          | HOMO-LUMO GAP               0.736225587729 eV   |
           -------------------------------------------------
########################################################################
[WARNING] Runtime exception occurred
-2- restart_readRestart: Dimension missmatch in restart file.
-1- restart_readRestart: Number of electron missmatch in restart file.
########################################################################

------------------------------------------------------------------------
 * finished run on 2026/08/28 at 19:12:14.809     
------------------------------------------------------------------------
 total:
 * wall-time:     0 d,  0 h,  0 min,  4.543 sec
 *  cpu-time:     0 d,  0 h,  0 min, 30.906 sec
 * ratio c/w:     6.803 speedup
 SCF:
 * wall-time:     0 d,  0 h,  0 min,  0.084 sec
 *  cpu-time:     0 d,  0 h,  0 min,  0.703 sec
 * ratio c/w:     8.373 speedup
 ANC optimizer:
 * wall-time:     0 d,  0 h,  0 min,  4.415 sec
 *  cpu-time:     0 d,  0 h,  0 min, 30.094 sec
 * ratio c/w:     6.817 speedup

