      -----------------------------------------------------------      
     |                   =====================                   |     
     |                           x T B                           |     
     |                   =====================                   |     
     |                         S. Grimme                         |     
     |          Mulliken Center for Theoretical Chemistry        |     
     |                    University of Bonn                     |     
      -----------------------------------------------------------      

   * xtb version 6.7.1 (edcfbbe) compiled by 'VssAdministrator@runnervm171ch' on 2026-06-10

   xtb is free software: you can redistribute it and/or modify it under
   the terms of the GNU Lesser General Public License as published by
   the Free Software Foundation, either version 3 of the License, or
   (at your option) any later version.
   
   xtb is distributed in the hope that it will be useful,
   but WITHOUT ANY WARRANTY; without even the implied warranty of
   MERCHANTABILITY or FITNESS FOR A PARTICULAR PURPOSE.  See the
   GNU Lesser General Public License for more details.
   
   Cite this work as:
   * C. Bannwarth, E. Caldeweyher, S. Ehlert, A. Hansen, P. Pracht,
     J. Seibert, S. Spicher, S. Grimme, WIREs Comput. Mol. Sci., 2020, 11,
     e01493. DOI: 10.1002/wcms.1493
   
   for GFN2-xTB:
   * C. Bannwarth, S. Ehlert and S. Grimme., J. Chem. Theory Comput., 2019,
     15, 1652-1671. DOI: 10.1021/acs.jctc.8b01176
   for GFN1-xTB:
   * S. Grimme, C. Bannwarth, P. Shushkov, J. Chem. Theory Comput., 2017,
     13, 1989-2009. DOI: 10.1021/acs.jctc.7b00118
   for GFN0-xTB:
   * P. Pracht, E. Caldeweyher, S. Ehlert, S. Grimme, ChemRxiv, 2019, preprint.
     DOI: 10.26434/chemrxiv.8326202.v1
   for GFN-FF:
   * S. Spicher and S. Grimme, Angew. Chem. Int. Ed., 2020, 59, 15665-15673.
     DOI: 10.1002/anie.202004239
   
   for ALPB and GBSA implicit solvation:
   * S. Ehlert, M. Stahn, S. Spicher, S. Grimme, J. Chem. Theory Comput.,
     2021, 17, 4250-4261. DOI: 10.1021/acs.jctc.1c00471
   
   for ddCOSMO and CPCM-X implicit solvation:
   * M. Stahn, S. Ehlert, S. Grimme, J. Phys. Chem. A,
     2023, XX, XXXX-XXXX. DOI: 10.1021/acs.jpca.3c04382
   
   for DFT-D4:
   * E. Caldeweyher, C. Bannwarth and S. Grimme, J. Chem. Phys., 2017,
     147, 034112. DOI: 10.1063/1.4993215
   * E. Caldeweyher, S. Ehlert, A. Hansen, H. Neugebauer, S. Spicher,
     C. Bannwarth and S. Grimme, J. Chem. Phys., 2019, 150, 154122.
     DOI: 10.1063/1.5090222
   * E. Caldeweyher, J.-M. Mewes, S. Ehlert and S. Grimme, Phys. Chem. Chem. Phys.
     2020, 22, 8499-8512. DOI: 10.1039/D0CP00502A
   
   for sTDA-xTB:
   * S. Grimme and C. Bannwarth, J. Chem. Phys., 2016, 145, 054103.
     DOI: 10.1063/1.4959605
   
   in the mass-spec context:
   * V. Asgeirsson, C. Bauer and S. Grimme, Chem. Sci., 2017, 8, 4879.
     DOI: 10.1039/c7sc00601b
   * J. Koopman and S. Grimme, ACS Omega 2019, 4, 12, 15120-15133.
     DOI: 10.1021/acsomega.9b02011
   
   for metadynamics refer to:
   * S. Grimme, J. Chem. Theory Comput., 2019, 155, 2847-2862
     DOI: 10.1021/acs.jctc.9b00143
   
   for SPH calculations refer to:
   * S. Spicher and S. Grimme, J. Chem. Theory Comput., 2021, 17, 1701-1714
     DOI: 10.1021/acs.jctc.0c01306
   
   for ONIOM refer to:
   * C. Plett, A. Katbashev, S. Ehlert, S. Grimme, M. Bursch,
     Phys. Chem. Chem. Phys., 2023, 25, 17860-17868. DOI: 10.1039/D3CP02178E
   
   for DIPRO refer to:
   * J. Kohn, N. Gildemeister, S. Grimme, D. Fazzi, A. Hansen,
     J. Chem. Phys., 2023, just accepted.
   
   for PTB refer to:
   * S. Grimme, M. Mueller, A. Hansen, J. Chem. Phys., 2023, 158, 124111.
     DOI: 10.1063/5.0137838
   
   with help from (in alphabetical order)
   P. Atkinson, C. Bannwarth, F. Bohle, G. Brandenburg, E. Caldeweyher
   M. Checinski, S. Dohm, S. Ehlert, S. Ehrlich, I. Gerasimov, C. Hölzer
   A. Katbashev, J. Kohn, J. Koopman, C. Lavigne, S. Lehtola, F. März, M. Müller,
   F. Musil, H. Neugebauer, J. Pisarek, C. Plett, P. Pracht, F. Pultar,
   J. Seibert, P. Shushkov, S. Spicher, M. Stahn, M. Steiner, T. Strunk,
   J. Stückrath, T. Rose, and J. Unsleber
   
 * started run on 2026/08/28 at 19:12:08.263     
   ID    Z sym.   atoms
    1    6 C      1, 2, 5, 6, 9, 10, 12-16, 18-23, 25-29
    2    8 O      3, 7, 31, 32
    3    7 N      4, 8, 11, 30
    4   17 Cl     17, 24
    5    1 H      33-52

           -------------------------------------------------
          |                Calculation Setup                |
           -------------------------------------------------

          program call               : C:\Users\Christian\Miniconda3\Library\bin\xtb.exe ML210.xyz --gfn 2 --opt --alpb water --wbo
          coordinate file            : ML210.xyz
          omp threads                :                    12


           -------------------------------------------------
          |                 G F N 2 - x T B                 |
           -------------------------------------------------

        Reference                      10.1021/acs.jctc.8b01176
      * Hamiltonian:
        H0-scaling (s, p, d)           1.850000    2.230000    2.230000
        zeta-weighting                 0.500000
      * Dispersion:
        s8                             2.700000
        a1                             0.520000
        a2                             5.000000
        s9                             5.000000
      * Repulsion:
        kExp                           1.500000    1.000000
        rExp                           1.000000
      * Coulomb:
        alpha                          2.000000
        third order                    shell-resolved
        anisotropic                    true
        a3                             3.000000
        a5                             4.000000
        cn-shift                       1.200000
        cn-exp                         4.000000
        max-rad                        5.000000

      * Solvation model:               ALPB
        Solvent                        water
        Parameter file                 internal GFN2-xTB/ALPB
        Dielectric constant                8.0200E+01
        Reference state                gsolv [1 M gas/solution]
        Free energy shift                  1.0808E-03 Eh       6.7819E-01 kcal/mol
        Temperature                        2.9815E+02 K
        Density                            1.0000E+00 kg/L
        Solvent mass                       1.8000E+01 g/mol
        Interaction kernel             P16
        Born radius scaling (c1)           1.4744E+00
        Born radii integrator          GBOBC
        Born offset                        0.0000E+00 a0       0.0000E+00 AA
        H-bond correction              true
        Ion screening                  false
        Surface tension                    1.0000E-05 Eh       1.5569E+01 dyn/cm
        Grid points                               230 per atom

          ...................................................
          :                      SETUP                      :
          :.................................................:
          :  # basis functions                 160          :
          :  # atomic orbitals                 158          :
          :  # shells                           86          :
          :  # electrons                       166          :
          :  max. iterations                   250          :
          :  Hamiltonian                  GFN2-xTB          :
          :  restarted?                      false          :
          :  GBSA solvation                   true          :
          :  PC potential                    false          :
          :  electronic temp.          300.0000000     K    :
          :  accuracy                    1.0000000          :
          :  -> integral cutoff          0.2500000E+02      :
          :  -> integral neglect         0.1000000E-07      :
          :  -> SCF convergence          0.1000000E-05 Eh   :
          :  -> wf. convergence          0.1000000E-03 e    :
          :  Broyden damping             0.4000000          :
          :  net charge                          0          :
          :  unpaired electrons                  0          :
          ...................................................

 iter      E             dE          RMSdq      gap      omega  full diag
   1    -95.1229746 -0.951230E+02  0.475E+00    1.81       0.0  T
   2    -95.3138273 -0.190853E+00  0.258E+00    1.09       1.0  T
   3    -95.3183438 -0.451645E-02  0.124E+00    0.69       1.0  T
   4    -95.3283779 -0.100342E-01  0.517E-01    0.46       1.0  T
   5    -95.3341058 -0.572789E-02  0.107E-01    0.37       1.0  T
   6    -95.3342755 -0.169693E-03  0.583E-02    0.38       1.0  T
   7    -95.3343051 -0.295956E-04  0.334E-02    0.39       1.0  T
   8    -95.3343200 -0.148609E-04  0.187E-02    0.40       1.0  T
   9    -95.3343246 -0.457291E-05  0.140E-02    0.40       1.0  T
  10    -95.3343282 -0.364642E-05  0.848E-03    0.40       1.6  T
  11    -95.3343300 -0.181209E-05  0.415E-03    0.40       3.3  T
  12    -95.3343303 -0.307040E-06  0.225E-03    0.39       6.2  T
  13    -95.3343304 -0.906365E-07  0.805E-04    0.39      17.2  T
  14    -95.3343304 -0.703508E-08  0.419E-04    0.39      33.1  T

   *** convergence criteria satisfied after 14 iterations ***

         #    Occupation            Energy/Eh            Energy/eV
      -------------------------------------------------------------
         1        2.0000           -1.0635026             -28.9394
       ...           ...                  ...                  ...
        77        2.0000           -0.4181919             -11.3796
        78        2.0000           -0.4124237             -11.2226
        79        2.0000           -0.4114732             -11.1968
        80        2.0000           -0.4018739             -10.9355
        81        2.0000           -0.3964534             -10.7880
        82        2.0000           -0.3900456             -10.6137
        83        1.9990           -0.3600907              -9.7986 (HOMO)
        84        0.0010           -0.3455832              -9.4038 (LUMO)
        85                         -0.3056996              -8.3185
        86                         -0.2534508              -6.8967
        87                         -0.2438771              -6.6362
        88                         -0.2364996              -6.4355
       ...                                ...                  ...
       158                          0.6072305              16.5236
      -------------------------------------------------------------
                  HL-Gap            0.0145075 Eh            0.3948 eV
             Fermi-level           -0.3528370 Eh           -9.6012 eV

 SCC (total)                   0 d,  0 h,  0 min,  0.067 sec
 SCC setup                      ...        0 min,  0.001 sec (  1.981%)
 Dispersion                     ...        0 min,  0.002 sec (  2.355%)
 classical contributions        ...        0 min,  0.000 sec (  0.236%)
 integral evaluation            ...        0 min,  0.004 sec (  5.369%)
 iterations                     ...        0 min,  0.049 sec ( 72.462%)
 molecular gradient             ...        0 min,  0.011 sec ( 16.660%)
 printout                       ...        0 min,  0.001 sec (  0.894%)

         :::::::::::::::::::::::::::::::::::::::::::::::::::::
         ::                     SUMMARY                     ::
         :::::::::::::::::::::::::::::::::::::::::::::::::::::
         :: total energy             -94.277933978679 Eh    ::
         :: total w/o Gsasa/hb       -94.275519055072 Eh    ::
         :: gradient norm              0.118751200138 Eh/a0 ::
         :: HOMO-LUMO gap              0.394769011411 eV    ::
         ::.................................................::
         :: SCC energy               -95.334025704213 Eh    ::
         :: -> isotropic ES            0.140361174512 Eh    ::
         :: -> anisotropic ES          0.001836784322 Eh    ::
         :: -> anisotropic XC          0.039214999705 Eh    ::
         :: -> dispersion             -0.062714850967 Eh    ::
         :: -> Gsolv                  -0.032282288763 Eh    ::
         ::    -> Gelec               -0.029867365157 Eh    ::
         ::    -> Gsasa                0.001835075896 Eh    ::
         ::    -> Ghb                 -0.005330759201 Eh    ::
         ::    -> Gshift               0.001080759698 Eh    ::
         :: repulsion energy           1.056091725535 Eh    ::
         :: add. restraining           0.000000000000 Eh    ::
         :: total charge               0.000000000000 e     ::
         :::::::::::::::::::::::::::::::::::::::::::::::::::::

      ----------------------------------------------------------- 
     |                   =====================                   |
     |                        A N C O P T                        |
     |                   =====================                   |
     |               Approximate Normal Coordinate               |
     |                Rational Function Optimizer                |
      ----------------------------------------------------------- 
      ----------------------------------------------------------- 
     |                   =====================                   |
     |                        A N C O P T                        |
     |                   =====================                   |
     |               Approximate Normal Coordinate               |
     |                Rational Function Optimizer                |
      ----------------------------------------------------------- 

          ...................................................
          :                      SETUP                      :
          :.................................................:
          :   optimization level            normal          :
          :   max. optcycles                   200          :
          :   ANC micro-cycles                  20          :
          :   degrees of freedom               150          :
          :.................................................:
          :   RF solver                   davidson          :
          :   write xtbopt.log                true          :
          :   linear?                        false          :
          :   energy convergence         0.5000000E-05 Eh   :
          :   grad. convergence          0.1000000E-02 Eh/α :
          :   maxmium RF displ.          1.0000000          :
          :   Hlow (freq-cutoff)         0.1000000E-01      :
          :   Hmax (freq-cutoff)         5.0000000          :
          :   S6 in model hess.         20.0000000          :
          ...................................................

generating ANC from exact Hessian ...
Using Lindh-Hessian (1995)
 Shifting diagonal of input Hessian by    9.8308612161884922E-003
 Lowest  eigenvalues of input Hessian
    0.000000    0.000000    0.000000    0.000000    0.000000    0.000000
    0.010000    0.010117    0.010262    0.010404    0.010875    0.010967
    0.011113    0.011142    0.011473    0.013940    0.014154    0.015135
 Highest eigenvalues
    1.954050    1.962485    1.966269    2.177018    2.250036    2.523007


........................................................................
.............................. CYCLE    1 ..............................
........................................................................

 iter      E             dE          RMSdq      gap      omega  full diag
   1    -95.3343304 -0.953343E+02  0.178E-04    0.39       0.0  T
   2    -95.3343304 -0.344073E-09  0.119E-04    0.39     116.8  T
   3    -95.3343304 -0.966622E-10  0.881E-05    0.39     157.4  T
     SCC iter.                  ...        0 min,  0.012 sec
     gradient                   ...        0 min,  0.010 sec
 * total energy  :   -94.2779340 Eh     change       -0.2566551E-08 Eh
   gradient norm :     0.1187591 Eh/α   predicted     0.0000000E+00 (-100.00%)
   displ. norm   :     0.3505635 α      lambda       -0.1976692E-01
   maximum displ.:     0.1316182 α      in ANC's #50, #15, #11, ...

........................................................................
.............................. CYCLE    2 ..............................
........................................................................

 iter      E             dE          RMSdq      gap      omega  full diag
   1    -95.3941669 -0.953942E+02  0.197E-01    0.63       0.0  T
   2    -95.3945676 -0.400732E-03  0.121E-01    0.68       1.0  T
   3    -95.3946017 -0.340938E-04  0.615E-02    0.68       1.0  T
   4    -95.3946149 -0.132177E-04  0.192E-02    0.69       1.0  T
   5    -95.3946249 -0.100074E-04  0.798E-03    0.69       1.7  T
   6    -95.3946257 -0.747090E-06  0.535E-03    0.69       2.6  T
   7    -95.3946260 -0.288717E-06  0.365E-03    0.68       3.8  T
   8    -95.3946262 -0.243254E-06  0.247E-03    0.68       5.6  T
   9    -95.3946264 -0.125477E-06  0.148E-03    0.68       9.4  T
  10    -95.3946264 -0.567637E-07  0.489E-04    0.68      28.3  T
  11    -95.3946264 -0.342595E-08  0.231E-04    0.68      60.0  T
     SCC iter.                  ...        0 min,  0.037 sec
     gradient                   ...        0 min,  0.010 sec
 * total energy  :   -94.2918254 Eh     change       -0.1389144E-01 Eh
   gradient norm :     0.0527816 Eh/α   predicted    -0.1111045E-01 ( -20.02%)
   displ. norm   :     0.4128789 α      lambda       -0.8096293E-02
   maximum displ.:     0.1562675 α      in ANC's #11, #15, #19, ...

........................................................................
.............................. CYCLE    3 ..............................
........................................................................

 iter      E             dE          RMSdq      gap      omega  full diag
   1    -95.4307357 -0.954307E+02  0.159E-01    0.76       0.0  T
   2    -95.4311306 -0.394929E-03  0.970E-02    0.82       1.0  T
   3    -95.4311755 -0.448406E-04  0.525E-02    0.82       1.0  T
   4    -95.4311765 -0.106501E-05  0.198E-02    0.83       1.0  T
   5    -95.4311870 -0.105016E-04  0.746E-03    0.83       1.9  T
   6    -95.4311876 -0.548624E-06  0.539E-03    0.83       2.6  T
   7    -95.4311879 -0.329644E-06  0.385E-03    0.83       3.6  T
   8    -95.4311882 -0.316823E-06  0.233E-03    0.83       5.9  T
   9    -95.4311883 -0.114385E-06  0.136E-03    0.82      10.2  T
  10    -95.4311884 -0.428763E-07  0.431E-04    0.82      32.2  T
  11    -95.4311884 -0.282292E-08  0.205E-04    0.82      67.7  T
     SCC iter.                  ...        0 min,  0.043 sec
     gradient                   ...        0 min,  0.010 sec
 * total energy  :   -94.2964399 Eh     change       -0.4614504E-02 Eh
   gradient norm :     0.0218364 Eh/α   predicted    -0.4738232E-02 (   2.68%)
   displ. norm   :     0.4036110 α      lambda       -0.3474085E-02
   maximum displ.:     0.1838056 α      in ANC's #11, #15, #10, ...

........................................................................
.............................. CYCLE    4 ..............................
........................................................................

 iter      E             dE          RMSdq      gap      omega  full diag
   1    -95.4385069 -0.954385E+02  0.120E-01    0.75       0.0  T
   2    -95.4386029 -0.960184E-04  0.690E-02    0.80       1.0  T
   3    -95.4386055 -0.260993E-05  0.325E-02    0.81       1.0  T
   4    -95.4386136 -0.809238E-05  0.104E-02    0.81       1.3  T
   5    -95.4386168 -0.322709E-05  0.414E-03    0.81       3.3  T
   6    -95.4386169 -0.132635E-06  0.259E-03    0.81       5.4  T
   7    -95.4386170 -0.686617E-07  0.174E-03    0.81       8.0  T
   8    -95.4386171 -0.520272E-07  0.117E-03    0.81      11.8  T
   9    -95.4386171 -0.255097E-07  0.743E-04    0.81      18.7  T
  10    -95.4386171 -0.144930E-07  0.278E-04    0.81      49.9  T
     SCC iter.                  ...        0 min,  0.032 sec
     gradient                   ...        0 min,  0.009 sec
 * total energy  :   -94.2984132 Eh     change       -0.1973233E-02 Eh
   gradient norm :     0.0255077 Eh/α   predicted    -0.2020051E-02 (   2.37%)
   displ. norm   :     0.4145545 α      lambda       -0.2506538E-02
   maximum displ.:     0.2006538 α      in ANC's #11, #10, #9, ...

........................................................................
.............................. CYCLE    5 ..............................
........................................................................

 iter      E             dE          RMSdq      gap      omega  full diag
   1    -95.4362515 -0.954363E+02  0.994E-02    0.74       0.0  T
   2    -95.4362798 -0.282940E-04  0.578E-02    0.76       1.0  T
   3    -95.4362775  0.226901E-05  0.191E-02    0.77       1.0  T
   4    -95.4362847 -0.715521E-05  0.635E-03    0.78       2.2  T
   5    -95.4362856 -0.906141E-06  0.308E-03    0.77       4.5  T
   6    -95.4362857 -0.537651E-07  0.143E-03    0.77       9.7  T
   7    -95.4362857 -0.192622E-07  0.675E-04    0.77      20.6  T
   8    -95.4362857 -0.670052E-08  0.455E-04    0.77      30.4  T
     SCC iter.                  ...        0 min,  0.033 sec
     gradient                   ...        0 min,  0.010 sec
 * total energy  :   -94.3003519 Eh     change       -0.1938712E-02 Eh
   gradient norm :     0.0181173 Eh/α   predicted    -0.1468654E-02 ( -24.25%)
   displ. norm   :     0.5238374 α      lambda       -0.2200488E-02
   maximum displ.:     0.2501696 α      in ANC's #11, #10, #9, ...

........................................................................
.............................. CYCLE    6 ..............................
........................................................................

 iter      E             dE          RMSdq      gap      omega  full diag
   1    -95.4331942 -0.954332E+02  0.122E-01    0.70       0.0  T
   2    -95.4332301 -0.359093E-04  0.716E-02    0.71       1.0  T
   3    -95.4332281  0.199249E-05  0.222E-02    0.72       1.0  T
   4    -95.4332369 -0.880524E-05  0.585E-03    0.72       2.4  T
   5    -95.4332374 -0.503294E-06  0.319E-03    0.72       4.3  T
   6    -95.4332375 -0.406686E-07  0.107E-03    0.72      12.9  T
   7    -95.4332375 -0.167845E-07  0.432E-04    0.72      32.1  T
   8    -95.4332375 -0.214780E-08  0.260E-04    0.72      53.3  T
     SCC iter.                  ...        0 min,  0.026 sec
     gradient                   ...        0 min,  0.011 sec
 * total energy  :   -94.3019603 Eh     change       -0.1608386E-02 Eh
   gradient norm :     0.0194593 Eh/α   predicted    -0.1402169E-02 ( -12.82%)
   displ. norm   :     0.4904755 α      lambda       -0.1543850E-02
   maximum displ.:     0.2414102 α      in ANC's #10, #11, #9, ...

........................................................................
.............................. CYCLE    7 ..............................
........................................................................

 iter      E             dE          RMSdq      gap      omega  full diag
   1    -95.4335460 -0.954335E+02  0.108E-01    0.73       0.0  T
   2    -95.4335624 -0.164110E-04  0.633E-02    0.72       1.0  T
   3    -95.4335579  0.449641E-05  0.179E-02    0.73       1.0  T
   4    -95.4335662 -0.833505E-05  0.430E-03    0.73       3.2  T
   5    -95.4335665 -0.266600E-06  0.214E-03    0.73       6.5  T
   6    -95.4335665 -0.207630E-07  0.953E-04    0.73      14.5  T
   7    -95.4335665 -0.660769E-08  0.395E-04    0.73      35.1  T
     SCC iter.                  ...        0 min,  0.024 sec
     gradient                   ...        0 min,  0.012 sec
 * total energy  :   -94.3031863 Eh     change       -0.1226092E-02 Eh
   gradient norm :     0.0184100 Eh/α   predicted    -0.9576278E-03 ( -21.90%)
   displ. norm   :     0.5263172 α      lambda       -0.1536354E-02
   maximum displ.:     0.2692872 α      in ANC's #10, #11, #17, ...

........................................................................
.............................. CYCLE    8 ..............................
........................................................................

 iter      E             dE          RMSdq      gap      omega  full diag
   1    -95.4383934 -0.954384E+02  0.116E-01    0.72       0.0  T
   2    -95.4384131 -0.196547E-04  0.682E-02    0.72       1.0  T
   3    -95.4384061  0.696977E-05  0.207E-02    0.72       1.0  T
   4    -95.4384184 -0.123619E-04  0.469E-03    0.72       3.0  T
   5    -95.4384187 -0.264041E-06  0.251E-03    0.72       5.5  T
   6    -95.4384187 -0.283690E-07  0.107E-03    0.72      12.9  T
   7    -95.4384187 -0.138235E-07  0.526E-04    0.72      26.4  T
   8    -95.4384188 -0.361378E-08  0.326E-04    0.72      42.5  T
     SCC iter.                  ...        0 min,  0.027 sec
     gradient                   ...        0 min,  0.011 sec
 * total energy  :   -94.3043662 Eh     change       -0.1179840E-02 Eh
   gradient norm :     0.0134410 Eh/α   predicted    -0.9809701E-03 ( -16.86%)
   displ. norm   :     0.5165335 α      lambda       -0.1135641E-02
   maximum displ.:     0.2655787 α      in ANC's #10, #11, #17, ...

........................................................................
.............................. CYCLE    9 ..............................
........................................................................

 iter      E             dE          RMSdq      gap      omega  full diag
   1    -95.4418465 -0.954418E+02  0.126E-01    0.74       0.0  T
   2    -95.4418859 -0.394494E-04  0.724E-02    0.74       1.0  T
   3    -95.4418840  0.196281E-05  0.239E-02    0.73       1.0  T
   4    -95.4418914 -0.745295E-05  0.511E-03    0.73       2.7  T
   5    -95.4418920 -0.557289E-06  0.252E-03    0.73       5.5  T
   6    -95.4418920 -0.354504E-07  0.108E-03    0.73      12.8  T
   7    -95.4418920 -0.959712E-08  0.470E-04    0.73      29.5  T
   8    -95.4418920 -0.275371E-08  0.263E-04    0.73      52.7  T
     SCC iter.                  ...        0 min,  0.026 sec
     gradient                   ...        0 min,  0.010 sec
 * total energy  :   -94.3050885 Eh     change       -0.7223402E-03 Eh
   gradient norm :     0.0146213 Eh/α   predicted    -0.7193205E-03 (  -0.42%)
   displ. norm   :     0.4071232 α      lambda       -0.8788432E-03
   maximum displ.:     0.2182562 α      in ANC's #10, #11, #16, ...

........................................................................
.............................. CYCLE   10 ..............................
........................................................................

 iter      E             dE          RMSdq      gap      omega  full diag
   1    -95.4484462 -0.954484E+02  0.993E-02    0.71       0.0  T
   2    -95.4485091 -0.628896E-04  0.581E-02    0.70       1.0  T
   3    -95.4485126 -0.351705E-05  0.257E-02    0.70       1.0  T
   4    -95.4485181 -0.544754E-05  0.478E-03    0.70       2.9  T
   5    -95.4485183 -0.255308E-06  0.268E-03    0.70       5.2  T
   6    -95.4485184 -0.550337E-07  0.148E-03    0.70       9.3  T
   7    -95.4485184 -0.284012E-07  0.897E-04    0.70      15.5  T
   8    -95.4485184 -0.113519E-07  0.581E-04    0.70      23.9  T
     SCC iter.                  ...        0 min,  0.034 sec
     gradient                   ...        0 min,  0.010 sec
 * total energy  :   -94.3054185 Eh     change       -0.3299721E-03 Eh
   gradient norm :     0.0140240 Eh/α   predicted    -0.5122561E-03 (  55.24%)
   displ. norm   :     0.2723095 α      lambda       -0.3877796E-03
   maximum displ.:     0.1357015 α      in ANC's #10, #11, #7, ...

........................................................................
.............................. CYCLE   11 ..............................
........................................................................

 iter      E             dE          RMSdq      gap      omega  full diag
   1    -95.4426194 -0.954426E+02  0.756E-02    0.63       0.0  T
   2    -95.4426521 -0.326924E-04  0.436E-02    0.65       1.0  T
   3    -95.4426530 -0.923845E-06  0.191E-02    0.65       1.0  T
   4    -95.4426564 -0.334425E-05  0.410E-03    0.66       3.4  T
   5    -95.4426567 -0.354691E-06  0.208E-03    0.66       6.7  T
   6    -95.4426568 -0.506905E-07  0.111E-03    0.66      12.5  T
   7    -95.4426568 -0.946538E-08  0.438E-04    0.66      31.7  T
   8    -95.4426568 -0.288611E-08  0.168E-04    0.66      82.7  T
     SCC iter.                  ...        0 min,  0.027 sec
     gradient                   ...        0 min,  0.010 sec
 * total energy  :   -94.3055447 Eh     change       -0.1261521E-03 Eh
   gradient norm :     0.0128226 Eh/α   predicted    -0.2082729E-03 (  65.10%)
   displ. norm   :     0.1038072 α      lambda       -0.3874883E-03
   maximum displ.:     0.0569871 α      in ANC's #7, #23, #22, ...

........................................................................
.............................. CYCLE   12 ..............................
........................................................................

 iter      E             dE          RMSdq      gap      omega  full diag
   1    -95.4463728 -0.954464E+02  0.520E-02    0.76       0.0  T
   2    -95.4464241 -0.513913E-04  0.270E-02    0.75       1.0  T
   3    -95.4464274 -0.323720E-05  0.156E-02    0.74       1.0  T
   4    -95.4464278 -0.462623E-06  0.632E-03    0.74       2.2  T
   5    -95.4464283 -0.445421E-06  0.218E-03    0.74       6.4  T
   6    -95.4464284 -0.648992E-07  0.119E-03    0.74      11.7  T
   7    -95.4464284 -0.855485E-08  0.520E-04    0.74      26.7  T
   8    -95.4464284 -0.298007E-08  0.328E-04    0.74      42.3  T
     SCC iter.                  ...        0 min,  0.027 sec
     gradient                   ...        0 min,  0.011 sec
 * total energy  :   -94.3055785 Eh     change       -0.3385608E-04 Eh
   gradient norm :     0.0142778 Eh/α   predicted    -0.1958327E-03 ( 478.43%)
   displ. norm   :     0.0546347 α      lambda       -0.2495604E-03
   maximum displ.:     0.0240286 α      in ANC's #22, #23, #6, ...

........................................................................
.............................. CYCLE   13 ..............................
........................................................................

 iter      E             dE          RMSdq      gap      omega  full diag
   1    -95.4471197 -0.954471E+02  0.290E-02    0.69       0.0  T
   2    -95.4471381 -0.184168E-04  0.150E-02    0.69       1.0  T
   3    -95.4471396 -0.148315E-05  0.862E-03    0.70       1.6  T
   4    -95.4471398 -0.191762E-06  0.305E-03    0.70       4.5  T
   5    -95.4471399 -0.788610E-07  0.108E-03    0.70      12.8  T
   6    -95.4471399 -0.127917E-07  0.563E-04    0.70      24.6  T
   7    -95.4471399 -0.170699E-08  0.267E-04    0.70      52.0  T
     SCC iter.                  ...        0 min,  0.026 sec
     gradient                   ...        0 min,  0.011 sec
 * total energy  :   -94.3057235 Eh     change       -0.1449469E-03 Eh
   gradient norm :     0.0029774 Eh/α   predicted    -0.1251548E-03 ( -13.65%)
   displ. norm   :     0.1242203 α      lambda       -0.6614209E-04
   maximum displ.:     0.0699036 α      in ANC's #7, #10, #11, ...

........................................................................
.............................. CYCLE   14 ..............................
........................................................................

 iter      E             dE          RMSdq      gap      omega  full diag
   1    -95.4464900 -0.954465E+02  0.325E-02    0.68       0.0  T
   2    -95.4464926 -0.259336E-05  0.188E-02    0.68       1.0  T
   3    -95.4464927 -0.109964E-06  0.494E-03    0.69       2.8  T
   4    -95.4464929 -0.214046E-06  0.118E-03    0.69      11.8  T
   5    -95.4464929 -0.129996E-07  0.686E-04    0.69      20.2  T
   6    -95.4464929 -0.380847E-08  0.316E-04    0.69      43.9  T
     SCC iter.                  ...        0 min,  0.020 sec
     gradient                   ...        0 min,  0.011 sec
 * total energy  :   -94.3057738 Eh     change       -0.5033133E-04 Eh
   gradient norm :     0.0029810 Eh/α   predicted    -0.3358248E-04 ( -33.28%)
   displ. norm   :     0.1900694 α      lambda       -0.9544472E-04
   maximum displ.:     0.1201804 α      in ANC's #7, #6, #9, ...

........................................................................
.............................. CYCLE   15 ..............................
........................................................................

 iter      E             dE          RMSdq      gap      omega  full diag
   1    -95.4471705 -0.954472E+02  0.474E-02    0.66       0.0  T
   2    -95.4471720 -0.146762E-05  0.278E-02    0.67       1.0  T
   3    -95.4471723 -0.314072E-06  0.283E-03    0.67       4.9  T
   4    -95.4471724 -0.114618E-06  0.142E-03    0.67       9.8  T
   5    -95.4471724 -0.112458E-07  0.748E-04    0.67      18.5  T
   6    -95.4471724 -0.503368E-08  0.349E-04    0.67      39.7  T
     SCC iter.                  ...        0 min,  0.022 sec
     gradient                   ...        0 min,  0.011 sec
 * total energy  :   -94.3058428 Eh     change       -0.6899437E-04 Eh
   gradient norm :     0.0048749 Eh/α   predicted    -0.4945147E-04 ( -28.33%)
   displ. norm   :     0.2344903 α      lambda       -0.1000755E-03
   maximum displ.:     0.1464170 α      in ANC's #7, #6, #9, ...

........................................................................
.............................. CYCLE   16 ..............................
........................................................................

 iter      E             dE          RMSdq      gap      omega  full diag
   1    -95.4467722 -0.954468E+02  0.562E-02    0.68       0.0  T
   2    -95.4467754 -0.321773E-05  0.327E-02    0.68       1.0  T
   3    -95.4467755 -0.108184E-06  0.497E-03    0.68       2.8  T
   4    -95.4467759 -0.412581E-06  0.165E-03    0.68       8.4  T
   5    -95.4467760 -0.257405E-07  0.948E-04    0.68      14.6  T
   6    -95.4467760 -0.876362E-08  0.390E-04    0.68      35.5  T
     SCC iter.                  ...        0 min,  0.021 sec
     gradient                   ...        0 min,  0.012 sec
 * total energy  :   -94.3059093 Eh     change       -0.6647109E-04 Eh
   gradient norm :     0.0043142 Eh/α   predicted    -0.5279035E-04 ( -20.58%)
   displ. norm   :     0.2185005 α      lambda       -0.8185258E-04
   maximum displ.:     0.1301190 α      in ANC's #7, #9, #6, ...

........................................................................
.............................. CYCLE   17 ..............................
........................................................................

 iter      E             dE          RMSdq      gap      omega  full diag
   1    -95.4471102 -0.954471E+02  0.463E-02    0.69       0.0  T
   2    -95.4471137 -0.350967E-05  0.269E-02    0.69       1.0  T
   3    -95.4471137  0.151065E-07  0.567E-03    0.68       2.4  T
   4    -95.4471141 -0.403222E-06  0.159E-03    0.68       8.7  T
   5    -95.4471141 -0.477573E-07  0.856E-04    0.68      16.2  T
   6    -95.4471141 -0.556014E-08  0.320E-04    0.68      43.3  T
     SCC iter.                  ...        0 min,  0.020 sec
     gradient                   ...        0 min,  0.010 sec
 * total energy  :   -94.3059660 Eh     change       -0.5675863E-04 Eh
   gradient norm :     0.0031723 Eh/α   predicted    -0.4288123E-04 ( -24.45%)
   displ. norm   :     0.2583981 α      lambda       -0.7342596E-04
   maximum displ.:     0.1370287 α      in ANC's #7, #9, #6, ...

........................................................................
.............................. CYCLE   18 ..............................
........................................................................

 iter      E             dE          RMSdq      gap      omega  full diag
   1    -95.4469317 -0.954469E+02  0.504E-02    0.69       0.0  T
   2    -95.4469339 -0.219477E-05  0.295E-02    0.69       1.0  T
   3    -95.4469336  0.324763E-06  0.565E-03    0.69       2.5  T
   4    -95.4469345 -0.896937E-06  0.196E-03    0.69       7.1  T
   5    -95.4469346 -0.540353E-07  0.108E-03    0.69      12.9  T
   6    -95.4469346 -0.598382E-08  0.455E-04    0.69      30.5  T
   7    -95.4469346 -0.335663E-08  0.318E-04    0.69      43.6  T
     SCC iter.                  ...        0 min,  0.031 sec
     gradient                   ...        0 min,  0.012 sec
 * total energy  :   -94.3060165 Eh     change       -0.5048088E-04 Eh
   gradient norm :     0.0034770 Eh/α   predicted    -0.3916643E-04 ( -22.41%)
   displ. norm   :     0.2356750 α      lambda       -0.7423979E-04
   maximum displ.:     0.1110128 α      in ANC's #9, #2, #7, ...

........................................................................
.............................. CYCLE   19 ..............................
........................................................................

 iter      E             dE          RMSdq      gap      omega  full diag
   1    -95.4475982 -0.954476E+02  0.408E-02    0.71       0.0  T
   2    -95.4476013 -0.304998E-05  0.235E-02    0.70       1.0  T
   3    -95.4476009  0.337027E-06  0.643E-03    0.70       2.2  T
   4    -95.4476017 -0.733084E-06  0.197E-03    0.70       7.0  T
   5    -95.4476018 -0.999719E-07  0.931E-04    0.70      14.9  T
   6    -95.4476018 -0.509387E-08  0.511E-04    0.70      27.1  T
     SCC iter.                  ...        0 min,  0.019 sec
     gradient                   ...        0 min,  0.010 sec
 * total energy  :   -94.3060634 Eh     change       -0.4691448E-04 Eh
   gradient norm :     0.0029467 Eh/α   predicted    -0.3918258E-04 ( -16.48%)
   displ. norm   :     0.1466002 α      lambda       -0.4684992E-04
   maximum displ.:     0.0786316 α      in ANC's #2, #8, #9, ...

........................................................................
.............................. CYCLE   20 ..............................
........................................................................

 iter      E             dE          RMSdq      gap      omega  full diag
   1    -95.4471530 -0.954472E+02  0.247E-02    0.70       0.0  T
   2    -95.4471543 -0.130442E-05  0.143E-02    0.70       1.0  T
   3    -95.4471542  0.168267E-06  0.438E-03    0.70       3.2  T
   4    -95.4471546 -0.416092E-06  0.128E-03    0.70      10.8  T
   5    -95.4471546 -0.305796E-07  0.636E-04    0.70      21.8  T
   6    -95.4471546 -0.201462E-08  0.297E-04    0.70      46.7  T
     SCC iter.                  ...        0 min,  0.025 sec
     gradient                   ...        0 min,  0.011 sec
 * total energy  :   -94.3060949 Eh     change       -0.3148427E-04 Eh
   gradient norm :     0.0023355 Eh/α   predicted    -0.2392959E-04 ( -24.00%)
   displ. norm   :     0.1095364 α      lambda        0.3371296E-05
   maximum displ.:     0.0585076 α      in ANC's #2, #8, #9, ...
 * RMSD in coord.:     0.6020578 α      energy gain  -0.2816091E-01 Eh

generating ANC from exact Hessian ...
Using Lindh-Hessian (1995)
 Shifting diagonal of input Hessian by    9.8027140478709612E-003
 Lowest  eigenvalues of input Hessian
    0.000000    0.000000    0.000000    0.000000    0.000000    0.000000
    0.010000    0.010069    0.010295    0.010460    0.010902    0.011076
    0.011344    0.011403    0.011706    0.013913    0.014389    0.016113
 Highest eigenvalues
    2.036485    2.040583    2.057674    2.308193    2.349383    2.635263


........................................................................
.............................. CYCLE   21 ..............................
........................................................................

 iter      E             dE          RMSdq      gap      omega  full diag
   1    -95.4465920 -0.954466E+02  0.188E-02    0.70       0.0  T
   2    -95.4465932 -0.117540E-05  0.108E-02    0.70       1.3  T
   3    -95.4465932  0.278160E-07  0.378E-03    0.70       3.7  T
   4    -95.4465934 -0.181054E-06  0.113E-03    0.70      12.3  T
   5    -95.4465934 -0.292416E-07  0.513E-04    0.70      27.0  T
   6    -95.4465934 -0.129575E-08  0.239E-04    0.70      58.0  T
     SCC iter.                  ...        0 min,  0.025 sec
     gradient                   ...        0 min,  0.011 sec
 * total energy  :   -94.3060944 Eh     change        0.4769835E-06 Eh
   gradient norm :     0.0044303 Eh/α   predicted     0.0000000E+00 (-100.00%)
   displ. norm   :     0.0335830 α      lambda       -0.2156562E-04
   maximum displ.:     0.0149497 α      in ANC's #2, #8, #7, ...

........................................................................
.............................. CYCLE   22 ..............................
........................................................................

 iter      E             dE          RMSdq      gap      omega  full diag
   1    -95.4468709 -0.954469E+02  0.118E-02    0.70       0.0  T
   2    -95.4468717 -0.830051E-06  0.674E-03    0.70       2.1  T
   3    -95.4468718 -0.238783E-07  0.298E-03    0.70       4.7  T
   4    -95.4468718 -0.391406E-07  0.892E-04    0.70      15.6  T
   5    -95.4468718 -0.213344E-07  0.450E-04    0.70      30.8  T
     SCC iter.                  ...        0 min,  0.024 sec
     gradient                   ...        0 min,  0.011 sec
 * total energy  :   -94.3061206 Eh     change       -0.2616166E-04 Eh
   gradient norm :     0.0019719 Eh/α   predicted    -0.1877890E-04 ( -28.22%)
   displ. norm   :     0.1181157 α      lambda       -0.4647387E-04
   maximum displ.:     0.0563124 α      in ANC's #8, #2, #7, ...

........................................................................
.............................. CYCLE   23 ..............................
........................................................................

 iter      E             dE          RMSdq      gap      omega  full diag
   1    -95.4475113 -0.954475E+02  0.363E-02    0.71       0.0  T
   2    -95.4475157 -0.443973E-05  0.210E-02    0.71       1.0  T
   3    -95.4475156  0.855509E-07  0.783E-03    0.71       1.8  T
   4    -95.4475163 -0.643846E-06  0.257E-03    0.71       5.4  T
   5    -95.4475164 -0.147215E-06  0.150E-03    0.71       9.2  T
   6    -95.4475164 -0.212261E-07  0.101E-03    0.71      13.8  T
   7    -95.4475165 -0.161542E-07  0.684E-04    0.71      20.3  T
   8    -95.4475165 -0.918124E-08  0.457E-04    0.71      30.4  T
     SCC iter.                  ...        0 min,  0.069 sec
     gradient                   ...        0 min,  0.011 sec
 * total energy  :   -94.3061360 Eh     change       -0.1538472E-04 Eh
   gradient norm :     0.0048341 Eh/α   predicted    -0.2339049E-04 (  52.04%)
   displ. norm   :     0.0327724 α      lambda       -0.3013258E-04
   maximum displ.:     0.0170099 α      in ANC's #2, #8, #7, ...

........................................................................
.............................. CYCLE   24 ..............................
........................................................................

 iter      E             dE          RMSdq      gap      omega  full diag
   1    -95.4474865 -0.954475E+02  0.104E-02    0.70       0.0  T
   2    -95.4474867 -0.178840E-06  0.603E-03    0.70       2.3  T
   3    -95.4474867 -0.770790E-08  0.118E-03    0.71      11.7  T
   4    -95.4474867 -0.147984E-07  0.389E-04    0.71      35.6  T
   5    -95.4474867 -0.246051E-08  0.212E-04    0.71      65.4  T
     SCC iter.                  ...        0 min,  0.021 sec
     gradient                   ...        0 min,  0.012 sec
 * total energy  :   -94.3061588 Eh     change       -0.2286746E-04 Eh
   gradient norm :     0.0032922 Eh/α   predicted    -0.1508894E-04 ( -34.02%)
   displ. norm   :     0.0711093 α      lambda       -0.3406579E-04
   maximum displ.:     0.0381575 α      in ANC's #2, #8, #7, ...

........................................................................
.............................. CYCLE   25 ..............................
........................................................................

 iter      E             dE          RMSdq      gap      omega  full diag
   1    -95.4472304 -0.954472E+02  0.203E-02    0.70       0.0  T
   2    -95.4472315 -0.105931E-05  0.118E-02    0.70       1.2  T
   3    -95.4472315 -0.174010E-07  0.327E-03    0.70       4.2  T
   4    -95.4472316 -0.896352E-07  0.904E-04    0.70      15.3  T
   5    -95.4472316 -0.178265E-07  0.459E-04    0.70      30.2  T
     SCC iter.                  ...        0 min,  0.023 sec
     gradient                   ...        0 min,  0.012 sec
 * total energy  :   -94.3061818 Eh     change       -0.2296578E-04 Eh
   gradient norm :     0.0012887 Eh/α   predicted    -0.1714795E-04 ( -25.33%)
   displ. norm   :     0.1203621 α      lambda       -0.1702033E-04
   maximum displ.:     0.0659929 α      in ANC's #2, #7, #8, ...

........................................................................
.............................. CYCLE   26 ..............................
........................................................................

 iter      E             dE          RMSdq      gap      omega  full diag
   1    -95.4469492 -0.954469E+02  0.326E-02    0.69       0.0  T
   2    -95.4469500 -0.804488E-06  0.191E-02    0.69       1.0  T
   3    -95.4469500 -0.225947E-07  0.278E-03    0.70       5.0  T
   4    -95.4469501 -0.168326E-06  0.111E-03    0.70      12.5  T
   5    -95.4469502 -0.173394E-07  0.616E-04    0.70      22.5  T
   6    -95.4469502 -0.252317E-08  0.215E-04    0.70      64.4  T
     SCC iter.                  ...        0 min,  0.020 sec
     gradient                   ...        0 min,  0.011 sec
 * total energy  :   -94.3062004 Eh     change       -0.1865398E-04 Eh
   gradient norm :     0.0022540 Eh/α   predicted    -0.8573110E-05 ( -54.04%)
   displ. norm   :     0.0863690 α      lambda       -0.1690390E-04
   maximum displ.:     0.0486148 α      in ANC's #2, #7, #8, ...

........................................................................
.............................. CYCLE   27 ..............................
........................................................................

 iter      E             dE          RMSdq      gap      omega  full diag
   1    -95.4469399 -0.954469E+02  0.231E-02    0.70       0.0  T
   2    -95.4469401 -0.157740E-06  0.135E-02    0.70       1.0  T
   3    -95.4469401 -0.146352E-07  0.140E-03    0.70       9.9  T
   4    -95.4469402 -0.607391E-07  0.645E-04    0.70      21.5  T
   5    -95.4469402 -0.230536E-08  0.236E-04    0.70      58.7  T
     SCC iter.                  ...        0 min,  0.020 sec
     gradient                   ...        0 min,  0.013 sec
 * total energy  :   -94.3062150 Eh     change       -0.1459295E-04 Eh
   gradient norm :     0.0018415 Eh/α   predicted    -0.8515121E-05 ( -41.65%)
   displ. norm   :     0.2208778 α      lambda       -0.2411193E-04
   maximum displ.:     0.1269718 α      in ANC's #2, #7, #8, ...

........................................................................
.............................. CYCLE   28 ..............................
........................................................................

 iter      E             dE          RMSdq      gap      omega  full diag
   1    -95.4468585 -0.954469E+02  0.580E-02    0.70       0.0  T
   2    -95.4468595 -0.107692E-05  0.339E-02    0.70       1.0  T
   3    -95.4468596 -0.115050E-06  0.332E-03    0.70       4.2  T
   4    -95.4468600 -0.316351E-06  0.157E-03    0.70       8.9  T
   5    -95.4468600 -0.183983E-07  0.679E-04    0.70      20.4  T
   6    -95.4468600 -0.390074E-08  0.274E-04    0.70      50.6  T
     SCC iter.                  ...        0 min,  0.023 sec
     gradient                   ...        0 min,  0.011 sec
 * total energy  :   -94.3062372 Eh     change       -0.2218465E-04 Eh
   gradient norm :     0.0009648 Eh/α   predicted    -0.1232052E-04 ( -44.46%)
   displ. norm   :     0.2181947 α      lambda        0.1120949E-04
   maximum displ.:     0.1253350 α      in ANC's #2, #7, #8, ...

........................................................................
.............................. CYCLE   29 ..............................
........................................................................

 iter      E             dE          RMSdq      gap      omega  full diag
   1    -95.4462582 -0.954463E+02  0.573E-02    0.70       0.0  T
   2    -95.4462591 -0.923431E-06  0.335E-02    0.70       1.0  T
   3    -95.4462593 -0.161423E-06  0.308E-03    0.70       4.5  T
   4    -95.4462595 -0.259245E-06  0.153E-03    0.70       9.1  T
   5    -95.4462595 -0.125559E-07  0.525E-04    0.70      26.4  T
   6    -95.4462595 -0.332160E-08  0.289E-04    0.70      48.1  T
     SCC iter.                  ...        0 min,  0.021 sec
     gradient                   ...        0 min,  0.010 sec
 * total energy  :   -94.3062316 Eh     change        0.5612766E-05 Eh
   gradient norm :     0.0023520 Eh/α   predicted     0.5721071E-05 (   1.93%)
   displ. norm   :     0.0657623 α      lambda       -0.1494027E-04
   maximum displ.:     0.0343503 α      in ANC's #8, #7, #2, ...

........................................................................
.............................. CYCLE   30 ..............................
........................................................................

 iter      E             dE          RMSdq      gap      omega  full diag
   1    -95.4469218 -0.954469E+02  0.192E-02    0.71       0.0  T
   2    -95.4469220 -0.151200E-06  0.112E-02    0.70       1.2  T
   3    -95.4469219  0.125721E-07  0.137E-03    0.70      10.1  T
   4    -95.4469220 -0.589106E-07  0.503E-04    0.70      27.6  T
   5    -95.4469220 -0.255626E-08  0.278E-04    0.70      49.9  T
     SCC iter.                  ...        0 min,  0.020 sec
     gradient                   ...        0 min,  0.011 sec
 * total energy  :   -94.3062430 Eh     change       -0.1137598E-04 Eh
   gradient norm :     0.0012607 Eh/α   predicted    -0.7502842E-05 ( -34.05%)
   displ. norm   :     0.0763215 α      lambda       -0.1401085E-04
   maximum displ.:     0.0398151 α      in ANC's #8, #5, #9, ...

........................................................................
.............................. CYCLE   31 ..............................
........................................................................

 iter      E             dE          RMSdq      gap      omega  full diag
   1    -95.4476909 -0.954477E+02  0.234E-02    0.70       0.0  T
   2    -95.4476912 -0.313197E-06  0.137E-02    0.70       1.0  T
   3    -95.4476912  0.419236E-07  0.194E-03    0.70       7.2  T
   4    -95.4476913 -0.111805E-06  0.679E-04    0.70      20.4  T
   5    -95.4476913 -0.629123E-08  0.425E-04    0.70      32.6  T
     SCC iter.                  ...        0 min,  0.018 sec
     gradient                   ...        0 min,  0.010 sec
 * total energy  :   -94.3062551 Eh     change       -0.1208700E-04 Eh
   gradient norm :     0.0009261 Eh/α   predicted    -0.7024832E-05 ( -41.88%)
   displ. norm   :     0.0594779 α      lambda       -0.6505078E-05
   maximum displ.:     0.0328604 α      in ANC's #2, #9, #5, ...

........................................................................
.............................. CYCLE   32 ..............................
........................................................................

 iter      E             dE          RMSdq      gap      omega  full diag
   1    -95.4476733 -0.954477E+02  0.111E-02    0.70       0.0  T
   2    -95.4476733 -0.798336E-07  0.639E-03    0.70       2.2  T
   3    -95.4476734 -0.209556E-07  0.661E-04    0.70      21.0  T
   4    -95.4476734 -0.480078E-08  0.371E-04    0.70      37.4  T
     SCC iter.                  ...        0 min,  0.014 sec
     gradient                   ...        0 min,  0.010 sec
 * total energy  :   -94.3062641 Eh     change       -0.9000835E-05 Eh
   gradient norm :     0.0009490 Eh/α   predicted    -0.3258682E-05 ( -63.80%)
   displ. norm   :     0.1702461 α      lambda       -0.1685753E-04
   maximum displ.:     0.0982814 α      in ANC's #2, #9, #3, ...

........................................................................
.............................. CYCLE   33 ..............................
........................................................................

 iter      E             dE          RMSdq      gap      omega  full diag
   1    -95.4471565 -0.954472E+02  0.316E-02    0.70       0.0  T
   2    -95.4471570 -0.565040E-06  0.182E-02    0.70       1.0  T
   3    -95.4471572 -0.173909E-06  0.171E-03    0.70       8.1  T
   4    -95.4471572 -0.236999E-07  0.956E-04    0.70      14.5  T
   5    -95.4471572 -0.505153E-08  0.345E-04    0.70      40.2  T
     SCC iter.                  ...        0 min,  0.018 sec
     gradient                   ...        0 min,  0.011 sec
 * total energy  :   -94.3062844 Eh     change       -0.2033235E-04 Eh
   gradient norm :     0.0005138 Eh/α   predicted    -0.8538464E-05 ( -58.01%)
   displ. norm   :     0.2411602 α      lambda       -0.1550633E-04
   maximum displ.:     0.1463253 α      in ANC's #2, #9, #3, ...

........................................................................
.............................. CYCLE   34 ..............................
........................................................................

 iter      E             dE          RMSdq      gap      omega  full diag
   1    -95.4468911 -0.954469E+02  0.446E-02    0.70       0.0  T
   2    -95.4468923 -0.116977E-05  0.256E-02    0.70       1.0  T
   3    -95.4468927 -0.400717E-06  0.241E-03    0.70       5.7  T
   4    -95.4468927 -0.321420E-07  0.133E-03    0.70      10.4  T
   5    -95.4468927 -0.116473E-07  0.396E-04    0.70      35.0  T
   6    -95.4468927 -0.356061E-08  0.155E-04    0.70      89.6  T
     SCC iter.                  ...        0 min,  0.027 sec
     gradient                   ...        0 min,  0.010 sec
 * total energy  :   -94.3063014 Eh     change       -0.1699355E-04 Eh
   gradient norm :     0.0008971 Eh/α   predicted    -0.7955262E-05 ( -53.19%)
   displ. norm   :     0.1776069 α      lambda       -0.8582857E-05
   maximum displ.:     0.1124740 α      in ANC's #2, #3, #9, ...

........................................................................
.............................. CYCLE   35 ..............................
........................................................................

 iter      E             dE          RMSdq      gap      omega  full diag
   1    -95.4468550 -0.954469E+02  0.332E-02    0.70       0.0  T
   2    -95.4468557 -0.692051E-06  0.191E-02    0.70       1.0  T
   3    -95.4468559 -0.225738E-06  0.210E-03    0.70       6.6  T
   4    -95.4468560 -0.498107E-07  0.122E-03    0.70      11.4  T
   5    -95.4468560 -0.121369E-07  0.329E-04    0.70      42.1  T
   6    -95.4468560 -0.166311E-08  0.127E-04    0.70     109.0  T
     SCC iter.                  ...        0 min,  0.019 sec
     gradient                   ...        0 min,  0.010 sec
 * total energy  :   -94.3063119 Eh     change       -0.1046645E-04 Eh
   gradient norm :     0.0010288 Eh/α   predicted    -0.4352362E-05 ( -58.42%)
   displ. norm   :     0.1884419 α      lambda       -0.9448293E-05
   maximum displ.:     0.1226281 α      in ANC's #2, #3, #9, ...

........................................................................
.............................. CYCLE   36 ..............................
........................................................................

 iter      E             dE          RMSdq      gap      omega  full diag
   1    -95.4471868 -0.954472E+02  0.361E-02    0.70       0.0  T
   2    -95.4471877 -0.925908E-06  0.208E-02    0.70       1.0  T
   3    -95.4471879 -0.244069E-06  0.278E-03    0.70       5.0  T
   4    -95.4471881 -0.153543E-06  0.150E-03    0.70       9.2  T
   5    -95.4471881 -0.148748E-07  0.382E-04    0.70      36.3  T
   6    -95.4471881 -0.165350E-08  0.161E-04    0.70      86.4  T
     SCC iter.                  ...        0 min,  0.023 sec
     gradient                   ...        0 min,  0.011 sec
 * total energy  :   -94.3063231 Eh     change       -0.1126802E-04 Eh
   gradient norm :     0.0009746 Eh/α   predicted    -0.4799462E-05 ( -57.41%)
   displ. norm   :     0.1761470 α      lambda       -0.8105548E-05
   maximum displ.:     0.1170770 α      in ANC's #2, #3, #9, ...

........................................................................
.............................. CYCLE   37 ..............................
........................................................................

 iter      E             dE          RMSdq      gap      omega  full diag
   1    -95.4473695 -0.954474E+02  0.338E-02    0.70       0.0  T
   2    -95.4473705 -0.932617E-06  0.195E-02    0.70       1.0  T
   3    -95.4473707 -0.231575E-06  0.288E-03    0.70       4.8  T
   4    -95.4473709 -0.173984E-06  0.152E-03    0.70       9.1  T
   5    -95.4473709 -0.146241E-07  0.445E-04    0.70      31.1  T
   6    -95.4473709 -0.196781E-08  0.154E-04    0.70      89.8  T
     SCC iter.                  ...        0 min,  0.025 sec
     gradient                   ...        0 min,  0.010 sec
 * total energy  :   -94.3063319 Eh     change       -0.8761273E-05 Eh
   gradient norm :     0.0007745 Eh/α   predicted    -0.4113426E-05 ( -53.05%)
   displ. norm   :     0.1055402 α      lambda       -0.4440732E-05
   maximum displ.:     0.0717421 α      in ANC's #2, #3, #5, ...

........................................................................
.............................. CYCLE   38 ..............................
........................................................................

 iter      E             dE          RMSdq      gap      omega  full diag
   1    -95.4476656 -0.954477E+02  0.199E-02    0.71       0.0  T
   2    -95.4476660 -0.418322E-06  0.114E-02    0.71       1.2  T
   3    -95.4476661 -0.533767E-07  0.213E-03    0.71       6.5  T
   4    -95.4476662 -0.115256E-06  0.991E-04    0.71      14.0  T
   5    -95.4476662 -0.676840E-08  0.403E-04    0.71      34.5  T
     SCC iter.                  ...        0 min,  0.018 sec
     gradient                   ...        0 min,  0.010 sec
 * total energy  :   -94.3063365 Eh     change       -0.4552316E-05 Eh
   gradient norm :     0.0004020 Eh/α   predicted    -0.2235242E-05 ( -50.90%)
   displ. norm   :     0.0727759 α      lambda       -0.2741210E-05
   maximum displ.:     0.0462953 α      in ANC's #2, #3, #5, ...

   *** GEOMETRY OPTIMIZATION CONVERGED AFTER 38 ITERATIONS ***

------------------------------------------------------------------------
 total energy gain   :        -0.0284025 Eh      -17.8228 kcal/mol
 total RMSD          :         0.6760839 a0        0.3578 Å
 total power (kW/mol):        -1.9623863 (step)  -43.1033 (real)
------------------------------------------------------------------------

 ANCopt (total)                0 d,  0 h,  0 min,  1.730 sec
 optimizer setup                ...        0 min,  0.001 sec (  0.029%)
 model hessian                  ...        0 min,  0.077 sec (  4.437%)
 ANC generation                 ...        0 min,  0.004 sec (  0.243%)
 coordinate transformation      ...        0 min,  0.001 sec (  0.071%)
 single point calculation       ...        0 min,  1.619 sec ( 93.600%)
 optimization log               ...        0 min,  0.014 sec (  0.795%)
 hessian update                 ...        0 min,  0.005 sec (  0.286%)
 rational function              ...        0 min,  0.006 sec (  0.369%)

================
 final structure:
================
52
 xtb: 6.7.1 (edcfbbe)
C            7.37710229068406       -0.21484311345443        1.09433741159870
C            6.03091989715867       -0.57093279464675        0.63703081657748
O            5.31594348900032       -1.46361450765756        1.30318938423466
N            4.10025048878772       -1.65648141549040        0.70842497949036
C            4.03930186565826       -0.86612627586431       -0.32264811800381
C            2.96238822748730       -0.90598379458956       -1.36485036146513
O            3.19815889371059       -1.55642075372200       -2.38266648583788
N            1.85392633230617       -0.22014286683238       -1.13270958575596
C            0.74608762452765       -0.25322484604266       -2.06493101196276
C           -0.46572219824659       -0.88552225011104       -1.38378956060705
N           -0.80407266740018       -0.11790518259533       -0.19621351688313
C           -2.04528081891594       -0.57779140226065        0.41769267135246
C           -3.20872120125800       -0.48520246811821       -0.54689932204269
C           -3.34936441563869        0.61586839633485       -1.38348349031182
C           -4.43412344448707        0.72448055574575       -2.23340596355802
C           -5.39111543157244       -0.27640535980511       -2.23797201153390
Cl          -6.76533961987134       -0.14662965559139       -3.30453123656089
C           -5.27409319752658       -1.37906241395340       -1.41117270761915
C           -4.17979685024197       -1.47646513378368       -0.56900528467657
C           -2.42662681730193        0.27751067850040        1.60765009719566
C           -2.23948131797801        1.65457047271475        1.58191907461761
C           -2.63515321982840        2.44237604938062        2.64690382014355
C           -3.23168499243239        1.84435926401299        3.74411491913206
Cl          -3.73912800707118        2.83063047327149        5.09057541734759
C           -3.43002765841115        0.47603104738793        3.79070900533923
C           -3.02411751570260       -0.30053036384875        2.71915272297710
C            0.31092292478915       -0.16532478695455        0.73526955706995
C            1.53595236342541        0.48266077290443        0.08870783153997
C            5.26091855868052       -0.13107053024212       -0.43598910753291
N            5.56588414837027        0.83441858284515       -1.39861965864135
O            6.71066140134756        1.25375002033319       -1.44974531069664
O            4.66440760579648        1.21443010147688       -2.12952279776534
H            7.48302019856392       -0.44638878881714        2.14971294701328
H            8.11208842848334       -0.79153369238047        0.53218682879561
H            7.57424970671774        0.83516103685993        0.89088051051844
H            1.05066839410658       -0.83035077863452       -2.93832173977468
H            0.51331886306940        0.77147793700877       -2.36239938262856
H           -0.23096078480760       -1.93566339572678       -1.13321652856662
H           -1.30899930885473       -0.87510713518280       -2.07392414571983
H           -1.94924056606371       -1.62709595016906        0.75332967189010
H           -2.59464440744407        1.38411092344576       -1.37797785910872
H           -4.53983756533863        1.57599901994938       -2.88552484645973
H           -6.02559188943290       -2.15154502083062       -1.42777420413778
H           -4.08650505839428       -2.33911268405290        0.07251695954045
H           -1.76861630782047        2.10787609787950        0.72585967757774
H           -2.48630169990845        3.50963898661948        2.62792396520121
H           -3.89328466543486        0.02419280008758        4.65267796521438
H           -3.17716473425946       -1.36798889478744        2.75623746246793
H            0.04808074625326        0.38526083012686        1.63834545255126
H            0.56147383810814       -1.20369397672439        1.01506867269963
H            2.38131350689606        0.45225298760544        0.77371902954843
H            1.30795656771670        1.52110219838231       -0.16529261377273

 Bond Distances (Angstroems)
 ---------------------------
C1-C2=1.4657         C1-H33=1.0857        C1-H34=1.0903        C1-H35=1.0876        C2-C1=1.4657         C2-O3=1.3236         
C2-C29=1.3920        O3-C2=1.3236         O3-N4=1.3671         N4-O3=1.3671         N4-C5=1.3006         C5-N4=1.3006         
C5-C6=1.4992         C5-C29=1.4302        C6-C5=1.4992         C6-O7=1.2307         C6-N8=1.3240         O7-C6=1.2307         
N8-C6=1.3240         N8-C9=1.4483         N8-C28=1.4446        C9-N8=1.4483         C9-C10=1.5272        C9-H36=1.0903        
C9-H37=1.0921        C10-C9=1.5272        C10-N11=1.4540       C10-H38=1.1049       C10-H39=1.0897       N11-C10=1.4540       
N11-C12=1.4591       N11-C27=1.4537       C12-N11=1.4591       C12-C13=1.5141       C12-C20=1.5143       C12-H40=1.1059       
C13-C12=1.5141       C13-C14=1.3900       C13-C19=1.3878       C14-C13=1.3900       C14-C15=1.3823       C14-H41=1.0770       
C15-C14=1.3823       C15-C16=1.3848       C15-H42=1.0777       C16-C15=1.3848       C16-Cl17=1.7444      C16-C18=1.3832       
Cl17-C16=1.7444      C18-C16=1.3832       C18-C19=1.3843       C18-H43=1.0778       C19-C13=1.3878       C19-C18=1.3843       
C19-H44=1.0791       C20-C12=1.5143       C20-C21=1.3900       C20-C26=1.3880       C21-C20=1.3900       C21-C22=1.3825       
C21-H45=1.0771       C22-C21=1.3825       C22-C23=1.3847       C22-H46=1.0778       C23-C22=1.3847       C23-Cl24=1.7445      
C23-C25=1.3834       Cl24-C23=1.7445      C25-C23=1.3834       C25-C26=1.3842       C25-H47=1.0778       C26-C20=1.3880       
C26-C25=1.3842       C26-H48=1.0790       C27-N11=1.4537       C27-C28=1.5293       C27-H49=1.0899       C27-H50=1.1042       
C28-N8=1.4446        C28-C27=1.5293       C28-H51=1.0885       C28-H52=1.0931       C29-C2=1.3920        C29-C5=1.4302        
C29-N30=1.3971       N30-C29=1.3971       N30-O31=1.2202       N30-O32=1.2212       O31-N30=1.2202       O32-N30=1.2212       
H33-C1=1.0857        H34-C1=1.0903        H35-C1=1.0876        H36-C9=1.0903        H37-C9=1.0921        H38-C10=1.1049       
H39-C10=1.0897       H40-C12=1.1059       H41-C14=1.0770       H42-C15=1.0777       H43-C18=1.0778       H44-C19=1.0791       
H45-C21=1.0771       H46-C22=1.0778       H47-C25=1.0778       H48-C26=1.0790       H49-C27=1.0899       H50-C27=1.1042       
H51-C28=1.0885       H52-C28=1.0931       
 C  H  Rav=1.0873 sigma=0.0093  Rmin=1.0770  Rmax=1.1059    20
 C  C  Rav=1.4249 sigma=0.0567  Rmin=1.3823  Rmax=1.5293    20
 N  C  Rav=1.4102 sigma=0.0596  Rmin=1.3006  Rmax=1.4591     8
 O  C  Rav=1.2771 sigma=0.0464  Rmin=1.2307  Rmax=1.3236     2
 O  N  Rav=1.2695 sigma=0.0690  Rmin=1.2202  Rmax=1.3671     3
 Cl C  Rav=1.7444 sigma=0.0000  Rmin=1.7444  Rmax=1.7445     2

 selected bond angles (degree)
 --------------------
H33-C1-C2=109.94               H34-C1-C2=109.26               H34-C1-H33=108.82              H35-C1-C2=110.04               
H35-C1-H33=111.72              H35-C1-H34=106.98              O3-C2-C1=120.20                C29-C2-C1=132.21               
C29-C2-O3=107.59               N4-O3-C2=110.89                C5-N4-O3=107.51                C6-C5-N4=124.66                
C29-C5-N4=109.58               C29-C5-C6=124.90               O7-C6-C5=116.83                N8-C6-C5=117.76                
N8-C6-O7=125.39                C9-N8-C6=121.05                C28-N8-C6=125.77               C28-N8-C9=112.77               
C10-C9-N8=109.23               H36-C9-N8=108.30               H36-C9-C10=111.09              H37-C9-N8=108.48               
H37-C9-C10=109.93              H37-C9-H36=109.76              N11-C10-C9=109.29              H38-C10-C9=109.03              
H38-C10-N11=111.47             H39-C10-C9=109.12              H39-C10-N11=109.40             H39-C10-H38=108.49             

 selected dihedral angles (degree)
 ---------------------------------
O3-C2-C1-H33=337.75           O3-C2-C1-H34= 97.11           O3-C2-C1-H35=214.29           C29-C2-C1-H33=157.12          
C29-C2-C1-H34=276.48          C29-C2-C1-H35= 33.66          N4-O3-C2-C1=180.39            N4-O3-C2-C29=  0.88           
C5-N4-O3-C2=358.92            C6-C5-N4-O3=170.59            C29-C5-N4-O3=  0.82           O7-C6-C5-N4=264.62            
O7-C6-C5-C29= 72.85           N8-C6-C5-N4= 86.08            N8-C6-C5-C29=254.31           C9-N8-C6-C5=182.59            
C9-N8-C6-O7=  4.18            C28-N8-C6-C5=354.63           C28-N8-C6-O7=176.22           C10-C9-N8-C6=116.28           
C10-C9-N8-C28=303.28          H36-C9-N8-C6=355.17           H36-C9-N8-C28=182.17          H37-C9-N8-C6=236.10           
H37-C9-N8-C28= 63.10          N11-C10-C9-N8= 58.28          N11-C10-C9-H36=177.68         N11-C10-C9-H37=299.36         
H38-C10-C9-N8=296.21          H38-C10-C9-H36= 55.61         H38-C10-C9-H37=177.29         H39-C10-C9-N8=177.87          
H39-C10-C9-H36=297.28         H39-C10-C9-H37= 58.96         
           -------------------------------------------------
          |                Final Singlepoint                |
           -------------------------------------------------

          ...................................................
          :                      SETUP                      :
          :.................................................:
          :  # basis functions                 160          :
          :  # atomic orbitals                 158          :
          :  # shells                           86          :
          :  # electrons                       166          :
          :  max. iterations                   250          :
          :  Hamiltonian                  GFN2-xTB          :
          :  restarted?                      false          :
          :  GBSA solvation                   true          :
          :  PC potential                    false          :
          :  electronic temp.          300.0000000     K    :
          :  accuracy                    1.0000000          :
          :  -> integral cutoff          0.2500000E+02      :
          :  -> integral neglect         0.1000000E-07      :
          :  -> SCF convergence          0.1000000E-05 Eh   :
          :  -> wf. convergence          0.1000000E-03 e    :
          :  Broyden damping             0.4000000          :
          :  net charge                          0          :
          :  unpaired electrons                  0          :
          ...................................................

 iter      E             dE          RMSdq      gap      omega  full diag
   1    -95.4476662 -0.954477E+02  0.123E-04    0.71       0.0  T
   2    -95.4476662 -0.823803E-10  0.893E-05    0.71     155.4  T
   3    -95.4476662 -0.288480E-10  0.645E-05    0.71     215.0  T

   *** convergence criteria satisfied after 3 iterations ***

         #    Occupation            Energy/Eh            Energy/eV
      -------------------------------------------------------------
         1        2.0000           -1.0622408             -28.9050
       ...           ...                  ...                  ...
        77        2.0000           -0.4183723             -11.3845
        78        2.0000           -0.4157269             -11.3125
        79        2.0000           -0.4139821             -11.2650
        80        2.0000           -0.4073864             -11.0855
        81        2.0000           -0.3988842             -10.8542
        82        2.0000           -0.3905049             -10.6262
        83        2.0000           -0.3625260              -9.8648 (HOMO)
        84        0.0000           -0.3365980              -9.1593 (LUMO)
        85                         -0.2805881              -7.6352
        86                         -0.2428390              -6.6080
        87                         -0.2348253              -6.3899
        88                         -0.2326971              -6.3320
       ...                                ...                  ...
       158                          0.6449577              17.5502
      -------------------------------------------------------------
                  HL-Gap            0.0259281 Eh            0.7055 eV
             Fermi-level           -0.3495620 Eh           -9.5121 eV

 SCC (total)                   0 d,  0 h,  0 min,  0.029 sec
 SCC setup                      ...        0 min,  0.001 sec (  2.712%)
 Dispersion                     ...        0 min,  0.001 sec (  3.021%)
 classical contributions        ...        0 min,  0.000 sec (  0.413%)
 integral evaluation            ...        0 min,  0.004 sec ( 12.320%)
 iterations                     ...        0 min,  0.012 sec ( 41.978%)
 molecular gradient             ...        0 min,  0.011 sec ( 37.909%)
 printout                       ...        0 min,  0.000 sec (  1.557%)

         :::::::::::::::::::::::::::::::::::::::::::::::::::::
         ::                     SUMMARY                     ::
         :::::::::::::::::::::::::::::::::::::::::::::::::::::
         :: total energy             -94.306336452118 Eh    ::
         :: total w/o Gsasa/hb       -94.303240231596 Eh    ::
         :: gradient norm              0.000406386500 Eh/a0 ::
         :: HOMO-LUMO gap              0.705538577791 eV    ::
         ::.................................................::
         :: SCC energy               -95.447167477320 Eh    ::
         :: -> isotropic ES            0.148547677832 Eh    ::
         :: -> anisotropic ES         -0.000355787145 Eh    ::
         :: -> anisotropic XC          0.035707032540 Eh    ::
         :: -> dispersion             -0.065179931773 Eh    ::
         :: -> Gsolv                  -0.036216502076 Eh    ::
         ::    -> Gelec               -0.033120281555 Eh    ::
         ::    -> Gsasa                0.001545185715 Eh    ::
         ::    -> Ghb                 -0.005722165935 Eh    ::
         ::    -> Gshift               0.001080759698 Eh    ::
         :: repulsion energy           1.140831025202 Eh    ::
         :: add. restraining           0.000000000000 Eh    ::
         :: total charge               0.000000000000 e     ::
         :::::::::::::::::::::::::::::::::::::::::::::::::::::

           -------------------------------------------------
          |                Property Printout                |
           -------------------------------------------------

    * Orbital Energies and Occupations

         #    Occupation            Energy/Eh            Energy/eV
      -------------------------------------------------------------
         1        2.0000           -1.0622408             -28.9050
       ...           ...                  ...                  ...
        71        2.0000           -0.4404383             -11.9849
        72        2.0000           -0.4376635             -11.9094
        73        2.0000           -0.4370425             -11.8925
        74        2.0000           -0.4294981             -11.6872
        75        2.0000           -0.4218828             -11.4800
        76        2.0000           -0.4205764             -11.4445
        77        2.0000           -0.4183723             -11.3845
        78        2.0000           -0.4157269             -11.3125
        79        2.0000           -0.4139821             -11.2650
        80        2.0000           -0.4073864             -11.0855
        81        2.0000           -0.3988842             -10.8542
        82        2.0000           -0.3905049             -10.6262
        83        2.0000           -0.3625260              -9.8648 (HOMO)
        84        0.0000           -0.3365980              -9.1593 (LUMO)
        85                         -0.2805881              -7.6352
        86                         -0.2428390              -6.6080
        87                         -0.2348253              -6.3899
        88                         -0.2326971              -6.3320
        89                         -0.2315844              -6.3017
        90                         -0.2247673              -6.1162
        91                         -0.2018859              -5.4936
        92                         -0.1402483              -3.8164
        93                         -0.1396071              -3.7989
        94                         -0.1135141              -3.0889
       ...                                ...                  ...
       158                          0.6449577              17.5502
      -------------------------------------------------------------
                  HL-Gap            0.0259281 Eh            0.7055 eV
             Fermi-level           -0.3495620 Eh           -9.5121 eV

     #   Z          covCN         q      C6AA      α(0)
     1   6 C        3.754    -0.162    23.705     6.943
     2   6 C        2.988     0.180    24.134     8.059
     3   8 O        1.821    -0.088    15.651     5.342
     4   7 N        1.948    -0.137    24.727     7.374
     5   6 C        3.014     0.073    26.359     8.422
     6   6 C        2.765     0.274    22.369     7.746
     7   8 O        0.859    -0.515    24.120     6.585
     8   7 N        2.740    -0.050    22.213     7.000
     9   6 C        3.763    -0.015    20.893     6.515
    10   6 C        3.771     0.001    20.601     6.468
    11   7 N        2.734    -0.168    24.625     7.370
    12   6 C        3.820     0.034    19.987     6.362
    13   6 C        2.981     0.012    27.733     8.638
    14   6 C        2.927    -0.035    28.879     8.813
    15   6 C        2.949    -0.043    29.068     8.843
    16   6 C        2.890     0.099    25.812     8.330
    17  17 Cl       0.958    -0.231   106.463    15.785
    18   6 C        2.950    -0.043    29.073     8.844
    19   6 C        2.927    -0.038    28.952     8.824
    20   6 C        2.981     0.012    27.735     8.639
    21   6 C        2.927    -0.036    28.885     8.814
    22   6 C        2.949    -0.043    29.069     8.843
    23   6 C        2.890     0.099    25.810     8.329
    24  17 Cl       0.958    -0.231   106.459    15.785
    25   6 C        2.950    -0.043    29.068     8.843
    26   6 C        2.927    -0.038    28.949     8.824
    27   6 C        3.772    -0.003    20.658     6.477
    28   6 C        3.756    -0.018    20.954     6.527
    29   6 C        2.960    -0.035    28.867     8.813
    30   7 N        2.756     0.571    13.257     5.408
    31   8 O        0.932    -0.430    22.242     6.325
    32   8 O        0.933    -0.441    22.473     6.358
    33   1 H        0.925     0.128     1.550     1.947
    34   1 H        0.924     0.144     1.434     1.872
    35   1 H        0.925     0.126     1.567     1.958
    36   1 H        0.924     0.078     1.996     2.210
    37   1 H        0.924     0.086     1.916     2.165
    38   1 H        0.922     0.021     2.721     2.580
    39   1 H        0.925     0.064     2.155     2.296
    40   1 H        0.922     0.029     2.600     2.522
    41   1 H        0.926     0.082     1.958     2.188
    42   1 H        0.926     0.070     2.085     2.258
    43   1 H        0.926     0.066     2.135     2.285
    44   1 H        0.926     0.061     2.187     2.312
    45   1 H        0.926     0.082     1.957     2.188
    46   1 H        0.926     0.071     2.078     2.255
    47   1 H        0.926     0.066     2.133     2.284
    48   1 H        0.926     0.061     2.186     2.312
    49   1 H        0.925     0.069     2.095     2.263
    50   1 H        0.923     0.027     2.627     2.535
    51   1 H        0.925     0.065     2.140     2.287
    52   1 H        0.924     0.093     1.850     2.127

 Mol. C6AA /au·bohr⁶  :      38820.313378
 Mol. C8AA /au·bohr⁸  :     997971.481638
 Mol. α(0) /au        :        305.087659


Wiberg/Mayer (AO) data.
largest (>0.10) Wiberg bond orders for each atom

 ---------------------------------------------------------------------------
     #   Z sym  total        # sym  WBO       # sym  WBO       # sym  WBO
 ---------------------------------------------------------------------------
     1   6 C    3.962 --     2 C    1.064    33 H    0.961    35 H    0.948
                            34 H    0.914
     2   6 C    3.916 --    29 C    1.390     3 O    1.219     1 C    1.064
                             4 N    0.121
     3   8 O    2.491 --     2 C    1.219     4 N    1.060
     4   7 N    2.950 --     5 C    1.613     3 O    1.060     2 C    0.121
     5   6 C    3.970 --     4 N    1.613    29 C    1.206     6 C    0.940
     6   6 C    3.960 --     7 O    1.573     8 N    1.345     5 C    0.940
     7   8 O    1.942 --     6 C    1.573     8 N    0.211
     8   7 N    3.575 --     6 C    1.345    28 C    0.980     9 C    0.973
                             7 O    0.211
     9   6 C    3.955 --    10 C    0.993     8 N    0.973    36 H    0.967
                            37 H    0.961
    10   6 C    3.985 --    11 N    1.004     9 C    0.993    39 H    0.964
                            38 H    0.963
    11   7 N    3.122 --    27 C    1.005    10 C    1.004    12 C    0.982
    12   6 C    3.982 --    11 N    0.982    20 C    0.976    13 C    0.976
                            40 H    0.949
    13   6 C    3.986 --    19 C    1.414    14 C    1.400    12 C    0.976
    14   6 C    3.986 --    15 C    1.448    13 C    1.400    41 H    0.960
                            18 C    0.109
    15   6 C    3.986 --    14 C    1.448    16 C    1.403    42 H    0.965
                            19 C    0.107
    16   6 C    3.894 --    18 C    1.412    15 C    1.403    17 Cl   0.938
    17  17 Cl   1.060 --    16 C    0.938
    18   6 C    3.987 --    19 C    1.437    16 C    1.412    43 H    0.966
                            14 C    0.109
    19   6 C    3.987 --    18 C    1.437    13 C    1.414    44 H    0.965
                            15 C    0.107
    20   6 C    3.986 --    26 C    1.413    21 C    1.400    12 C    0.976
    21   6 C    3.986 --    22 C    1.447    20 C    1.400    45 H    0.960
                            25 C    0.109
    22   6 C    3.986 --    21 C    1.447    23 C    1.404    46 H    0.965
                            26 C    0.107
    23   6 C    3.895 --    25 C    1.412    22 C    1.404    24 Cl   0.938
    24  17 Cl   1.060 --    23 C    0.938
    25   6 C    3.987 --    26 C    1.438    23 C    1.412    47 H    0.966
                            21 C    0.109
    26   6 C    3.987 --    25 C    1.438    20 C    1.413    48 H    0.965
                            22 C    0.107
    27   6 C    3.984 --    11 N    1.005    28 C    0.991    49 H    0.964
                            50 H    0.962
    28   6 C    3.957 --    27 C    0.991     8 N    0.980    51 H    0.965
                            52 H    0.959
    29   6 C    3.936 --     2 C    1.390     5 C    1.206    30 N    1.039
    30   7 N    3.916 --    32 O    1.418    31 O    1.416    29 C    1.039
    31   8 O    1.890 --    30 N    1.416    32 O    0.327
    32   8 O    1.894 --    30 N    1.418    31 O    0.327
    33   1 H    0.983 --     1 C    0.961
    34   1 H    0.979 --     1 C    0.914
    35   1 H    0.984 --     1 C    0.948
    36   1 H    0.993 --     9 C    0.967
    37   1 H    0.992 --     9 C    0.961
    38   1 H    1.000 --    10 C    0.963
    39   1 H    0.995 --    10 C    0.964
    40   1 H    0.998 --    12 C    0.949
    41   1 H    0.993 --    14 C    0.960
    42   1 H    0.995 --    15 C    0.965
    43   1 H    0.995 --    18 C    0.966
    44   1 H    0.996 --    19 C    0.965
    45   1 H    0.993 --    21 C    0.960
    46   1 H    0.995 --    22 C    0.965
    47   1 H    0.995 --    25 C    0.966
    48   1 H    0.996 --    26 C    0.965
    49   1 H    0.994 --    27 C    0.964
    50   1 H    0.999 --    27 C    0.962
    51   1 H    0.995 --    28 C    0.965
    52   1 H    0.991 --    28 C    0.959
 ---------------------------------------------------------------------------

Topologies differ in total number of bonds
Writing topology from bond orders to xtbtopo.mol

molecular dipole:
                 x           y           z       tot (Debye)
 q only:        0.708      -0.283       2.632
   full:        0.495      -0.250       2.607       6.774
molecular quadrupole (traceless):
                xx          xy          yy          xz          yz          zz
 q only:        5.054       5.954      13.010      41.571     -15.005     -18.064
  q+dip:        6.335       6.022      12.043      38.828     -12.731     -18.378
   full:        8.603       4.500       9.036      38.853      -9.493     -17.639

           -------------------------------------------------
          |                Geometry Summary                 |
           -------------------------------------------------

      molecular mass/u    :      475.3253125
   center of mass at/Å    :       -0.2360501       0.1460483       0.0549659
  moments of inertia/u·Å² :        0.3224837E+04   0.9149415E+04   0.1141099E+05
rotational constants/cm⁻¹ :        0.5227437E-02   0.1842482E-02   0.1477315E-02

 * 52 selected distances

     #   Z          #   Z                                           value/Å
     1   6 C        2   6 C                                       1.4656523
     2   6 C        3   8 O                                       1.3235707
     3   8 O        4   7 N                                       1.3670597
     4   7 N        5   6 C                                       1.3005722
     6   6 C        7   8 O                                       1.2306933
     6   6 C        8   7 N                                       1.3239922
     8   7 N        9   6 C                                       1.4482535
     9   6 C       10   6 C                                       1.5271664
    10   6 C       11   7 N                                       1.4539788
    11   7 N       12   6 C                                       1.4591005
    13   6 C       14   6 C                                       1.3899680
    14   6 C       15   6 C                                       1.3823412
    15   6 C       16   6 C                                       1.3847843
    16   6 C       17  17 Cl                                      1.7443861
    16   6 C       18   6 C                                       1.3831646
    13   6 C       19   6 C                                       1.3878323
    18   6 C       19   6 C                                       1.3842753
    20   6 C       21   6 C                                       1.3899567
    21   6 C       22   6 C                                       1.3825291
    22   6 C       23   6 C                                       1.3846829
    23   6 C       24  17 Cl                                      1.7444729 (max)
    23   6 C       25   6 C                                       1.3834136
    20   6 C       26   6 C                                       1.3880076
    25   6 C       26   6 C                                       1.3842124
    11   7 N       27   6 C                                       1.4536591
     8   7 N       28   6 C                                       1.4446111
    27   6 C       28   6 C                                       1.5292563
     2   6 C       29   6 C                                       1.3920320
     5   6 C       29   6 C                                       1.4302101
    29   6 C       30   7 N                                       1.3970795
    30   7 N       31   8 O                                       1.2202327
    30   7 N       32   8 O                                       1.2211832
     1   6 C       33   1 H                                       1.0856564
     1   6 C       34   1 H                                       1.0903165
     1   6 C       35   1 H                                       1.0875526
     9   6 C       36   1 H                                       1.0902547
     9   6 C       37   1 H                                       1.0921011
    10   6 C       38   1 H                                       1.1048513
    10   6 C       39   1 H                                       1.0897297
    12   6 C       40   1 H                                       1.1058554
    14   6 C       41   1 H                                       1.0769538 (min)
    15   6 C       42   1 H                                       1.0777376
    18   6 C       43   1 H                                       1.0778476
    19   6 C       44   1 H                                       1.0790807
    21   6 C       45   1 H                                       1.0770505
    22   6 C       46   1 H                                       1.0777604
    25   6 C       47   1 H                                       1.0778477
    26   6 C       48   1 H                                       1.0790119
    27   6 C       49   1 H                                       1.0898517
    27   6 C       50   1 H                                       1.1042075
    28   6 C       51   1 H                                       1.0884855
    28   6 C       52   1 H                                       1.0930961

 * 6 distinct bonds (by element types)

   Z      Z             #   av. dist./Å        max./Å        min./Å
   1 H    6 C          20     1.0872624     1.1058554     1.0769538
   6 C    6 C          17     1.4099697     1.5292563     1.3823412
   6 C    7 N           8     1.4101559     1.4591005     1.3005722
   6 C    8 O           2     1.2771320     1.3235707     1.2306933
   7 N    8 O           3     1.2694919     1.3670597     1.2202327
   6 C   17 Cl          2     1.7444295     1.7444729     1.7443861


optimized geometry written to: xtbopt.xyz


           -------------------------------------------------
          | TOTAL ENERGY              -94.306336452118 Eh   |
          | GRADIENT NORM               0.000406386500 Eh/α |
          | HOMO-LUMO GAP               0.705538577791 eV   |
           -------------------------------------------------

------------------------------------------------------------------------
 * finished run on 2026/08/28 at 19:12:10.138     
------------------------------------------------------------------------
 total:
 * wall-time:     0 d,  0 h,  0 min,  1.875 sec
 *  cpu-time:     0 d,  0 h,  0 min, 12.281 sec
 * ratio c/w:     6.549 speedup
 SCF:
 * wall-time:     0 d,  0 h,  0 min,  0.068 sec
 *  cpu-time:     0 d,  0 h,  0 min,  0.375 sec
 * ratio c/w:     5.485 speedup
 ANC optimizer:
 * wall-time:     0 d,  0 h,  0 min,  1.764 sec
 *  cpu-time:     0 d,  0 h,  0 min, 11.719 sec
 * ratio c/w:     6.645 speedup

