52

C      7.681799   -0.215839    0.970328
C      6.304424   -0.462881    0.503428
O      5.508455   -1.203865    1.321700
N      4.258065   -1.350640    0.748031
C      4.301350   -0.683861   -0.421358
C      3.198453   -0.704839   -1.381665
O      3.444036   -0.881514   -2.574432
N      1.886906   -0.559836   -0.911328
C      0.822524   -0.568487   -1.911868
C     -0.549851   -0.918410   -1.308609
N     -0.908599   -0.047897   -0.156569
C     -2.236233   -0.434057    0.413558
C     -3.382751   -0.376511   -0.607505
C     -3.553950    0.724283   -1.466888
C     -4.615570    0.765660   -2.373792
C     -5.520985   -0.290418   -2.426442
Cl    -6.828910   -0.241024   -3.543134
C     -5.375049   -1.386951   -1.580243
C     -4.312880   -1.429206   -0.673146
C     -2.628980    0.383033    1.654050
C     -2.526200    1.786065    1.677774
C     -2.905789    2.512046    2.809122
C     -3.397335    1.843041    3.926603
Cl    -3.863421    2.735845    5.321513
C     -3.513957    0.455165    3.922764
C     -3.134249   -0.271766    2.791314
C      0.168743   -0.185211    0.859073
C      1.554275    0.191304    0.302047
C      5.576497   -0.107338   -0.606018
N      6.024061    0.701011   -1.681722
O      7.204670    0.571032   -2.026545
O      5.212756    1.512711   -2.140308
H      7.798421   -0.486869    2.024393
H      8.393894   -0.807307    0.386923
H      7.942208    0.841925    0.865829
H      1.061078   -1.289443   -2.702102
H      0.793995    0.427312   -2.372049
H     -0.541613   -1.971208   -0.995021
H     -1.283335   -0.824762   -2.115789
H     -2.140882   -1.482796    0.733296
H     -2.850343    1.553651   -1.438090
H     -4.728757    1.622713   -3.032036
H     -6.084974   -2.208841   -1.618753
H     -4.219190   -2.289916   -0.014427
H     -2.139893    2.319393    0.811747
H     -2.816740    3.594943    2.809321
H     -3.902360   -0.065937    4.793747
H     -3.239462   -1.354513    2.803272
H     -0.014968    0.470364    1.716317
H      0.203976   -1.216306    1.236141
H      2.300779    0.051272    1.084522
H      1.575861    1.255679    0.034576
