66
 energy: -111.859026264119 gnorm: 0.000576362720 xtb: 6.7.1 (edcfbbe)
C           -6.88857920053350       -4.76286505929548       -1.16986765140434
N           -5.67420653384692       -3.98091719823355       -1.17865566690537
C           -5.38653155586403       -3.05857835378480       -0.24737073393012
O           -6.13425717142953       -2.81110911163951        0.70001047293885
C           -4.08553199623220       -2.35285471135266       -0.42287241870583
C           -3.55758012745973       -2.05225122958894       -1.67457476432176
C           -2.35421249827488       -1.37833662812268       -1.77683476437924
C           -1.65423637289677       -0.99710375998362       -0.63990289536374
C           -0.36306401873495       -0.21741702304394       -0.76609166982020
C           -0.75041407026824        1.23564127277786       -0.59560870677518
C           -0.89482031986642        1.78700315518320        0.67275777014474
C           -1.30745188266289        3.09560291140610        0.83058368419210
C           -1.58966275290541        3.88067558576110       -0.28470301120844
C           -2.02674686524060        5.30188148028828       -0.18067310729621
O           -1.71840824362214        6.13874476476332       -1.03175631260062
N           -2.78059869326511        5.59541807262104        0.88938222644769
C           -3.30580435172949        6.91461736786292        1.15304246441630
C           -1.42577568346880        3.33456413417662       -1.55361386592838
C           -1.01767645682640        2.02357796994332       -1.70736625021800
N            0.61146857550494       -0.63133358615752        0.23652831047528
C            1.84048900263000        0.13822046672597        0.15674050760415
C            2.72150407194640       -0.21630011666465        1.35735160058664
N            3.00827961979044       -1.63253791439160        1.32749348199410
C            4.17609507830500       -2.16351614108089        0.98983887133311
O            4.38568532835207       -3.36021416503582        0.80041744847620
C            5.34648010565180       -1.23748553491677        0.84590772411531
N            6.13961589470382       -0.89102741205464        1.81564033737359
O            7.19471623708322       -0.21933104869253        1.26296353808719
C            7.08095729351557       -0.16058361583610       -0.05426418387542
C            8.11222836262865        0.50778228230884       -0.85304122005189
C            5.89371123369591       -0.79974258919677       -0.40250603496176
N            5.31128909480552       -0.94833171241795       -1.66187753499394
O            4.16043077593385       -1.36263431882724       -1.71113230302749
O            5.96353204333919       -0.63605474155946       -2.64568356107958
C            1.80665736478749       -2.44267109146146        1.33050941325582
C            0.93344371080755       -2.04664080423752        0.14107391312608
C           -2.19112622680777       -1.28275406061788        0.61064695095931
C           -3.39508830074543       -1.94877267957029        0.71684719820359
H           -6.65909424537034       -5.82339264284389       -1.06756370034818
H           -7.44941524091995       -4.60023690798138       -2.09008810932468
H           -7.48587536256051       -4.43868340597862       -0.31929177044481
H           -4.99989425906717       -4.18218844998197       -1.90032715081527
H           -4.09316627481205       -2.31303068059543       -2.57455388049747
H           -1.95598753933862       -1.14668078306710       -2.75361150247250
H            0.04140449470978       -0.36164279775785       -1.78603153860228
H           -0.66664968552867        1.18380801225902        1.53592216241555
H           -1.37892807744818        3.50956581019313        1.82440494448481
H           -3.05315019984161        4.85556506353742        1.51760562750459
H           -2.95002571455069        7.27637038564603        2.11767929740718
H           -4.39566085466830        6.89862249171292        1.15127050887022
H           -2.95260857594954        7.57749310787699        0.36471862931244
H           -1.62479245240966        3.95740119309433       -2.41310093839043
H           -0.90141260238576        1.61385346951097       -2.69967690851521
H            1.60536603023352        1.20254618118181        0.17597934432458
H            2.39087658603600       -0.08698216914362       -0.77584879043050
H            3.64654559069305        0.35767039687986        1.33994760277856
H            2.17887156972039        0.00004032257827        2.27990516962870
H            7.67062566935823        0.93805042586514       -1.74896948690827
H            8.84936185939038       -0.22853239672205       -1.17625596180437
H            8.61654314042692        1.25877099164366       -0.25194435612890
H            1.27030476664042       -2.26078020789311        2.26332640551778
H            2.09917466356205       -3.49058462885457        1.26310982194792
H            1.47859453087412       -2.27132469472749       -0.79354000995408
H            0.01306544755429       -2.62986223375515        0.15796776267499
H           -1.65455056571502       -0.98811017770808        1.49694891851925
H           -3.82433216942433       -2.17009053098270        1.68247165220243
