20
complex S
C      -0.750755     0.543553     1.150288
N      -0.486362     0.003651    -0.175187
C      -1.621499    -0.605762    -0.851718
C       0.795666    -0.254285    -0.677654
O       0.955883    -0.888146    -1.721758
C       1.961495     0.300991     0.131816
Cl      3.531968    -0.121404    -0.583172
H      -0.862578    -0.291008     1.848568
H       0.055739     1.191939     1.496183
H      -1.674673     1.128824     1.125393
H      -1.392909    -0.852515    -1.891861
H      -1.892834    -1.522772    -0.320197
H      -2.465071     0.090614    -0.837625
H       1.945539    -0.115422     1.142093
H       1.900391     1.391743     0.164831
S      -0.690559     1.014288     1.339215
C      -2.414395     1.477932     2.124025
H      -1.814395     2.077932     2.524025
H      -3.014395     2.077932     1.724025
H      -2.414395     0.577932     2.624025
