19

C     -1.954583    1.254199   -0.821692
N     -1.213862    0.348797    0.042072
C     -1.741381   -1.005457    0.133671
C      0.091549    0.701089    0.379379
O      0.582302    1.784607    0.045059
C      0.930738   -0.274584    1.192502
S      1.715352   -1.537604    0.138282
C      2.747525   -0.457541   -0.887724
H     -3.016713    1.214052   -0.562934
H     -1.815569    0.939407   -1.860338
H     -1.610701    2.286638   -0.714216
H     -1.537045   -1.523236   -0.808176
H     -1.299507   -1.569692    0.954676
H     -2.822311   -0.959974    0.297256
H      1.711463    0.287603    1.716876
H      0.328705   -0.748713    1.971651
H      2.130293    0.142138   -1.560954
H      3.411487   -1.077022   -1.496818
H      3.362258    0.195291   -0.262721
