      -----------------------------------------------------------      
     |                   =====================                   |     
     |                           x T B                           |     
     |                   =====================                   |     
     |                         S. Grimme                         |     
     |          Mulliken Center for Theoretical Chemistry        |     
     |                    University of Bonn                     |     
      -----------------------------------------------------------      

   * xtb version 6.7.1 (edcfbbe) compiled by 'VssAdministrator@runnervm171ch' on 2026-06-10

   xtb is free software: you can redistribute it and/or modify it under
   the terms of the GNU Lesser General Public License as published by
   the Free Software Foundation, either version 3 of the License, or
   (at your option) any later version.
   
   xtb is distributed in the hope that it will be useful,
   but WITHOUT ANY WARRANTY; without even the implied warranty of
   MERCHANTABILITY or FITNESS FOR A PARTICULAR PURPOSE.  See the
   GNU Lesser General Public License for more details.
   
   Cite this work as:
   * C. Bannwarth, E. Caldeweyher, S. Ehlert, A. Hansen, P. Pracht,
     J. Seibert, S. Spicher, S. Grimme, WIREs Comput. Mol. Sci., 2020, 11,
     e01493. DOI: 10.1002/wcms.1493
   
   for GFN2-xTB:
   * C. Bannwarth, S. Ehlert and S. Grimme., J. Chem. Theory Comput., 2019,
     15, 1652-1671. DOI: 10.1021/acs.jctc.8b01176
   for GFN1-xTB:
   * S. Grimme, C. Bannwarth, P. Shushkov, J. Chem. Theory Comput., 2017,
     13, 1989-2009. DOI: 10.1021/acs.jctc.7b00118
   for GFN0-xTB:
   * P. Pracht, E. Caldeweyher, S. Ehlert, S. Grimme, ChemRxiv, 2019, preprint.
     DOI: 10.26434/chemrxiv.8326202.v1
   for GFN-FF:
   * S. Spicher and S. Grimme, Angew. Chem. Int. Ed., 2020, 59, 15665-15673.
     DOI: 10.1002/anie.202004239
   
   for ALPB and GBSA implicit solvation:
   * S. Ehlert, M. Stahn, S. Spicher, S. Grimme, J. Chem. Theory Comput.,
     2021, 17, 4250-4261. DOI: 10.1021/acs.jctc.1c00471
   
   for ddCOSMO and CPCM-X implicit solvation:
   * M. Stahn, S. Ehlert, S. Grimme, J. Phys. Chem. A,
     2023, XX, XXXX-XXXX. DOI: 10.1021/acs.jpca.3c04382
   
   for DFT-D4:
   * E. Caldeweyher, C. Bannwarth and S. Grimme, J. Chem. Phys., 2017,
     147, 034112. DOI: 10.1063/1.4993215
   * E. Caldeweyher, S. Ehlert, A. Hansen, H. Neugebauer, S. Spicher,
     C. Bannwarth and S. Grimme, J. Chem. Phys., 2019, 150, 154122.
     DOI: 10.1063/1.5090222
   * E. Caldeweyher, J.-M. Mewes, S. Ehlert and S. Grimme, Phys. Chem. Chem. Phys.
     2020, 22, 8499-8512. DOI: 10.1039/D0CP00502A
   
   for sTDA-xTB:
   * S. Grimme and C. Bannwarth, J. Chem. Phys., 2016, 145, 054103.
     DOI: 10.1063/1.4959605
   
   in the mass-spec context:
   * V. Asgeirsson, C. Bauer and S. Grimme, Chem. Sci., 2017, 8, 4879.
     DOI: 10.1039/c7sc00601b
   * J. Koopman and S. Grimme, ACS Omega 2019, 4, 12, 15120-15133.
     DOI: 10.1021/acsomega.9b02011
   
   for metadynamics refer to:
   * S. Grimme, J. Chem. Theory Comput., 2019, 155, 2847-2862
     DOI: 10.1021/acs.jctc.9b00143
   
   for SPH calculations refer to:
   * S. Spicher and S. Grimme, J. Chem. Theory Comput., 2021, 17, 1701-1714
     DOI: 10.1021/acs.jctc.0c01306
   
   for ONIOM refer to:
   * C. Plett, A. Katbashev, S. Ehlert, S. Grimme, M. Bursch,
     Phys. Chem. Chem. Phys., 2023, 25, 17860-17868. DOI: 10.1039/D3CP02178E
   
   for DIPRO refer to:
   * J. Kohn, N. Gildemeister, S. Grimme, D. Fazzi, A. Hansen,
     J. Chem. Phys., 2023, just accepted.
   
   for PTB refer to:
   * S. Grimme, M. Mueller, A. Hansen, J. Chem. Phys., 2023, 158, 124111.
     DOI: 10.1063/5.0137838
   
   with help from (in alphabetical order)
   P. Atkinson, C. Bannwarth, F. Bohle, G. Brandenburg, E. Caldeweyher
   M. Checinski, S. Dohm, S. Ehlert, S. Ehrlich, I. Gerasimov, C. Hölzer
   A. Katbashev, J. Kohn, J. Koopman, C. Lavigne, S. Lehtola, F. März, M. Müller,
   F. Musil, H. Neugebauer, J. Pisarek, C. Plett, P. Pracht, F. Pultar,
   J. Seibert, P. Shushkov, S. Spicher, M. Stahn, M. Steiner, T. Strunk,
   J. Stückrath, T. Rose, and J. Unsleber
   
 * started run on 2026/08/28 at 17:58:34.085     
   ID    Z sym.   atoms
    1    6 C      1, 3, 4, 6, 8
    2    7 N      2
    3    8 O      5
    4   16 S      7
    5    1 H      9-19

           -------------------------------------------------
          |                Calculation Setup                |
           -------------------------------------------------

          program call               : C:\Users\Christian\Miniconda3\Library\bin\xtb.exe P_S_adduct.xyz --gfn 2 --chrg 0 --opt --alpb water
          coordinate file            : P_S_adduct.xyz
          omp threads                :                    12


           -------------------------------------------------
          |                 G F N 2 - x T B                 |
           -------------------------------------------------

        Reference                      10.1021/acs.jctc.8b01176
      * Hamiltonian:
        H0-scaling (s, p, d)           1.850000    2.230000    2.230000
        zeta-weighting                 0.500000
      * Dispersion:
        s8                             2.700000
        a1                             0.520000
        a2                             5.000000
        s9                             5.000000
      * Repulsion:
        kExp                           1.500000    1.000000
        rExp                           1.000000
      * Coulomb:
        alpha                          2.000000
        third order                    shell-resolved
        anisotropic                    true
        a3                             3.000000
        a5                             4.000000
        cn-shift                       1.200000
        cn-exp                         4.000000
        max-rad                        5.000000

      * Solvation model:               ALPB
        Solvent                        water
        Parameter file                 internal GFN2-xTB/ALPB
        Dielectric constant                8.0200E+01
        Reference state                gsolv [1 M gas/solution]
        Free energy shift                  1.0808E-03 Eh       6.7819E-01 kcal/mol
        Temperature                        2.9815E+02 K
        Density                            1.0000E+00 kg/L
        Solvent mass                       1.8000E+01 g/mol
        Interaction kernel             P16
        Born radius scaling (c1)           1.4744E+00
        Born radii integrator          GBOBC
        Born offset                        0.0000E+00 a0       0.0000E+00 AA
        H-bond correction              true
        Ion screening                  false
        Surface tension                    1.0000E-05 Eh       1.5569E+01 dyn/cm
        Grid points                               230 per atom
q/qsh data taken from xtbrestart
CAMM data taken from xtbrestart

          ...................................................
          :                      SETUP                      :
          :.................................................:
          :  # basis functions                  49          :
          :  # atomic orbitals                  48          :
          :  # shells                           28          :
          :  # electrons                        48          :
          :  max. iterations                   250          :
          :  Hamiltonian                  GFN2-xTB          :
          :  restarted?                       true          :
          :  GBSA solvation                   true          :
          :  PC potential                    false          :
          :  electronic temp.          300.0000000     K    :
          :  accuracy                    1.0000000          :
          :  -> integral cutoff          0.2500000E+02      :
          :  -> integral neglect         0.1000000E-07      :
          :  -> SCF convergence          0.1000000E-05 Eh   :
          :  -> wf. convergence          0.1000000E-03 e    :
          :  Broyden damping             0.4000000          :
          :  net charge                          0          :
          :  unpaired electrons                  0          :
          ...................................................

 iter      E             dE          RMSdq      gap      omega  full diag
   1    -26.8361903 -0.268362E+02  0.170E+00    3.21       0.0  T
   2    -26.8382201 -0.202970E-02  0.801E-01    3.29       1.0  T
   3    -26.8383538 -0.133784E-03  0.237E-01    3.34       1.0  T
   4    -26.8384145 -0.606966E-04  0.923E-02    3.37       1.0  T
   5    -26.8384199 -0.535695E-05  0.206E-02    3.36       1.1  T
   6    -26.8384214 -0.153246E-05  0.927E-03    3.36       2.5  T
   7    -26.8384214 -0.188636E-07  0.320E-03    3.36       7.2  T
   8    -26.8384215 -0.444329E-07  0.144E-03    3.36      15.9  T
   9    -26.8384215 -0.351788E-08  0.489E-04    3.36      47.0  T
  10    -26.8384215 -0.222656E-09  0.160E-04    3.36     143.2  T

   *** convergence criteria satisfied after 10 iterations ***

         #    Occupation            Energy/Eh            Energy/eV
      -------------------------------------------------------------
         1        2.0000           -0.7175723             -19.5261
       ...           ...                  ...                  ...
        18        2.0000           -0.4783053             -13.0153
        19        2.0000           -0.4699119             -12.7870
        20        2.0000           -0.4627211             -12.5913
        21        2.0000           -0.4557038             -12.4003
        22        2.0000           -0.4114899             -11.1972
        23        2.0000           -0.3914372             -10.6515
        24        2.0000           -0.3649745              -9.9315 (HOMO)
        25                         -0.2413900              -6.5686 (LUMO)
        26                         -0.1965920              -5.3495
        27                         -0.1400586              -3.8112
        28                         -0.0273803              -0.7451
        29                         -0.0100307              -0.2730
       ...                                ...                  ...
        48                          0.5435339              14.7903
      -------------------------------------------------------------
                  HL-Gap            0.1235845 Eh            3.3629 eV
             Fermi-level           -0.3031823 Eh           -8.2500 eV

 SCC (total)                   0 d,  0 h,  0 min,  0.017 sec
 SCC setup                      ...        0 min,  0.001 sec (  3.117%)
 Dispersion                     ...        0 min,  0.000 sec (  1.919%)
 classical contributions        ...        0 min,  0.000 sec (  0.540%)
 integral evaluation            ...        0 min,  0.004 sec ( 20.670%)
 iterations                     ...        0 min,  0.010 sec ( 57.350%)
 molecular gradient             ...        0 min,  0.003 sec ( 14.786%)
 printout                       ...        0 min,  0.000 sec (  1.504%)

         :::::::::::::::::::::::::::::::::::::::::::::::::::::
         ::                     SUMMARY                     ::
         :::::::::::::::::::::::::::::::::::::::::::::::::::::
         :: total energy             -26.559645018178 Eh    ::
         :: total w/o Gsasa/hb       -26.560197724002 Eh    ::
         :: gradient norm              0.055078336078 Eh/a0 ::
         :: HOMO-LUMO gap              3.362905192072 eV    ::
         ::.................................................::
         :: SCC energy               -26.838341487802 Eh    ::
         :: -> isotropic ES            0.055201048825 Eh    ::
         :: -> anisotropic ES          0.000940750373 Eh    ::
         :: -> anisotropic XC          0.013746371986 Eh    ::
         :: -> dispersion             -0.014064659574 Eh    ::
         :: -> Gsolv                  -0.011666137604 Eh    ::
         ::    -> Gelec               -0.012218843428 Eh    ::
         ::    -> Gsasa                0.001750335239 Eh    ::
         ::    -> Ghb                 -0.002278389113 Eh    ::
         ::    -> Gshift               0.001080759698 Eh    ::
         :: repulsion energy           0.278696469624 Eh    ::
         :: add. restraining           0.000000000000 Eh    ::
         :: total charge              -0.000000000000 e     ::
         :::::::::::::::::::::::::::::::::::::::::::::::::::::

      ----------------------------------------------------------- 
     |                   =====================                   |
     |                        A N C O P T                        |
     |                   =====================                   |
     |               Approximate Normal Coordinate               |
     |                Rational Function Optimizer                |
      ----------------------------------------------------------- 
      ----------------------------------------------------------- 
     |                   =====================                   |
     |                        A N C O P T                        |
     |                   =====================                   |
     |               Approximate Normal Coordinate               |
     |                Rational Function Optimizer                |
      ----------------------------------------------------------- 

          ...................................................
          :                      SETUP                      :
          :.................................................:
          :   optimization level            normal          :
          :   max. optcycles                   200          :
          :   ANC micro-cycles                  20          :
          :   degrees of freedom                51          :
          :.................................................:
          :   RF solver                   davidson          :
          :   write xtbopt.log                true          :
          :   linear?                        false          :
          :   energy convergence         0.5000000E-05 Eh   :
          :   grad. convergence          0.1000000E-02 Eh/α :
          :   maxmium RF displ.          1.0000000          :
          :   Hlow (freq-cutoff)         0.1000000E-01      :
          :   Hmax (freq-cutoff)         5.0000000          :
          :   S6 in model hess.         20.0000000          :
          ...................................................

generating ANC from exact Hessian ...
Using Lindh-Hessian (1995)
 Shifting diagonal of input Hessian by    9.1877792083007240E-003
 Lowest  eigenvalues of input Hessian
    0.000000    0.000000    0.000000    0.000000    0.000000    0.000000
    0.010000    0.010559    0.012216    0.014502    0.016421    0.018955
    0.019126    0.020635    0.027170    0.032033    0.037212    0.043726
 Highest eigenvalues
    1.127453    1.139142    1.185509    1.510446    1.707307    2.149540


........................................................................
.............................. CYCLE    1 ..............................
........................................................................

 iter      E             dE          RMSdq      gap      omega  full diag
   1    -26.8384215 -0.268384E+02  0.386E-05    3.36       0.0  T
   2    -26.8384215 -0.100542E-11  0.243E-05    3.36     945.3  T
   3    -26.8384215 -0.479616E-12  0.817E-06    3.36    2807.0  T
     SCC iter.                  ...        0 min,  0.003 sec
     gradient                   ...        0 min,  0.003 sec
 * total energy  :   -26.5596450 Eh     change       -0.2308553E-10 Eh
   gradient norm :     0.0550782 Eh/α   predicted     0.0000000E+00 (-100.00%)
   displ. norm   :     0.2300151 α      lambda       -0.6068842E-02
   maximum displ.:     0.0949536 α      in ANC's #11, #14, #16, ...

........................................................................
.............................. CYCLE    2 ..............................
........................................................................

 iter      E             dE          RMSdq      gap      omega  full diag
   1    -26.8544392 -0.268544E+02  0.248E-01    3.50       0.0  T
   2    -26.8546057 -0.166464E-03  0.141E-01    3.48       1.0  T
   3    -26.8546097 -0.408136E-05  0.591E-02    3.49       1.0  T
   4    -26.8546113 -0.157469E-05  0.914E-03    3.48       2.5  T
   5    -26.8546116 -0.265286E-06  0.453E-03    3.49       5.1  T
   6    -26.8546116 -0.451823E-07  0.134E-03    3.49      17.1  T
   7    -26.8546116 -0.122827E-08  0.535E-04    3.49      42.9  T
   8    -26.8546116 -0.330211E-09  0.139E-04    3.49     164.5  T
     SCC iter.                  ...        0 min,  0.006 sec
     gradient                   ...        0 min,  0.002 sec
 * total energy  :   -26.5636886 Eh     change       -0.4043576E-02 Eh
   gradient norm :     0.0243768 Eh/α   predicted    -0.3195481E-02 ( -20.97%)
   displ. norm   :     0.1777301 α      lambda       -0.1470670E-02
   maximum displ.:     0.0895588 α      in ANC's #11, #3, #5, ...

........................................................................
.............................. CYCLE    3 ..............................
........................................................................

 iter      E             dE          RMSdq      gap      omega  full diag
   1    -26.8618721 -0.268619E+02  0.167E-01    3.55       0.0  T
   2    -26.8619882 -0.116113E-03  0.866E-02    3.54       1.0  T
   3    -26.8619909 -0.269384E-05  0.409E-02    3.54       1.0  T
   4    -26.8619913 -0.424647E-06  0.670E-03    3.55       3.4  T
   5    -26.8619913 -0.184785E-07  0.199E-03    3.55      11.5  T
   6    -26.8619914 -0.180264E-07  0.101E-03    3.55      22.6  T
   7    -26.8619914 -0.123495E-08  0.348E-04    3.55      65.9  T
   8    -26.8619914 -0.224599E-09  0.129E-04    3.55     178.4  T
     SCC iter.                  ...        0 min,  0.006 sec
     gradient                   ...        0 min,  0.002 sec
 * total energy  :   -26.5645497 Eh     change       -0.8610631E-03 Eh
   gradient norm :     0.0067584 Eh/α   predicted    -0.7587777E-03 ( -11.88%)
   displ. norm   :     0.1354243 α      lambda       -0.3519041E-03
   maximum displ.:     0.0881427 α      in ANC's #3, #11, #8, ...

........................................................................
.............................. CYCLE    4 ..............................
........................................................................

 iter      E             dE          RMSdq      gap      omega  full diag
   1    -26.8626983 -0.268627E+02  0.854E-02    3.55       0.0  T
   2    -26.8627157 -0.174088E-04  0.456E-02    3.56       1.0  T
   3    -26.8627163 -0.641453E-06  0.178E-02    3.56       1.3  T
   4    -26.8627166 -0.280396E-06  0.433E-03    3.56       5.3  T
   5    -26.8627167 -0.436974E-07  0.192E-03    3.56      11.9  T
   6    -26.8627167 -0.128873E-07  0.563E-04    3.56      40.8  T
   7    -26.8627167 -0.344809E-09  0.178E-04    3.56     128.8  T
     SCC iter.                  ...        0 min,  0.006 sec
     gradient                   ...        0 min,  0.003 sec
 * total energy  :   -26.5648322 Eh     change       -0.2825876E-03 Eh
   gradient norm :     0.0048984 Eh/α   predicted    -0.1791815E-03 ( -36.59%)
   displ. norm   :     0.3144582 α      lambda       -0.5779500E-03
   maximum displ.:     0.2127540 α      in ANC's #3, #11, #8, ...

........................................................................
.............................. CYCLE    5 ..............................
........................................................................

 iter      E             dE          RMSdq      gap      omega  full diag
   1    -26.8610482 -0.268610E+02  0.168E-01    3.54       0.0  T
   2    -26.8610709 -0.226797E-04  0.925E-02    3.55       1.0  T
   3    -26.8610718 -0.835675E-06  0.235E-02    3.55       1.0  T
   4    -26.8610739 -0.215123E-05  0.879E-03    3.55       2.6  T
   5    -26.8610741 -0.137193E-06  0.317E-03    3.55       7.2  T
   6    -26.8610741 -0.327626E-07  0.116E-03    3.55      19.7  T
   7    -26.8610741 -0.142562E-08  0.329E-04    3.55      69.8  T
   8    -26.8610741 -0.143757E-09  0.161E-04    3.55     142.8  T
     SCC iter.                  ...        0 min,  0.007 sec
     gradient                   ...        0 min,  0.003 sec
 * total energy  :   -26.5651886 Eh     change       -0.3563311E-03 Eh
   gradient norm :     0.0101127 Eh/α   predicted    -0.3175657E-03 ( -10.88%)
   displ. norm   :     0.1608242 α      lambda       -0.2038661E-03
   maximum displ.:     0.0986425 α      in ANC's #3, #8, #6, ...

........................................................................
.............................. CYCLE    6 ..............................
........................................................................

 iter      E             dE          RMSdq      gap      omega  full diag
   1    -26.8609383 -0.268609E+02  0.666E-02    3.56       0.0  T
   2    -26.8609390 -0.660400E-06  0.384E-02    3.56       1.0  T
   3    -26.8609392 -0.191437E-06  0.487E-03    3.56       4.7  T
   4    -26.8609392 -0.279217E-07  0.208E-03    3.56      11.0  T
   5    -26.8609392 -0.111833E-07  0.699E-04    3.56      32.8  T
   6    -26.8609392 -0.101795E-08  0.412E-04    3.56      55.7  T
     SCC iter.                  ...        0 min,  0.006 sec
     gradient                   ...        0 min,  0.003 sec
 * total energy  :   -26.5653537 Eh     change       -0.1650938E-03 Eh
   gradient norm :     0.0094808 Eh/α   predicted    -0.1046260E-03 ( -36.63%)
   displ. norm   :     0.2768442 α      lambda       -0.3773524E-03
   maximum displ.:     0.1551495 α      in ANC's #3, #8, #6, ...

........................................................................
.............................. CYCLE    7 ..............................
........................................................................

 iter      E             dE          RMSdq      gap      omega  full diag
   1    -26.8613829 -0.268614E+02  0.101E-01    3.58       0.0  T
   2    -26.8613863 -0.335285E-05  0.579E-02    3.58       1.0  T
   3    -26.8613863 -0.248785E-07  0.106E-02    3.58       2.2  T
   4    -26.8613868 -0.520879E-06  0.351E-03    3.58       6.5  T
   5    -26.8613869 -0.304712E-07  0.136E-03    3.58      16.9  T
   6    -26.8613869 -0.501505E-08  0.656E-04    3.58      35.0  T
   7    -26.8613869 -0.555964E-09  0.163E-04    3.58     141.0  T
     SCC iter.                  ...        0 min,  0.007 sec
     gradient                   ...        0 min,  0.002 sec
 * total energy  :   -26.5656062 Eh     change       -0.2525489E-03 Eh
   gradient norm :     0.0044156 Eh/α   predicted    -0.2031383E-03 ( -19.56%)
   displ. norm   :     0.2198249 α      lambda       -0.1572198E-03
   maximum displ.:     0.1218754 α      in ANC's #3, #6, #8, ...

........................................................................
.............................. CYCLE    8 ..............................
........................................................................

 iter      E             dE          RMSdq      gap      omega  full diag
   1    -26.8610121 -0.268610E+02  0.744E-02    3.58       0.0  T
   2    -26.8610125 -0.424581E-06  0.430E-02    3.58       1.0  T
   3    -26.8610126 -0.147594E-06  0.475E-03    3.58       4.8  T
   4    -26.8610126 -0.189122E-07  0.185E-03    3.58      12.4  T
   5    -26.8610127 -0.134045E-07  0.629E-04    3.58      36.4  T
   6    -26.8610127 -0.395410E-09  0.315E-04    3.58      72.8  T
     SCC iter.                  ...        0 min,  0.005 sec
     gradient                   ...        0 min,  0.002 sec
 * total energy  :   -26.5657152 Eh     change       -0.1090019E-03 Eh
   gradient norm :     0.0050151 Eh/α   predicted    -0.8241389E-04 ( -24.39%)
   displ. norm   :     0.1699815 α      lambda       -0.1300638E-03
   maximum displ.:     0.0785739 α      in ANC's #6, #8, #3, ...

........................................................................
.............................. CYCLE    9 ..............................
........................................................................

 iter      E             dE          RMSdq      gap      omega  full diag
   1    -26.8633541 -0.268634E+02  0.616E-02    3.60       0.0  T
   2    -26.8633574 -0.324827E-05  0.330E-02    3.60       1.0  T
   3    -26.8633574 -0.367881E-07  0.975E-03    3.60       2.4  T
   4    -26.8633577 -0.281338E-06  0.326E-03    3.60       7.0  T
   5    -26.8633577 -0.161687E-07  0.110E-03    3.60      20.9  T
   6    -26.8633577 -0.415533E-08  0.344E-04    3.60      66.7  T
   7    -26.8633577 -0.884803E-10  0.130E-04    3.60     176.9  T
     SCC iter.                  ...        0 min,  0.006 sec
     gradient                   ...        0 min,  0.003 sec
 * total energy  :   -26.5657871 Eh     change       -0.7191149E-04 Eh
   gradient norm :     0.0045475 Eh/α   predicted    -0.6691480E-04 (  -6.95%)
   displ. norm   :     0.1929603 α      lambda       -0.7383295E-04
   maximum displ.:     0.1179490 α      in ANC's #3, #6, #8, ...

........................................................................
.............................. CYCLE   10 ..............................
........................................................................

 iter      E             dE          RMSdq      gap      omega  full diag
   1    -26.8617702 -0.268618E+02  0.610E-02    3.59       0.0  T
   2    -26.8617708 -0.586681E-06  0.348E-02    3.60       1.0  T
   3    -26.8617708 -0.576196E-07  0.523E-03    3.59       4.4  T
   4    -26.8617709 -0.886200E-07  0.226E-03    3.60      10.2  T
   5    -26.8617709 -0.104428E-07  0.679E-04    3.60      33.8  T
   6    -26.8617709 -0.125761E-08  0.385E-04    3.60      59.6  T
     SCC iter.                  ...        0 min,  0.005 sec
     gradient                   ...        0 min,  0.002 sec
 * total energy  :   -26.5658150 Eh     change       -0.2782698E-04 Eh
   gradient norm :     0.0045869 Eh/α   predicted    -0.3829432E-04 (  37.62%)
   displ. norm   :     0.0352866 α      lambda       -0.4637125E-04
   maximum displ.:     0.0233767 α      in ANC's #3, #11, #10, ...

........................................................................
.............................. CYCLE   11 ..............................
........................................................................

 iter      E             dE          RMSdq      gap      omega  full diag
   1    -26.8631901 -0.268632E+02  0.227E-02    3.59       0.0  T
   2    -26.8631905 -0.404913E-06  0.122E-02    3.59       1.9  T
   3    -26.8631905 -0.331963E-07  0.323E-03    3.59       7.1  T
   4    -26.8631905 -0.101531E-07  0.104E-03    3.59      22.0  T
   5    -26.8631905 -0.355456E-09  0.271E-04    3.59      84.6  T
   6    -26.8631905 -0.277161E-09  0.109E-04    3.59     210.9  T
     SCC iter.                  ...        0 min,  0.005 sec
     gradient                   ...        0 min,  0.002 sec
 * total energy  :   -26.5658431 Eh     change       -0.2810422E-04 Eh
   gradient norm :     0.0016445 Eh/α   predicted    -0.2321485E-04 ( -17.40%)
   displ. norm   :     0.0653698 α      lambda       -0.2459108E-04
   maximum displ.:     0.0356119 α      in ANC's #6, #11, #5, ...

........................................................................
.............................. CYCLE   12 ..............................
........................................................................

 iter      E             dE          RMSdq      gap      omega  full diag
   1    -26.8637489 -0.268637E+02  0.323E-02    3.60       0.0  T
   2    -26.8637496 -0.702169E-06  0.180E-02    3.60       1.3  T
   3    -26.8637496  0.178968E-07  0.466E-03    3.60       4.9  T
   4    -26.8637497 -0.127157E-06  0.166E-03    3.60      13.8  T
   5    -26.8637497 -0.426280E-08  0.466E-04    3.60      49.3  T
   6    -26.8637497 -0.610630E-09  0.164E-04    3.60     140.1  T
     SCC iter.                  ...        0 min,  0.005 sec
     gradient                   ...        0 min,  0.002 sec
 * total energy  :   -26.5658629 Eh     change       -0.1978894E-04 Eh
   gradient norm :     0.0032429 Eh/α   predicted    -0.1231947E-04 ( -37.75%)
   displ. norm   :     0.0511957 α      lambda       -0.1639044E-04
   maximum displ.:     0.0316895 α      in ANC's #6, #3, #4, ...

........................................................................
.............................. CYCLE   13 ..............................
........................................................................

 iter      E             dE          RMSdq      gap      omega  full diag
   1    -26.8632009 -0.268632E+02  0.196E-02    3.59       0.0  T
   2    -26.8632013 -0.417503E-06  0.103E-02    3.59       2.2  T
   3    -26.8632013 -0.533954E-08  0.325E-03    3.59       7.1  T
   4    -26.8632014 -0.374266E-07  0.111E-03    3.59      20.7  T
   5    -26.8632014 -0.203718E-08  0.420E-04    3.59      54.6  T
   6    -26.8632014 -0.413092E-09  0.123E-04    3.59     186.6  T
     SCC iter.                  ...        0 min,  0.005 sec
     gradient                   ...        0 min,  0.002 sec
 * total energy  :   -26.5658753 Eh     change       -0.1248048E-04 Eh
   gradient norm :     0.0017777 Eh/α   predicted    -0.8218005E-05 ( -34.15%)
   displ. norm   :     0.1194394 α      lambda       -0.2357073E-04
   maximum displ.:     0.0619631 α      in ANC's #4, #6, #3, ...

........................................................................
.............................. CYCLE   14 ..............................
........................................................................

 iter      E             dE          RMSdq      gap      omega  full diag
   1    -26.8621462 -0.268621E+02  0.477E-02    3.57       0.0  T
   2    -26.8621473 -0.113184E-05  0.256E-02    3.57       1.0  T
   3    -26.8621473 -0.333282E-07  0.612E-03    3.57       3.7  T
   4    -26.8621474 -0.125405E-06  0.253E-03    3.58       9.1  T
   5    -26.8621475 -0.804576E-08  0.801E-04    3.57      28.7  T
   6    -26.8621475 -0.246862E-08  0.368E-04    3.57      62.3  T
     SCC iter.                  ...        0 min,  0.006 sec
     gradient                   ...        0 min,  0.002 sec
 * total energy  :   -26.5658886 Eh     change       -0.1327953E-04 Eh
   gradient norm :     0.0028179 Eh/α   predicted    -0.1186065E-04 ( -10.68%)
   displ. norm   :     0.0205567 α      lambda       -0.1051026E-04
   maximum displ.:     0.0138549 α      in ANC's #2, #3, #7, ...

........................................................................
.............................. CYCLE   15 ..............................
........................................................................

 iter      E             dE          RMSdq      gap      omega  full diag
   1    -26.8623874 -0.268624E+02  0.932E-03    3.58       0.0  T
   2    -26.8623875 -0.542468E-07  0.513E-03    3.58       4.5  T
   3    -26.8623875 -0.248089E-08  0.133E-03    3.58      17.2  T
   4    -26.8623875 -0.370686E-08  0.390E-04    3.58      58.8  T
   5    -26.8623875 -0.100957E-09  0.140E-04    3.58     163.7  T
     SCC iter.                  ...        0 min,  0.004 sec
     gradient                   ...        0 min,  0.003 sec
 * total energy  :   -26.5658961 Eh     change       -0.7481223E-05 Eh
   gradient norm :     0.0020277 Eh/α   predicted    -0.5261397E-05 ( -29.67%)
   displ. norm   :     0.0328362 α      lambda       -0.1214477E-04
   maximum displ.:     0.0246004 α      in ANC's #2, #1, #8, ...

........................................................................
.............................. CYCLE   16 ..............................
........................................................................

 iter      E             dE          RMSdq      gap      omega  full diag
   1    -26.8631642 -0.268632E+02  0.169E-02    3.58       0.0  T
   2    -26.8631644 -0.187099E-06  0.894E-03    3.58       2.6  T
   3    -26.8631644 -0.876085E-09  0.226E-03    3.58      10.1  T
   4    -26.8631644 -0.242390E-07  0.869E-04    3.58      26.4  T
   5    -26.8631644 -0.112367E-08  0.290E-04    3.58      79.2  T
     SCC iter.                  ...        0 min,  0.005 sec
     gradient                   ...        0 min,  0.002 sec
 * total energy  :   -26.5659040 Eh     change       -0.7933362E-05 Eh
   gradient norm :     0.0006870 Eh/α   predicted    -0.6080043E-05 ( -23.36%)
   displ. norm   :     0.0720846 α      lambda       -0.7505232E-05
   maximum displ.:     0.0382269 α      in ANC's #2, #3, #7, ...

........................................................................
.............................. CYCLE   17 ..............................
........................................................................

 iter      E             dE          RMSdq      gap      omega  full diag
   1    -26.8632038 -0.268632E+02  0.232E-02    3.58       0.0  T
   2    -26.8632039 -0.127126E-06  0.129E-02    3.58       1.8  T
   3    -26.8632040 -0.117717E-07  0.231E-03    3.58       9.9  T
   4    -26.8632040 -0.146049E-07  0.108E-03    3.58      21.2  T
   5    -26.8632040 -0.242265E-08  0.257E-04    3.58      89.4  T
   6    -26.8632040 -0.226287E-09  0.158E-04    3.58     144.8  T
     SCC iter.                  ...        0 min,  0.007 sec
     gradient                   ...        0 min,  0.002 sec
 * total energy  :   -26.5659114 Eh     change       -0.7338860E-05 Eh
   gradient norm :     0.0013560 Eh/α   predicted    -0.3763262E-05 ( -48.72%)
   displ. norm   :     0.0788919 α      lambda       -0.8324777E-05
   maximum displ.:     0.0483795 α      in ANC's #2, #3, #7, ...

........................................................................
.............................. CYCLE   18 ..............................
........................................................................

 iter      E             dE          RMSdq      gap      omega  full diag
   1    -26.8632105 -0.268632E+02  0.281E-02    3.58       0.0  T
   2    -26.8632106 -0.156599E-06  0.150E-02    3.58       1.5  T
   3    -26.8632107 -0.277645E-07  0.264E-03    3.58       8.7  T
   4    -26.8632107 -0.530260E-08  0.117E-03    3.58      19.6  T
   5    -26.8632107 -0.523303E-08  0.248E-04    3.58      92.5  T
   6    -26.8632107 -0.106127E-09  0.164E-04    3.58     139.8  T
     SCC iter.                  ...        0 min,  0.005 sec
     gradient                   ...        0 min,  0.002 sec
 * total energy  :   -26.5659209 Eh     change       -0.9532484E-05 Eh
   gradient norm :     0.0011418 Eh/α   predicted    -0.4176091E-05 ( -56.19%)
   displ. norm   :     0.1588592 α      lambda       -0.1311800E-04
   maximum displ.:     0.0893140 α      in ANC's #2, #3, #7, ...

........................................................................
.............................. CYCLE   19 ..............................
........................................................................

 iter      E             dE          RMSdq      gap      omega  full diag
   1    -26.8624268 -0.268624E+02  0.536E-02    3.58       0.0  T
   2    -26.8624274 -0.608303E-06  0.285E-02    3.58       1.0  T
   3    -26.8624275 -0.936447E-07  0.520E-03    3.58       4.4  T
   4    -26.8624275 -0.158211E-07  0.215E-03    3.58      10.7  T
   5    -26.8624275 -0.115307E-07  0.456E-04    3.58      50.3  T
   6    -26.8624275 -0.103988E-08  0.272E-04    3.58      84.2  T
     SCC iter.                  ...        0 min,  0.005 sec
     gradient                   ...        0 min,  0.002 sec
 * total energy  :   -26.5659331 Eh     change       -0.1224312E-04 Eh
   gradient norm :     0.0018276 Eh/α   predicted    -0.6634198E-05 ( -45.81%)
   displ. norm   :     0.1609394 α      lambda       -0.1442682E-04
   maximum displ.:     0.1116460 α      in ANC's #2, #1, #7, ...

........................................................................
.............................. CYCLE   20 ..............................
........................................................................

 iter      E             dE          RMSdq      gap      omega  full diag
   1    -26.8626654 -0.268627E+02  0.730E-02    3.58       0.0  T
   2    -26.8626664 -0.101187E-05  0.368E-02    3.58       1.0  T
   3    -26.8626667 -0.227597E-06  0.628E-03    3.58       3.7  T
   4    -26.8626667  0.364802E-08  0.190E-03    3.58      12.1  T
   5    -26.8626667 -0.205580E-07  0.556E-04    3.58      41.3  T
   6    -26.8626667 -0.357737E-09  0.346E-04    3.58      66.3  T
     SCC iter.                  ...        0 min,  0.005 sec
     gradient                   ...        0 min,  0.002 sec
 * total energy  :   -26.5659465 Eh     change       -0.1337739E-04 Eh
   gradient norm :     0.0020914 Eh/α   predicted    -0.7300540E-05 ( -45.43%)
   displ. norm   :     0.0721973 α      lambda       -0.9315813E-05
   maximum displ.:     0.0471932 α      in ANC's #2, #1, #7, ...
 * RMSD in coord.:     0.4263437 α      energy gain  -0.6301500E-02 Eh

generating ANC from exact Hessian ...
Using Lindh-Hessian (1995)
 Shifting diagonal of input Hessian by    9.1158271143026263E-003
 Lowest  eigenvalues of input Hessian
    0.000000    0.000000    0.000000    0.000000    0.000000    0.000000
    0.010000    0.010616    0.012162    0.014805    0.017134    0.019649
    0.020485    0.021478    0.027980    0.032306    0.040654    0.048879
 Highest eigenvalues
    1.155191    1.162538    1.236328    1.563767    1.886783    2.272935


........................................................................
.............................. CYCLE   21 ..............................
........................................................................

 iter      E             dE          RMSdq      gap      omega  full diag
   1    -26.8628717 -0.268629E+02  0.323E-02    3.58       0.0  T
   2    -26.8628719 -0.195626E-06  0.163E-02    3.58       1.4  T
   3    -26.8628719 -0.411625E-07  0.284E-03    3.58       8.1  T
   4    -26.8628719 -0.967248E-09  0.770E-04    3.58      29.8  T
   5    -26.8628719 -0.826930E-09  0.178E-04    3.58     128.5  T
     SCC iter.                  ...        0 min,  0.004 sec
     gradient                   ...        0 min,  0.002 sec
 * total energy  :   -26.5659539 Eh     change       -0.7378436E-05 Eh
   gradient norm :     0.0013847 Eh/α   predicted     0.0000000E+00 (-100.00%)
   displ. norm   :     0.0168781 α      lambda       -0.1879611E-05
   maximum displ.:     0.0116890 α      in ANC's #3, #1, #5, ...

........................................................................
.............................. CYCLE   22 ..............................
........................................................................

 iter      E             dE          RMSdq      gap      omega  full diag
   1    -26.8632596 -0.268633E+02  0.104E-02    3.58       0.0  T
   2    -26.8632597 -0.645231E-07  0.536E-03    3.58       4.3  T
   3    -26.8632597 -0.160317E-08  0.135E-03    3.58      17.1  T
   4    -26.8632597 -0.829229E-08  0.587E-04    3.58      39.1  T
   5    -26.8632597 -0.419679E-09  0.153E-04    3.58     150.2  T
     SCC iter.                  ...        0 min,  0.004 sec
     gradient                   ...        0 min,  0.002 sec
 * total energy  :   -26.5659584 Eh     change       -0.4522085E-05 Eh
   gradient norm :     0.0004562 Eh/α   predicted    -0.2481231E-05 ( -45.13%)
   displ. norm   :     0.0243586 α      lambda       -0.2356522E-05
   maximum displ.:     0.0176375 α      in ANC's #3, #1, #8, ...

   *** GEOMETRY OPTIMIZATION CONVERGED AFTER 22 ITERATIONS ***

------------------------------------------------------------------------
 total energy gain   :        -0.0063134 Eh       -3.9617 kcal/mol
 total RMSD          :         0.4275950 a0        0.2263 Å
 total power (kW/mol):        -0.7534468 (step)  -68.9759 (real)
------------------------------------------------------------------------

 ANCopt (total)                0 d,  0 h,  0 min,  0.240 sec
 optimizer setup                ...        0 min,  0.000 sec (  0.099%)
 model hessian                  ...        0 min,  0.010 sec (  4.101%)
 ANC generation                 ...        0 min,  0.001 sec (  0.303%)
 coordinate transformation      ...        0 min,  0.000 sec (  0.077%)
 single point calculation       ...        0 min,  0.218 sec ( 90.916%)
 optimization log               ...        0 min,  0.004 sec (  1.760%)
 hessian update                 ...        0 min,  0.002 sec (  0.907%)
 rational function              ...        0 min,  0.003 sec (  1.277%)

================
 final structure:
================
19
 xtb: 6.7.1 (edcfbbe)
C           -1.93826331038920        1.21288953016706       -0.85111550932832
N           -1.12848865750448        0.32993478531726       -0.03638946157763
C           -1.63408394724205       -1.02073635896787        0.06620313741574
C            0.03607644328071        0.76448242790857        0.45129565218195
O            0.44002967221753        1.92032769650966        0.27628637488336
C            0.89988732069454       -0.21031053032352        1.22410870890494
S            1.57810413048347       -1.49315861844867        0.11825624805710
C            2.68974265392303       -0.46920717834370       -0.88302045037297
H           -2.90788319461834        1.36981569954787       -0.37818022930875
H           -2.08269217396667        0.77435930684106       -1.83864489641620
H           -1.42427461037498        2.16719178629142       -0.94603565842149
H           -1.35425296849950       -1.59953819280065       -0.81645639016064
H           -1.24890690127182       -1.52890775074788        0.94366107526185
H           -2.71968142267595       -0.97555872945948        0.13211734338498
H            1.73611295306055        0.33688352286800        1.65969963384371
H            0.35320555154684       -0.73067611037082        2.00662510270688
H            2.13834704992963        0.38137589127081       -1.27287709117460
H            3.04774435875114       -1.09489288431922       -1.69262009350549
H            3.51927705265565       -0.13427629294020       -0.26706249637441

 Bond Distances (Angstroems)
 ---------------------------
C1-N2=1.4488         C1-H9=1.0902         C1-H10=1.0901        C1-H11=1.0881        N2-C1=1.4488         N2-C3=1.4458         
N2-C4=1.3352         C3-N2=1.4458         C3-H12=1.0920        C3-H13=1.0847        C3-H14=1.0885        C4-N2=1.3352         
C4-O5=1.2368         C4-C6=1.5145         O5-C4=1.2368         C6-C4=1.5145         C6-S7=1.8244         C6-H15=1.0902        
C6-H16=1.0872        S7-C6=1.8244         S7-C8=1.8129         C8-S7=1.8129         C8-H17=1.0861        C8-H18=1.0840        
C8-H19=1.0861        H9-C1=1.0902         H10-C1=1.0901        H11-C1=1.0881        H12-C3=1.0920        H13-C3=1.0847        
H14-C3=1.0885        H15-C6=1.0902        H16-C6=1.0872        H17-C8=1.0861        H18-C8=1.0840        H19-C8=1.0861        
 C  H  Rav=1.0879 sigma=0.0024  Rmin=1.0840  Rmax=1.0920    11
 C  C  Rav=1.5145 sigma=0.0000  Rmin=1.5145  Rmax=1.5145     1
 N  C  Rav=1.4100 sigma=0.0529  Rmin=1.3352  Rmax=1.4488     3
 O  C  Rav=1.2368 sigma=0.0000  Rmin=1.2368  Rmax=1.2368     1
 S  C  Rav=1.8187 sigma=0.0057  Rmin=1.8129  Rmax=1.8244     2

 selected bond angles (degree)
 --------------------
H9-C1-N2=109.93                H10-C1-N2=109.77               H10-C1-H9=109.45               H11-C1-N2=108.63               
H11-C1-H9=109.37               H11-C1-H10=109.66              C3-N2-C1=114.44                C4-N2-C1=119.64                
C4-N2-C3=125.67                H12-C3-N2=110.38               H13-C3-N2=111.77               H13-C3-H12=108.33              
H14-C3-N2=108.32               H14-C3-H12=109.06              H14-C3-H13=108.94              O5-C4-N2=122.50                
C6-C4-N2=118.32                C6-C4-O5=119.17                S7-C6-C4=110.81                H15-C6-C4=108.56               
H15-C6-S7=108.06               H16-C6-C4=112.86               H16-C6-S7=106.66               H16-C6-H15=109.78              
C8-S7-C6= 99.53                H17-C8-S7=109.23               H18-C8-S7=106.80               H18-C8-H17=110.59              
H19-C8-S7=109.22               H19-C8-H17=110.48              H19-C8-H18=110.44              

 selected dihedral angles (degree)
 ---------------------------------
C3-N2-C1-H9= 65.98            C3-N2-C1-H10=305.53           C3-N2-C1-H11=185.63           C4-N2-C1-H9=240.54            
C4-N2-C1-H10=120.09           C4-N2-C1-H11=  0.19           H12-C3-N2-C1= 81.08           H12-C3-N2-C4=266.90           
H13-C3-N2-C1=201.72           H13-C3-N2-C4= 27.54           H14-C3-N2-C1=321.75           H14-C3-N2-C4=147.57           
O5-C4-N2-C1=  2.67            O5-C4-N2-C3=176.57            C6-C4-N2-C1=183.87            C6-C4-N2-C3=357.77            
S7-C6-C4-N2= 69.03            S7-C6-C4-O5=250.18            H15-C6-C4-N2=187.55           H15-C6-C4-O5=  8.70           
H16-C6-C4-N2=309.48           H16-C6-C4-O5=130.64           C8-S7-C6-C4= 67.39            C8-S7-C6-H15=308.56           
C8-S7-C6-H16=190.59           H17-C8-S7-C6=308.24           H18-C8-S7-C6=188.62           H19-C8-S7-C6= 69.17           
           -------------------------------------------------
          |                Final Singlepoint                |
           -------------------------------------------------

          ...................................................
          :                      SETUP                      :
          :.................................................:
          :  # basis functions                  49          :
          :  # atomic orbitals                  48          :
          :  # shells                           28          :
          :  # electrons                        48          :
          :  max. iterations                   250          :
          :  Hamiltonian                  GFN2-xTB          :
          :  restarted?                      false          :
          :  GBSA solvation                   true          :
          :  PC potential                    false          :
          :  electronic temp.          300.0000000     K    :
          :  accuracy                    1.0000000          :
          :  -> integral cutoff          0.2500000E+02      :
          :  -> integral neglect         0.1000000E-07      :
          :  -> SCF convergence          0.1000000E-05 Eh   :
          :  -> wf. convergence          0.1000000E-03 e    :
          :  Broyden damping             0.4000000          :
          :  net charge                          0          :
          :  unpaired electrons                  0          :
          ...................................................

 iter      E             dE          RMSdq      gap      omega  full diag
   1    -26.8632597 -0.268633E+02  0.697E-05    3.58       0.0  T
   2    -26.8632597 -0.319744E-11  0.491E-05    3.58     467.0  T
   3    -26.8632597 -0.328626E-11  0.152E-05    3.58    1506.3  T

   *** convergence criteria satisfied after 3 iterations ***

         #    Occupation            Energy/Eh            Energy/eV
      -------------------------------------------------------------
         1        2.0000           -0.7177850             -19.5319
       ...           ...                  ...                  ...
        18        2.0000           -0.4793372             -13.0434
        19        2.0000           -0.4676309             -12.7249
        20        2.0000           -0.4633395             -12.6081
        21        2.0000           -0.4544858             -12.3672
        22        2.0000           -0.4081689             -11.1068
        23        2.0000           -0.3946279             -10.7384
        24        2.0000           -0.3639684              -9.9041 (HOMO)
        25                         -0.2325054              -6.3268 (LUMO)
        26                         -0.1927499              -5.2450
        27                         -0.1376220              -3.7449
        28                         -0.0147357              -0.4010
        29                         -0.0063378              -0.1725
       ...                                ...                  ...
        48                          0.5665775              15.4174
      -------------------------------------------------------------
                  HL-Gap            0.1314630 Eh            3.5773 eV
             Fermi-level           -0.2982369 Eh           -8.1154 eV

 SCC (total)                   0 d,  0 h,  0 min,  0.007 sec
 SCC setup                      ...        0 min,  0.000 sec (  5.615%)
 Dispersion                     ...        0 min,  0.000 sec (  3.869%)
 classical contributions        ...        0 min,  0.000 sec (  1.608%)
 integral evaluation            ...        0 min,  0.001 sec ( 13.203%)
 iterations                     ...        0 min,  0.003 sec ( 40.339%)
 molecular gradient             ...        0 min,  0.002 sec ( 32.017%)
 printout                       ...        0 min,  0.000 sec (  3.082%)

         :::::::::::::::::::::::::::::::::::::::::::::::::::::
         ::                     SUMMARY                     ::
         :::::::::::::::::::::::::::::::::::::::::::::::::::::
         :: total energy             -26.565958418678 Eh    ::
         :: total w/o Gsasa/hb       -26.566316222097 Eh    ::
         :: gradient norm              0.000456747785 Eh/a0 ::
         :: HOMO-LUMO gap              3.577289816072 eV    ::
         ::.................................................::
         :: SCC energy               -26.863178221633 Eh    ::
         :: -> isotropic ES            0.060216171527 Eh    ::
         :: -> anisotropic ES         -0.001270423976 Eh    ::
         :: -> anisotropic XC          0.013399267635 Eh    ::
         :: -> dispersion             -0.014240907688 Eh    ::
         :: -> Gsolv                  -0.013276808186 Eh    ::
         ::    -> Gelec               -0.013634611606 Eh    ::
         ::    -> Gsasa                0.001836170041 Eh    ::
         ::    -> Ghb                 -0.002559126319 Eh    ::
         ::    -> Gshift               0.001080759698 Eh    ::
         :: repulsion energy           0.297219802956 Eh    ::
         :: add. restraining           0.000000000000 Eh    ::
         :: total charge              -0.000000000000 e     ::
         :::::::::::::::::::::::::::::::::::::::::::::::::::::

           -------------------------------------------------
          |                Property Printout                |
           -------------------------------------------------

    * Orbital Energies and Occupations

         #    Occupation            Energy/Eh            Energy/eV
      -------------------------------------------------------------
         1        2.0000           -0.7177850             -19.5319
       ...           ...                  ...                  ...
        12        2.0000           -0.5146741             -14.0050
        13        2.0000           -0.5056057             -13.7582
        14        2.0000           -0.4981639             -13.5557
        15        2.0000           -0.4927157             -13.4075
        16        2.0000           -0.4918671             -13.3844
        17        2.0000           -0.4803217             -13.0702
        18        2.0000           -0.4793372             -13.0434
        19        2.0000           -0.4676309             -12.7249
        20        2.0000           -0.4633395             -12.6081
        21        2.0000           -0.4544858             -12.3672
        22        2.0000           -0.4081689             -11.1068
        23        2.0000           -0.3946279             -10.7384
        24        2.0000           -0.3639684              -9.9041 (HOMO)
        25                         -0.2325054              -6.3268 (LUMO)
        26                         -0.1927499              -5.2450
        27                         -0.1376220              -3.7449
        28                         -0.0147357              -0.4010
        29                         -0.0063378              -0.1725
        30                          0.0060383               0.1643
        31                          0.0129515               0.3524
        32                          0.0827720               2.2523
        33                          0.1150067               3.1295
        34                          0.1314800               3.5778
        35                          0.1371226               3.7313
       ...                                ...                  ...
        48                          0.5665775              15.4174
      -------------------------------------------------------------
                  HL-Gap            0.1314630 Eh            3.5773 eV
             Fermi-level           -0.2982369 Eh           -8.1154 eV

     #   Z          covCN         q      C6AA      α(0)
     1   6 C        3.707    -0.065    21.904     6.690
     2   7 N        2.731    -0.061    22.431     7.034
     3   6 C        3.698    -0.075    22.110     6.725
     4   6 C        2.800     0.263    22.567     7.782
     5   8 O        0.859    -0.555    25.036     6.709
     6   6 C        3.798    -0.038    21.255     6.564
     7  16 S        1.976    -0.216   150.258    20.631
     8   6 C        3.745    -0.057    21.671     6.641
     9   1 H        0.925     0.073     2.056     2.242
    10   1 H        0.925     0.076     2.020     2.223
    11   1 H        0.925     0.075     2.028     2.227
    12   1 H        0.924     0.081     1.968     2.194
    13   1 H        0.925     0.079     1.991     2.207
    14   1 H        0.925     0.088     1.899     2.155
    15   1 H        0.925     0.065     2.143     2.289
    16   1 H        0.925     0.080     1.976     2.198
    17   1 H        0.925     0.053     2.285     2.364
    18   1 H        0.925     0.077     2.013     2.218
    19   1 H        0.925     0.058     2.224     2.332

 Mol. C6AA /au·bohr⁶  :       3718.218133
 Mol. C8AA /au·bohr⁸  :      96214.309485
 Mol. α(0) /au        :         93.426714


Wiberg/Mayer (AO) data.
largest (>0.10) Wiberg bond orders for each atom

 ---------------------------------------------------------------------------
     #   Z sym  total        # sym  WBO       # sym  WBO       # sym  WBO
 ---------------------------------------------------------------------------
     1   6 C    3.958 --     2 N    0.990    11 H    0.977    10 H    0.973
                             9 H    0.973
     2   7 N    3.554 --     4 C    1.329     3 C    0.993     1 C    0.990
                             5 O    0.199
     3   6 C    3.952 --     2 N    0.993    14 H    0.974    13 H    0.972
                            12 H    0.968
     4   6 C    3.954 --     5 O    1.562     2 N    1.329     6 C    0.976
     5   8 O    1.896 --     4 C    1.562     2 N    0.199
     6   6 C    3.979 --     7 S    0.980     4 C    0.976    15 H    0.972
                            16 H    0.955
     7  16 S    2.104 --     8 C    1.011     6 C    0.980
     8   6 C    3.974 --     7 S    1.011    19 H    0.984    17 H    0.984
                            18 H    0.978
     9   1 H    0.994 --     1 C    0.973
    10   1 H    0.994 --     1 C    0.973
    11   1 H    0.994 --     1 C    0.977
    12   1 H    0.993 --     3 C    0.968
    13   1 H    0.994 --     3 C    0.972
    14   1 H    0.992 --     3 C    0.974
    15   1 H    0.996 --     6 C    0.972
    16   1 H    0.994 --     6 C    0.955
    17   1 H    0.997 --     8 C    0.984
    18   1 H    0.994 --     8 C    0.978
    19   1 H    0.997 --     8 C    0.984
 ---------------------------------------------------------------------------

Topologies differ in total number of bonds
Writing topology from bond orders to xtbtopo.mol

molecular dipole:
                 x           y           z       tot (Debye)
 q only:       -1.279      -1.234      -0.313
   full:       -1.110      -0.879      -0.246       3.654
molecular quadrupole (traceless):
                xx          xy          yy          xz          yz          zz
 q only:        8.647      -0.705     -11.122      -0.131      -2.080       2.475
  q+dip:       11.100       0.417     -15.929       0.123      -1.386       4.829
   full:       10.574       0.385     -15.432      -0.921      -1.354       4.858

           -------------------------------------------------
          |                Geometry Summary                 |
           -------------------------------------------------

      molecular mass/u    :      133.2119233
   center of mass at/Å    :        0.3117272      -0.0769185       0.0398083
  moments of inertia/u·Å² :        0.1944658E+03   0.4237928E+03   0.5044836E+03
rotational constants/cm⁻¹ :        0.8668686E-01   0.3977801E-01   0.3341562E-01

 * 15 selected distances

     #   Z          #   Z                                           value/Å
     1   6 C        2   7 N                                       1.4488350 (max)
     2   7 N        3   6 C                                       1.4458440
     2   7 N        4   6 C                                       1.3352455
     4   6 C        5   8 O                                       1.2368448
     1   6 C        9   1 H                                       1.0901635
     1   6 C       10   1 H                                       1.0901298
     1   6 C       11   1 H                                       1.0880658
     3   6 C       12   1 H                                       1.0919730
     3   6 C       13   1 H                                       1.0846807
     3   6 C       14   1 H                                       1.0885347
     6   6 C       15   1 H                                       1.0901533
     6   6 C       16   1 H                                       1.0871860
     8   6 C       17   1 H                                       1.0860557
     8   6 C       18   1 H                                       1.0840201 (min)
     8   6 C       19   1 H                                       1.0861448

 * 3 distinct bonds (by element types)

   Z      Z             #   av. dist./Å        max./Å        min./Å
   1 H    6 C          11     1.0879189     1.0919730     1.0840201
   6 C    7 N           3     1.4099748     1.4488350     1.3352455
   6 C    8 O           1     1.2368448     1.2368448     1.2368448


optimized geometry written to: xtbopt.xyz


           -------------------------------------------------
          | TOTAL ENERGY              -26.565958418678 Eh   |
          | GRADIENT NORM               0.000456747785 Eh/α |
          | HOMO-LUMO GAP               3.577289816072 eV   |
           -------------------------------------------------

------------------------------------------------------------------------
 * finished run on 2026/08/28 at 17:58:34.384     
------------------------------------------------------------------------
 total:
 * wall-time:     0 d,  0 h,  0 min,  0.298 sec
 *  cpu-time:     0 d,  0 h,  0 min,  1.766 sec
 * ratio c/w:     5.917 speedup
 SCF:
 * wall-time:     0 d,  0 h,  0 min,  0.018 sec
 *  cpu-time:     0 d,  0 h,  0 min,  0.094 sec
 * ratio c/w:     5.318 speedup
 ANC optimizer:
 * wall-time:     0 d,  0 h,  0 min,  0.251 sec
 *  cpu-time:     0 d,  0 h,  0 min,  1.656 sec
 * ratio c/w:     6.597 speedup

