19

C     -2.452363    1.252846   -0.687489
N     -1.518677    0.319227   -0.094578
C     -1.979358   -1.021778    0.213359
C     -0.187287    0.749216    0.163899
O      0.095563    1.932108   -0.144817
C      0.839267   -0.119685    0.763089
Se     1.830506   -1.085334   -0.595356
C      3.674021   -0.520977   -0.722019
H     -3.409053    1.183903   -0.090856
H     -2.726714    0.842754   -1.690485
H     -2.066534    2.273331   -0.741228
H     -1.745150   -1.658077   -0.676848
H     -1.500103   -1.414129    1.146947
H     -3.058655   -1.068567    0.396420
H      1.562501    0.520282    1.297653
H      0.423367   -0.843662    1.515563
H      3.822715    0.482553   -1.134315
H      4.207418   -1.313461   -1.305813
H      4.188536   -0.510550    0.282725
