      -----------------------------------------------------------      
     |                   =====================                   |     
     |                           x T B                           |     
     |                   =====================                   |     
     |                         S. Grimme                         |     
     |          Mulliken Center for Theoretical Chemistry        |     
     |                    University of Bonn                     |     
      -----------------------------------------------------------      

   * xtb version 6.7.1 (edcfbbe) compiled by 'VssAdministrator@runnervm171ch' on 2026-06-10

   xtb is free software: you can redistribute it and/or modify it under
   the terms of the GNU Lesser General Public License as published by
   the Free Software Foundation, either version 3 of the License, or
   (at your option) any later version.
   
   xtb is distributed in the hope that it will be useful,
   but WITHOUT ANY WARRANTY; without even the implied warranty of
   MERCHANTABILITY or FITNESS FOR A PARTICULAR PURPOSE.  See the
   GNU Lesser General Public License for more details.
   
   Cite this work as:
   * C. Bannwarth, E. Caldeweyher, S. Ehlert, A. Hansen, P. Pracht,
     J. Seibert, S. Spicher, S. Grimme, WIREs Comput. Mol. Sci., 2020, 11,
     e01493. DOI: 10.1002/wcms.1493
   
   for GFN2-xTB:
   * C. Bannwarth, S. Ehlert and S. Grimme., J. Chem. Theory Comput., 2019,
     15, 1652-1671. DOI: 10.1021/acs.jctc.8b01176
   for GFN1-xTB:
   * S. Grimme, C. Bannwarth, P. Shushkov, J. Chem. Theory Comput., 2017,
     13, 1989-2009. DOI: 10.1021/acs.jctc.7b00118
   for GFN0-xTB:
   * P. Pracht, E. Caldeweyher, S. Ehlert, S. Grimme, ChemRxiv, 2019, preprint.
     DOI: 10.26434/chemrxiv.8326202.v1
   for GFN-FF:
   * S. Spicher and S. Grimme, Angew. Chem. Int. Ed., 2020, 59, 15665-15673.
     DOI: 10.1002/anie.202004239
   
   for ALPB and GBSA implicit solvation:
   * S. Ehlert, M. Stahn, S. Spicher, S. Grimme, J. Chem. Theory Comput.,
     2021, 17, 4250-4261. DOI: 10.1021/acs.jctc.1c00471
   
   for ddCOSMO and CPCM-X implicit solvation:
   * M. Stahn, S. Ehlert, S. Grimme, J. Phys. Chem. A,
     2023, XX, XXXX-XXXX. DOI: 10.1021/acs.jpca.3c04382
   
   for DFT-D4:
   * E. Caldeweyher, C. Bannwarth and S. Grimme, J. Chem. Phys., 2017,
     147, 034112. DOI: 10.1063/1.4993215
   * E. Caldeweyher, S. Ehlert, A. Hansen, H. Neugebauer, S. Spicher,
     C. Bannwarth and S. Grimme, J. Chem. Phys., 2019, 150, 154122.
     DOI: 10.1063/1.5090222
   * E. Caldeweyher, J.-M. Mewes, S. Ehlert and S. Grimme, Phys. Chem. Chem. Phys.
     2020, 22, 8499-8512. DOI: 10.1039/D0CP00502A
   
   for sTDA-xTB:
   * S. Grimme and C. Bannwarth, J. Chem. Phys., 2016, 145, 054103.
     DOI: 10.1063/1.4959605
   
   in the mass-spec context:
   * V. Asgeirsson, C. Bauer and S. Grimme, Chem. Sci., 2017, 8, 4879.
     DOI: 10.1039/c7sc00601b
   * J. Koopman and S. Grimme, ACS Omega 2019, 4, 12, 15120-15133.
     DOI: 10.1021/acsomega.9b02011
   
   for metadynamics refer to:
   * S. Grimme, J. Chem. Theory Comput., 2019, 155, 2847-2862
     DOI: 10.1021/acs.jctc.9b00143
   
   for SPH calculations refer to:
   * S. Spicher and S. Grimme, J. Chem. Theory Comput., 2021, 17, 1701-1714
     DOI: 10.1021/acs.jctc.0c01306
   
   for ONIOM refer to:
   * C. Plett, A. Katbashev, S. Ehlert, S. Grimme, M. Bursch,
     Phys. Chem. Chem. Phys., 2023, 25, 17860-17868. DOI: 10.1039/D3CP02178E
   
   for DIPRO refer to:
   * J. Kohn, N. Gildemeister, S. Grimme, D. Fazzi, A. Hansen,
     J. Chem. Phys., 2023, just accepted.
   
   for PTB refer to:
   * S. Grimme, M. Mueller, A. Hansen, J. Chem. Phys., 2023, 158, 124111.
     DOI: 10.1063/5.0137838
   
   with help from (in alphabetical order)
   P. Atkinson, C. Bannwarth, F. Bohle, G. Brandenburg, E. Caldeweyher
   M. Checinski, S. Dohm, S. Ehlert, S. Ehrlich, I. Gerasimov, C. Hölzer
   A. Katbashev, J. Kohn, J. Koopman, C. Lavigne, S. Lehtola, F. März, M. Müller,
   F. Musil, H. Neugebauer, J. Pisarek, C. Plett, P. Pracht, F. Pultar,
   J. Seibert, P. Shushkov, S. Spicher, M. Stahn, M. Steiner, T. Strunk,
   J. Stückrath, T. Rose, and J. Unsleber
   
 * started run on 2026/08/28 at 17:58:33.518     
   ID    Z sym.   atoms
    1    6 C      1, 3, 4, 6, 8
    2    7 N      2
    3    8 O      5
    4   34 Se     7
    5    1 H      9-19

           -------------------------------------------------
          |                Calculation Setup                |
           -------------------------------------------------

          program call               : C:\Users\Christian\Miniconda3\Library\bin\xtb.exe P_Se_adduct.xyz --gfn 2 --chrg 0 --opt --alpb water
          coordinate file            : P_Se_adduct.xyz
          omp threads                :                    12


           -------------------------------------------------
          |                 G F N 2 - x T B                 |
           -------------------------------------------------

        Reference                      10.1021/acs.jctc.8b01176
      * Hamiltonian:
        H0-scaling (s, p, d)           1.850000    2.230000    2.230000
        zeta-weighting                 0.500000
      * Dispersion:
        s8                             2.700000
        a1                             0.520000
        a2                             5.000000
        s9                             5.000000
      * Repulsion:
        kExp                           1.500000    1.000000
        rExp                           1.000000
      * Coulomb:
        alpha                          2.000000
        third order                    shell-resolved
        anisotropic                    true
        a3                             3.000000
        a5                             4.000000
        cn-shift                       1.200000
        cn-exp                         4.000000
        max-rad                        5.000000

      * Solvation model:               ALPB
        Solvent                        water
        Parameter file                 internal GFN2-xTB/ALPB
        Dielectric constant                8.0200E+01
        Reference state                gsolv [1 M gas/solution]
        Free energy shift                  1.0808E-03 Eh       6.7819E-01 kcal/mol
        Temperature                        2.9815E+02 K
        Density                            1.0000E+00 kg/L
        Solvent mass                       1.8000E+01 g/mol
        Interaction kernel             P16
        Born radius scaling (c1)           1.4744E+00
        Born radii integrator          GBOBC
        Born offset                        0.0000E+00 a0       0.0000E+00 AA
        H-bond correction              true
        Ion screening                  false
        Surface tension                    1.0000E-05 Eh       1.5569E+01 dyn/cm
        Grid points                               230 per atom

          ...................................................
          :                      SETUP                      :
          :.................................................:
          :  # basis functions                  49          :
          :  # atomic orbitals                  48          :
          :  # shells                           28          :
          :  # electrons                        48          :
          :  max. iterations                   250          :
          :  Hamiltonian                  GFN2-xTB          :
          :  restarted?                      false          :
          :  GBSA solvation                   true          :
          :  PC potential                    false          :
          :  electronic temp.          300.0000000     K    :
          :  accuracy                    1.0000000          :
          :  -> integral cutoff          0.2500000E+02      :
          :  -> integral neglect         0.1000000E-07      :
          :  -> SCF convergence          0.1000000E-05 Eh   :
          :  -> wf. convergence          0.1000000E-03 e    :
          :  Broyden damping             0.4000000          :
          :  net charge                          0          :
          :  unpaired electrons                  0          :
          ...................................................

 iter      E             dE          RMSdq      gap      omega  full diag
   1    -26.6458622 -0.266459E+02  0.451E+00    3.61       0.0  T
   2    -26.7146043 -0.687422E-01  0.249E+00    3.31       1.0  T
   3    -26.7157012 -0.109689E-02  0.113E+00    3.26       1.0  T
   4    -26.7160032 -0.301928E-03  0.282E-01    3.27       1.0  T
   5    -26.7160244 -0.212443E-04  0.155E-01    3.25       1.0  T
   6    -26.7160485 -0.241284E-04  0.335E-02    3.25       1.0  T
   7    -26.7160493 -0.781343E-06  0.214E-02    3.25       1.1  T
   8    -26.7160501 -0.821592E-06  0.768E-03    3.25       3.0  T
   9    -26.7160504 -0.280781E-06  0.339E-03    3.25       6.8  T
  10    -26.7160504 -0.106247E-07  0.958E-04    3.25      23.9  T
  11    -26.7160504 -0.171769E-08  0.362E-04    3.25      63.4  T

   *** convergence criteria satisfied after 11 iterations ***

         #    Occupation            Energy/Eh            Energy/eV
      -------------------------------------------------------------
         1        2.0000           -0.7530337             -20.4911
       ...           ...                  ...                  ...
        18        2.0000           -0.4767180             -12.9722
        19        2.0000           -0.4684767             -12.7479
        20        2.0000           -0.4630914             -12.6014
        21        2.0000           -0.4340883             -11.8121
        22        2.0000           -0.4102484             -11.1634
        23        2.0000           -0.3858231             -10.4988
        24        2.0000           -0.3656949              -9.9511 (HOMO)
        25                         -0.2461459              -6.6980 (LUMO)
        26                         -0.1827842              -4.9738
        27                         -0.1654943              -4.5033
        28                         -0.0328631              -0.8943
        29                          0.0110100               0.2996
       ...                                ...                  ...
        48                          0.6712773              18.2664
      -------------------------------------------------------------
                  HL-Gap            0.1195490 Eh            3.2531 eV
             Fermi-level           -0.3059204 Eh           -8.3245 eV

 SCC (total)                   0 d,  0 h,  0 min,  0.021 sec
 SCC setup                      ...        0 min,  0.000 sec (  2.416%)
 Dispersion                     ...        0 min,  0.000 sec (  1.685%)
 classical contributions        ...        0 min,  0.000 sec (  0.520%)
 integral evaluation            ...        0 min,  0.006 sec ( 29.582%)
 iterations                     ...        0 min,  0.011 sec ( 52.377%)
 molecular gradient             ...        0 min,  0.002 sec ( 11.969%)
 printout                       ...        0 min,  0.000 sec (  1.349%)

         :::::::::::::::::::::::::::::::::::::::::::::::::::::
         ::                     SUMMARY                     ::
         :::::::::::::::::::::::::::::::::::::::::::::::::::::
         :: total energy             -26.466976857916 Eh    ::
         :: total w/o Gsasa/hb       -26.465981418685 Eh    ::
         :: gradient norm              0.125754611174 Eh/a0 ::
         :: HOMO-LUMO gap              3.253094046281 eV    ::
         ::.................................................::
         :: SCC energy               -26.716027582026 Eh    ::
         :: -> isotropic ES            0.060161743047 Eh    ::
         :: -> anisotropic ES          0.000026646016 Eh    ::
         :: -> anisotropic XC          0.011843149889 Eh    ::
         :: -> dispersion             -0.013388494038 Eh    ::
         :: -> Gsolv                  -0.015248219110 Eh    ::
         ::    -> Gelec               -0.014252779879 Eh    ::
         ::    -> Gsasa                0.001010107594 Eh    ::
         ::    -> Ghb                 -0.003086306523 Eh    ::
         ::    -> Gshift               0.001080759698 Eh    ::
         :: repulsion energy           0.249050724110 Eh    ::
         :: add. restraining           0.000000000000 Eh    ::
         :: total charge              -0.000000000000 e     ::
         :::::::::::::::::::::::::::::::::::::::::::::::::::::

      ----------------------------------------------------------- 
     |                   =====================                   |
     |                        A N C O P T                        |
     |                   =====================                   |
     |               Approximate Normal Coordinate               |
     |                Rational Function Optimizer                |
      ----------------------------------------------------------- 
      ----------------------------------------------------------- 
     |                   =====================                   |
     |                        A N C O P T                        |
     |                   =====================                   |
     |               Approximate Normal Coordinate               |
     |                Rational Function Optimizer                |
      ----------------------------------------------------------- 

          ...................................................
          :                      SETUP                      :
          :.................................................:
          :   optimization level            normal          :
          :   max. optcycles                   200          :
          :   ANC micro-cycles                  20          :
          :   degrees of freedom                51          :
          :.................................................:
          :   RF solver                   davidson          :
          :   write xtbopt.log                true          :
          :   linear?                        false          :
          :   energy convergence         0.5000000E-05 Eh   :
          :   grad. convergence          0.1000000E-02 Eh/α :
          :   maxmium RF displ.          1.0000000          :
          :   Hlow (freq-cutoff)         0.1000000E-01      :
          :   Hmax (freq-cutoff)         5.0000000          :
          :   S6 in model hess.         20.0000000          :
          ...................................................

generating ANC from exact Hessian ...
Using Lindh-Hessian (1995)
 Shifting diagonal of input Hessian by    9.3925940646764749E-003
 Lowest  eigenvalues of input Hessian
    0.000000    0.000000    0.000000    0.000000    0.000000    0.000000
    0.010000    0.010567    0.011100    0.012639    0.013431    0.017268
    0.017900    0.018747    0.024009    0.027889    0.032611    0.034272
 Highest eigenvalues
    1.057146    1.142154    1.174901    1.528259    1.710807    2.042732


........................................................................
.............................. CYCLE    1 ..............................
........................................................................

 iter      E             dE          RMSdq      gap      omega  full diag
   1    -26.7160504 -0.267161E+02  0.959E-05    3.25       0.0  T
   2    -26.7160504 -0.214655E-10  0.460E-05    3.25     499.1  T
   3    -26.7160504 -0.378364E-11  0.332E-05    3.25     690.1  T
     SCC iter.                  ...        0 min,  0.003 sec
     gradient                   ...        0 min,  0.002 sec
 * total energy  :   -26.4669769 Eh     change       -0.2072937E-09 Eh
   gradient norm :     0.1257540 Eh/α   predicted     0.0000000E+00 (-100.00%)
   displ. norm   :     0.3654002 α      lambda       -0.2294613E-01
   maximum displ.:     0.1637757 α      in ANC's #5, #4, #24, ...

........................................................................
.............................. CYCLE    2 ..............................
........................................................................

 iter      E             dE          RMSdq      gap      omega  full diag
   1    -26.7548979 -0.267549E+02  0.577E-01    3.43       0.0  T
   2    -26.7551743 -0.276363E-03  0.313E-01    3.39       1.0  T
   3    -26.7551824 -0.813467E-05  0.112E-01    3.40       1.0  T
   4    -26.7552004 -0.180122E-04  0.505E-02    3.39       1.0  T
   5    -26.7552034 -0.293376E-05  0.252E-02    3.40       1.0  T
   6    -26.7552038 -0.412624E-06  0.157E-02    3.40       1.5  T
   7    -26.7552040 -0.243209E-06  0.574E-03    3.40       4.0  T
   8    -26.7552041 -0.275560E-07  0.163E-03    3.40      14.1  T
   9    -26.7552041 -0.189926E-08  0.138E-03    3.40      16.6  T
  10    -26.7552041 -0.279437E-08  0.445E-04    3.40      51.6  T
  11    -26.7552041 -0.172722E-09  0.177E-04    3.40     129.9  T
     SCC iter.                  ...        0 min,  0.009 sec
     gradient                   ...        0 min,  0.002 sec
 * total energy  :   -26.4826991 Eh     change       -0.1572227E-01 Eh
   gradient norm :     0.0560507 Eh/α   predicted    -0.1302085E-01 ( -17.18%)
   displ. norm   :     0.3773830 α      lambda       -0.8197545E-02
   maximum displ.:     0.2248019 α      in ANC's #4, #5, #12, ...

........................................................................
.............................. CYCLE    3 ..............................
........................................................................

 iter      E             dE          RMSdq      gap      omega  full diag
   1    -26.7789070 -0.267789E+02  0.262E-01    3.51       0.0  T
   2    -26.7790918 -0.184788E-03  0.167E-01    3.49       1.0  T
   3    -26.7791002 -0.832848E-05  0.769E-02    3.50       1.0  T
   4    -26.7791046 -0.444439E-05  0.321E-02    3.50       1.0  T
   5    -26.7791057 -0.114729E-05  0.176E-02    3.50       1.3  T
   6    -26.7791060 -0.286618E-06  0.149E-02    3.50       1.5  T
   7    -26.7791062 -0.142907E-06  0.553E-03    3.50       4.1  T
   8    -26.7791062 -0.411340E-07  0.120E-03    3.50      19.1  T
   9    -26.7791062 -0.208420E-08  0.686E-04    3.50      33.4  T
  10    -26.7791062 -0.589019E-09  0.136E-04    3.50     169.0  T
     SCC iter.                  ...        0 min,  0.009 sec
     gradient                   ...        0 min,  0.003 sec
 * total energy  :   -26.4873058 Eh     change       -0.4606639E-02 Eh
   gradient norm :     0.0114337 Eh/α   predicted    -0.4682516E-02 (   1.65%)
   displ. norm   :     0.3726185 α      lambda       -0.1978340E-02
   maximum displ.:     0.2644006 α      in ANC's #4, #5, #1, ...

........................................................................
.............................. CYCLE    4 ..............................
........................................................................

 iter      E             dE          RMSdq      gap      omega  full diag
   1    -26.7787080 -0.267787E+02  0.192E-01    3.45       0.0  T
   2    -26.7787263 -0.183235E-04  0.100E-01    3.45       1.0  T
   3    -26.7787275 -0.118142E-05  0.314E-02    3.45       1.0  T
   4    -26.7787288 -0.133058E-05  0.215E-02    3.46       1.1  T
   5    -26.7787292 -0.368774E-06  0.114E-02    3.46       2.0  T
   6    -26.7787293 -0.106944E-06  0.402E-03    3.46       5.7  T
   7    -26.7787293 -0.994256E-08  0.143E-03    3.46      16.0  T
   8    -26.7787293 -0.278429E-08  0.607E-04    3.46      37.8  T
   9    -26.7787293 -0.275957E-09  0.255E-04    3.46      90.0  T
     SCC iter.                  ...        0 min,  0.009 sec
     gradient                   ...        0 min,  0.003 sec
 * total energy  :   -26.4887367 Eh     change       -0.1430926E-02 Eh
   gradient norm :     0.0106037 Eh/α   predicted    -0.1126514E-02 ( -21.27%)
   displ. norm   :     0.4204324 α      lambda       -0.1445052E-02
   maximum displ.:     0.2959608 α      in ANC's #4, #5, #7, ...

........................................................................
.............................. CYCLE    5 ..............................
........................................................................

 iter      E             dE          RMSdq      gap      omega  full diag
   1    -26.7769385 -0.267769E+02  0.139E-01    3.44       0.0  T
   2    -26.7769433 -0.483046E-05  0.737E-02    3.44       1.0  T
   3    -26.7769441 -0.841959E-06  0.256E-02    3.44       1.0  T
   4    -26.7769447 -0.573240E-06  0.176E-02    3.44       1.3  T
   5    -26.7769450 -0.240703E-06  0.546E-03    3.44       4.2  T
   6    -26.7769450 -0.256910E-07  0.347E-03    3.45       6.6  T
   7    -26.7769450 -0.118653E-07  0.126E-03    3.45      18.3  T
   8    -26.7769450 -0.213945E-08  0.587E-04    3.45      39.1  T
   9    -26.7769450 -0.272902E-09  0.127E-04    3.45     181.1  T
     SCC iter.                  ...        0 min,  0.008 sec
     gradient                   ...        0 min,  0.003 sec
 * total energy  :   -26.4897468 Eh     change       -0.1010115E-02 Eh
   gradient norm :     0.0095310 Eh/α   predicted    -0.8502549E-03 ( -15.83%)
   displ. norm   :     0.3477171 α      lambda       -0.7849683E-03
   maximum displ.:     0.2293491 α      in ANC's #4, #5, #2, ...

........................................................................
.............................. CYCLE    6 ..............................
........................................................................

 iter      E             dE          RMSdq      gap      omega  full diag
   1    -26.7788755 -0.267789E+02  0.139E-01    3.45       0.0  T
   2    -26.7788790 -0.351430E-05  0.716E-02    3.46       1.0  T
   3    -26.7788799 -0.895191E-06  0.215E-02    3.46       1.1  T
   4    -26.7788801 -0.184095E-06  0.129E-02    3.46       1.8  T
   5    -26.7788802 -0.125328E-06  0.432E-03    3.46       5.3  T
   6    -26.7788802 -0.258137E-07  0.274E-03    3.46       8.4  T
   7    -26.7788803 -0.154334E-07  0.901E-04    3.46      25.5  T
   8    -26.7788803 -0.567578E-09  0.405E-04    3.46      56.6  T
     SCC iter.                  ...        0 min,  0.006 sec
     gradient                   ...        0 min,  0.002 sec
 * total energy  :   -26.4902839 Eh     change       -0.5371051E-03 Eh
   gradient norm :     0.0069300 Eh/α   predicted    -0.4399429E-03 ( -18.09%)
   displ. norm   :     0.3032947 α      lambda       -0.4810682E-03
   maximum displ.:     0.1706499 α      in ANC's #2, #4, #7, ...

........................................................................
.............................. CYCLE    7 ..............................
........................................................................

 iter      E             dE          RMSdq      gap      omega  full diag
   1    -26.7802031 -0.267802E+02  0.190E-01    3.48       0.0  T
   2    -26.7802055 -0.239191E-05  0.923E-02    3.48       1.0  T
   3    -26.7802062 -0.701995E-06  0.185E-02    3.48       1.2  T
   4    -26.7802063 -0.130282E-06  0.123E-02    3.48       1.9  T
   5    -26.7802064 -0.118474E-06  0.389E-03    3.48       5.9  T
   6    -26.7802065 -0.207396E-07  0.232E-03    3.48       9.9  T
   7    -26.7802065 -0.709472E-08  0.124E-03    3.48      18.6  T
   8    -26.7802065 -0.108811E-08  0.390E-04    3.48      58.8  T
   9    -26.7802065 -0.130012E-09  0.100E-04    3.48     229.5  T
     SCC iter.                  ...        0 min,  0.007 sec
     gradient                   ...        0 min,  0.002 sec
 * total energy  :   -26.4906470 Eh     change       -0.3630561E-03 Eh
   gradient norm :     0.0058556 Eh/α   predicted    -0.2626649E-03 ( -27.65%)
   displ. norm   :     0.3383923 α      lambda       -0.4907200E-03
   maximum displ.:     0.2229970 α      in ANC's #2, #7, #4, ...

........................................................................
.............................. CYCLE    8 ..............................
........................................................................

 iter      E             dE          RMSdq      gap      omega  full diag
   1    -26.7813319 -0.267813E+02  0.234E-01    3.50       0.0  T
   2    -26.7813349 -0.298119E-05  0.118E-01    3.50       1.0  T
   3    -26.7813357 -0.773366E-06  0.231E-02    3.50       1.0  T
   4    -26.7813359 -0.202887E-06  0.133E-02    3.50       1.7  T
   5    -26.7813360 -0.658537E-07  0.423E-03    3.50       5.4  T
   6    -26.7813360 -0.165636E-07  0.225E-03    3.50      10.2  T
   7    -26.7813360 -0.609247E-08  0.140E-03    3.50      16.4  T
   8    -26.7813360 -0.154290E-08  0.594E-04    3.50      38.6  T
   9    -26.7813360 -0.212363E-09  0.120E-04    3.50     191.7  T
     SCC iter.                  ...        0 min,  0.007 sec
     gradient                   ...        0 min,  0.002 sec
 * total energy  :   -26.4910460 Eh     change       -0.3990234E-03 Eh
   gradient norm :     0.0065754 Eh/α   predicted    -0.2734573E-03 ( -31.47%)
   displ. norm   :     0.3880125 α      lambda       -0.5223380E-03
   maximum displ.:     0.2659086 α      in ANC's #2, #3, #7, ...

........................................................................
.............................. CYCLE    9 ..............................
........................................................................

 iter      E             dE          RMSdq      gap      omega  full diag
   1    -26.7808891 -0.267809E+02  0.288E-01    3.51       0.0  T
   2    -26.7808934 -0.421652E-05  0.145E-01    3.51       1.0  T
   3    -26.7808942 -0.882059E-06  0.200E-02    3.51       1.1  T
   4    -26.7808945 -0.280015E-06  0.944E-03    3.51       2.4  T
   5    -26.7808946 -0.800415E-07  0.310E-03    3.51       7.4  T
   6    -26.7808946 -0.632374E-08  0.169E-03    3.51      13.6  T
   7    -26.7808946 -0.306247E-08  0.960E-04    3.51      23.9  T
   8    -26.7808946 -0.110487E-08  0.368E-04    3.51      62.4  T
     SCC iter.                  ...        0 min,  0.006 sec
     gradient                   ...        0 min,  0.002 sec
 * total energy  :   -26.4914354 Eh     change       -0.3894317E-03 Eh
   gradient norm :     0.0077007 Eh/α   predicted    -0.3004932E-03 ( -22.84%)
   displ. norm   :     0.2893605 α      lambda       -0.3410657E-03
   maximum displ.:     0.2156518 α      in ANC's #2, #7, #1, ...

........................................................................
.............................. CYCLE   10 ..............................
........................................................................

 iter      E             dE          RMSdq      gap      omega  full diag
   1    -26.7820348 -0.267820E+02  0.195E-01    3.52       0.0  T
   2    -26.7820381 -0.334303E-05  0.103E-01    3.52       1.0  T
   3    -26.7820384 -0.277181E-06  0.162E-02    3.52       1.4  T
   4    -26.7820388 -0.450504E-06  0.762E-03    3.52       3.0  T
   5    -26.7820388 -0.102607E-07  0.205E-03    3.52      11.2  T
   6    -26.7820389 -0.457383E-08  0.127E-03    3.52      18.1  T
   7    -26.7820389 -0.166725E-08  0.460E-04    3.52      49.8  T
   8    -26.7820389 -0.176112E-09  0.236E-04    3.52      97.2  T
     SCC iter.                  ...        0 min,  0.007 sec
     gradient                   ...        0 min,  0.002 sec
 * total energy  :   -26.4916621 Eh     change       -0.2266385E-03 Eh
   gradient norm :     0.0072224 Eh/α   predicted    -0.1848152E-03 ( -18.45%)
   displ. norm   :     0.2376268 α      lambda       -0.1827571E-03
   maximum displ.:     0.1602207 α      in ANC's #2, #1, #7, ...

........................................................................
.............................. CYCLE   11 ..............................
........................................................................

 iter      E             dE          RMSdq      gap      omega  full diag
   1    -26.7804404 -0.267804E+02  0.152E-01    3.52       0.0  T
   2    -26.7804424 -0.193798E-05  0.783E-02    3.52       1.0  T
   3    -26.7804426 -0.256887E-06  0.113E-02    3.52       2.0  T
   4    -26.7804428 -0.183870E-06  0.582E-03    3.52       3.9  T
   5    -26.7804428 -0.198942E-07  0.198E-03    3.52      11.6  T
   6    -26.7804428 -0.485674E-08  0.122E-03    3.52      18.8  T
   7    -26.7804429 -0.137042E-08  0.642E-04    3.52      35.7  T
   8    -26.7804429 -0.577558E-09  0.315E-04    3.52      72.9  T
     SCC iter.                  ...        0 min,  0.007 sec
     gradient                   ...        0 min,  0.002 sec
 * total energy  :   -26.4917664 Eh     change       -0.1043190E-03 Eh
   gradient norm :     0.0050837 Eh/α   predicted    -0.9653906E-04 (  -7.46%)
   displ. norm   :     0.1203413 α      lambda       -0.1286124E-03
   maximum displ.:     0.0802884 α      in ANC's #2, #1, #4, ...

........................................................................
.............................. CYCLE   12 ..............................
........................................................................

 iter      E             dE          RMSdq      gap      omega  full diag
   1    -26.7828719 -0.267829E+02  0.674E-02    3.53       0.0  T
   2    -26.7828725 -0.580383E-06  0.366E-02    3.53       1.0  T
   3    -26.7828726 -0.143161E-06  0.585E-03    3.53       3.9  T
   4    -26.7828726 -0.217977E-07  0.320E-03    3.53       7.2  T
   5    -26.7828726 -0.557597E-08  0.115E-03    3.53      20.0  T
   6    -26.7828726 -0.914113E-09  0.675E-04    3.53      34.0  T
   7    -26.7828726 -0.550923E-09  0.242E-04    3.53      94.7  T
     SCC iter.                  ...        0 min,  0.006 sec
     gradient                   ...        0 min,  0.003 sec
 * total energy  :   -26.4918327 Eh     change       -0.6636570E-04 Eh
   gradient norm :     0.0038464 Eh/α   predicted    -0.6523967E-04 (  -1.70%)
   displ. norm   :     0.1414980 α      lambda       -0.6503726E-04
   maximum displ.:     0.1001616 α      in ANC's #1, #2, #7, ...

........................................................................
.............................. CYCLE   13 ..............................
........................................................................

 iter      E             dE          RMSdq      gap      omega  full diag
   1    -26.7819300 -0.267819E+02  0.915E-02    3.54       0.0  T
   2    -26.7819305 -0.479895E-06  0.473E-02    3.54       1.0  T
   3    -26.7819306 -0.999852E-07  0.612E-03    3.54       3.7  T
   4    -26.7819306 -0.278658E-07  0.280E-03    3.54       8.2  T
   5    -26.7819306 -0.960421E-08  0.102E-03    3.54      22.6  T
   6    -26.7819306 -0.696573E-09  0.540E-04    3.54      42.5  T
   7    -26.7819306 -0.277769E-09  0.326E-04    3.54      70.4  T
     SCC iter.                  ...        0 min,  0.007 sec
     gradient                   ...        0 min,  0.003 sec
 * total energy  :   -26.4918819 Eh     change       -0.4918378E-04 Eh
   gradient norm :     0.0032896 Eh/α   predicted    -0.3317424E-04 ( -32.55%)
   displ. norm   :     0.1010470 α      lambda       -0.7341584E-04
   maximum displ.:     0.0936069 α      in ANC's #1, #8, #34, ...

........................................................................
.............................. CYCLE   14 ..............................
........................................................................

 iter      E             dE          RMSdq      gap      omega  full diag
   1    -26.7820290 -0.267820E+02  0.559E-02    3.55       0.0  T
   2    -26.7820295 -0.460045E-06  0.305E-02    3.55       1.0  T
   3    -26.7820295 -0.359289E-07  0.378E-03    3.55       6.1  T
   4    -26.7820295 -0.284463E-07  0.211E-03    3.55      10.9  T
   5    -26.7820295 -0.108600E-08  0.582E-04    3.55      39.4  T
   6    -26.7820295 -0.113950E-08  0.357E-04    3.55      64.2  T
     SCC iter.                  ...        0 min,  0.006 sec
     gradient                   ...        0 min,  0.003 sec
 * total energy  :   -26.4919397 Eh     change       -0.5778326E-04 Eh
   gradient norm :     0.0023653 Eh/α   predicted    -0.3708632E-04 ( -35.82%)
   displ. norm   :     0.1542719 α      lambda       -0.9362149E-04
   maximum displ.:     0.1387102 α      in ANC's #1, #8, #5, ...

........................................................................
.............................. CYCLE   15 ..............................
........................................................................

 iter      E             dE          RMSdq      gap      omega  full diag
   1    -26.7818127 -0.267818E+02  0.725E-02    3.55       0.0  T
   2    -26.7818131 -0.483154E-06  0.393E-02    3.55       1.0  T
   3    -26.7818132 -0.783458E-07  0.562E-03    3.55       4.1  T
   4    -26.7818133 -0.418346E-07  0.288E-03    3.55       8.0  T
   5    -26.7818133 -0.526935E-08  0.135E-03    3.55      16.9  T
   6    -26.7818133 -0.166914E-08  0.782E-04    3.55      29.3  T
   7    -26.7818133 -0.740325E-09  0.273E-04    3.55      84.0  T
     SCC iter.                  ...        0 min,  0.006 sec
     gradient                   ...        0 min,  0.002 sec
 * total energy  :   -26.4920174 Eh     change       -0.7765361E-04 Eh
   gradient norm :     0.0041926 Eh/α   predicted    -0.4792518E-04 ( -38.28%)
   displ. norm   :     0.1989747 α      lambda       -0.1167029E-03
   maximum displ.:     0.1791725 α      in ANC's #1, #8, #9, ...

........................................................................
.............................. CYCLE   16 ..............................
........................................................................

 iter      E             dE          RMSdq      gap      omega  full diag
   1    -26.7816827 -0.267817E+02  0.947E-02    3.55       0.0  T
   2    -26.7816833 -0.654490E-06  0.515E-02    3.55       1.0  T
   3    -26.7816835 -0.147593E-06  0.558E-03    3.55       4.1  T
   4    -26.7816835 -0.181484E-07  0.283E-03    3.55       8.1  T
   5    -26.7816835 -0.341953E-08  0.651E-04    3.55      35.2  T
   6    -26.7816835 -0.465111E-09  0.366E-04    3.55      62.7  T
     SCC iter.                  ...        0 min,  0.005 sec
     gradient                   ...        0 min,  0.002 sec
 * total energy  :   -26.4921250 Eh     change       -0.1076726E-03 Eh
   gradient norm :     0.0053948 Eh/α   predicted    -0.6066387E-04 ( -43.66%)
   displ. norm   :     0.3245743 α      lambda       -0.2003839E-03
   maximum displ.:     0.2900296 α      in ANC's #1, #8, #9, ...

........................................................................
.............................. CYCLE   17 ..............................
........................................................................

 iter      E             dE          RMSdq      gap      omega  full diag
   1    -26.7807228 -0.267807E+02  0.150E-01    3.54       0.0  T
   2    -26.7807240 -0.123613E-05  0.813E-02    3.54       1.0  T
   3    -26.7807244 -0.392189E-06  0.890E-03    3.54       2.6  T
   4    -26.7807244 -0.244322E-07  0.380E-03    3.54       6.0  T
   5    -26.7807245 -0.188143E-07  0.921E-04    3.54      24.9  T
   6    -26.7807245 -0.172871E-08  0.522E-04    3.54      43.9  T
     SCC iter.                  ...        0 min,  0.005 sec
     gradient                   ...        0 min,  0.002 sec
 * total energy  :   -26.4923098 Eh     change       -0.1847161E-03 Eh
   gradient norm :     0.0072108 Eh/α   predicted    -0.1107510E-03 ( -40.04%)
   displ. norm   :     0.7453535 α      lambda       -0.4556257E-03
   maximum displ.:     0.6720093 α      in ANC's #1, #8, #9, ...

........................................................................
.............................. CYCLE   18 ..............................
........................................................................

 iter      E             dE          RMSdq      gap      omega  full diag
   1    -26.7750582 -0.267751E+02  0.342E-01    3.51       0.0  T
   2    -26.7750655 -0.727349E-05  0.183E-01    3.51       1.0  T
   3    -26.7750673 -0.182801E-05  0.223E-02    3.51       1.0  T
   4    -26.7750677 -0.417878E-06  0.103E-02    3.51       2.2  T
   5    -26.7750680 -0.239173E-06  0.213E-03    3.51      10.8  T
   6    -26.7750680 -0.130941E-07  0.107E-03    3.51      21.5  T
   7    -26.7750680 -0.803063E-09  0.443E-04    3.51      51.7  T
   8    -26.7750680 -0.175312E-09  0.179E-04    3.51     128.4  T
     SCC iter.                  ...        0 min,  0.007 sec
     gradient                   ...        0 min,  0.002 sec
 * total energy  :   -26.4925153 Eh     change       -0.2055828E-03 Eh
   gradient norm :     0.0155198 Eh/α   predicted    -0.3543807E-03 (  72.38%)
   displ. norm   :     0.0842322 α      lambda       -0.4016210E-03
   maximum displ.:     0.0439095 α      in ANC's #2, #7, #8, ...

........................................................................
.............................. CYCLE   19 ..............................
........................................................................

 iter      E             dE          RMSdq      gap      omega  full diag
   1    -26.7799944 -0.267800E+02  0.784E-02    3.52       0.0  T
   2    -26.7799965 -0.203791E-05  0.432E-02    3.52       1.0  T
   3    -26.7799967 -0.217371E-06  0.771E-03    3.52       3.0  T
   4    -26.7799968 -0.856218E-07  0.412E-03    3.52       5.6  T
   5    -26.7799968 -0.100992E-07  0.176E-03    3.52      13.0  T
   6    -26.7799968 -0.215217E-08  0.666E-04    3.52      34.5  T
   7    -26.7799968 -0.373049E-09  0.279E-04    3.52      82.2  T
     SCC iter.                  ...        0 min,  0.006 sec
     gradient                   ...        0 min,  0.003 sec
 * total energy  :   -26.4927401 Eh     change       -0.2247813E-03 Eh
   gradient norm :     0.0086925 Eh/α   predicted    -0.2022373E-03 ( -10.03%)
   displ. norm   :     0.2919461 α      lambda       -0.3169758E-03
   maximum displ.:     0.2598485 α      in ANC's #1, #8, #34, ...

........................................................................
.............................. CYCLE   20 ..............................
........................................................................

 iter      E             dE          RMSdq      gap      omega  full diag
   1    -26.7817600 -0.267818E+02  0.132E-01    3.52       0.0  T
   2    -26.7817611 -0.105423E-05  0.706E-02    3.52       1.0  T
   3    -26.7817613 -0.237437E-06  0.929E-03    3.52       2.5  T
   4    -26.7817613 -0.349411E-07  0.421E-03    3.52       5.5  T
   5    -26.7817614 -0.479399E-07  0.946E-04    3.52      24.3  T
   6    -26.7817614 -0.194460E-08  0.647E-04    3.52      35.5  T
     SCC iter.                  ...        0 min,  0.005 sec
     gradient                   ...        0 min,  0.003 sec
 * total energy  :   -26.4930087 Eh     change       -0.2686209E-03 Eh
   gradient norm :     0.0061271 Eh/α   predicted    -0.1719965E-03 ( -35.97%)
   displ. norm   :     0.6732624 α      lambda       -0.6349215E-03
   maximum displ.:     0.6125052 α      in ANC's #1, #8, #34, ...
 * RMSD in coord.:     0.9576082 α      energy gain  -0.2603189E-01 Eh

generating ANC from exact Hessian ...
Using Lindh-Hessian (1995)
 Shifting diagonal of input Hessian by    9.4523803841322189E-003
 Lowest  eigenvalues of input Hessian
    0.000000    0.000000    0.000000    0.000000    0.000000    0.000000
    0.010000    0.010632    0.011352    0.012510    0.013459    0.019701
    0.020172    0.020849    0.023491    0.028724    0.034421    0.035355
 Highest eigenvalues
    1.144627    1.153537    1.230367    1.562091    1.876758    2.273011


........................................................................
.............................. CYCLE   21 ..............................
........................................................................

 iter      E             dE          RMSdq      gap      omega  full diag
   1    -26.7809942 -0.267810E+02  0.349E-01    3.49       0.0  T
   2    -26.7810016 -0.739683E-05  0.186E-01    3.49       1.0  T
   3    -26.7810035 -0.187442E-05  0.292E-02    3.49       1.0  T
   4    -26.7810039 -0.423667E-06  0.144E-02    3.49       1.6  T
   5    -26.7810040 -0.814777E-07  0.338E-03    3.49       6.8  T
   6    -26.7810040 -0.107395E-07  0.202E-03    3.49      11.4  T
   7    -26.7810040 -0.308437E-08  0.730E-04    3.49      31.4  T
   8    -26.7810040 -0.391534E-09  0.200E-04    3.49     114.8  T
     SCC iter.                  ...        0 min,  0.007 sec
     gradient                   ...        0 min,  0.002 sec
 * total energy  :   -26.4933814 Eh     change       -0.3726743E-03 Eh
   gradient norm :     0.0104661 Eh/α   predicted     0.0000000E+00 (-100.00%)
   displ. norm   :     0.0844841 α      lambda       -0.3766263E-03
   maximum displ.:     0.0355647 α      in ANC's #7, #5, #1, ...

........................................................................
.............................. CYCLE   22 ..............................
........................................................................

 iter      E             dE          RMSdq      gap      omega  full diag
   1    -26.7838074 -0.267838E+02  0.971E-02    3.50       0.0  T
   2    -26.7838097 -0.233819E-05  0.561E-02    3.50       1.0  T
   3    -26.7838098 -0.146827E-06  0.917E-03    3.50       2.5  T
   4    -26.7838100 -0.160730E-06  0.492E-03    3.50       4.7  T
   5    -26.7838100 -0.116280E-07  0.184E-03    3.50      12.5  T
   6    -26.7838100 -0.465919E-08  0.122E-03    3.50      18.8  T
   7    -26.7838100 -0.232464E-08  0.545E-04    3.50      42.1  T
   8    -26.7838100 -0.405496E-09  0.182E-04    3.50     125.8  T
     SCC iter.                  ...        0 min,  0.007 sec
     gradient                   ...        0 min,  0.003 sec
 * total energy  :   -26.4936114 Eh     change       -0.2299480E-03 Eh
   gradient norm :     0.0036678 Eh/α   predicted    -0.1913261E-03 ( -16.80%)
   displ. norm   :     0.1090495 α      lambda       -0.1597007E-03
   maximum displ.:     0.0585143 α      in ANC's #1, #7, #2, ...

........................................................................
.............................. CYCLE   23 ..............................
........................................................................

 iter      E             dE          RMSdq      gap      omega  full diag
   1    -26.7850504 -0.267851E+02  0.798E-02    3.49       0.0  T
   2    -26.7850510 -0.603327E-06  0.413E-02    3.49       1.0  T
   3    -26.7850511 -0.150211E-06  0.748E-03    3.49       3.1  T
   4    -26.7850511 -0.189006E-07  0.384E-03    3.49       6.0  T
   5    -26.7850511 -0.880321E-08  0.215E-03    3.49      10.7  T
   6    -26.7850511 -0.390930E-08  0.133E-03    3.49      17.3  T
   7    -26.7850511 -0.176209E-08  0.278E-04    3.49      82.6  T
   8    -26.7850511 -0.761986E-10  0.107E-04    3.49     214.8  T
     SCC iter.                  ...        0 min,  0.007 sec
     gradient                   ...        0 min,  0.002 sec
 * total energy  :   -26.4937163 Eh     change       -0.1049450E-03 Eh
   gradient norm :     0.0025504 Eh/α   predicted    -0.8080431E-04 ( -23.00%)
   displ. norm   :     0.1792432 α      lambda       -0.1525664E-03
   maximum displ.:     0.1024681 α      in ANC's #1, #7, #2, ...

........................................................................
.............................. CYCLE   24 ..............................
........................................................................

 iter      E             dE          RMSdq      gap      omega  full diag
   1    -26.7848950 -0.267849E+02  0.819E-02    3.49       0.0  T
   2    -26.7848955 -0.519302E-06  0.453E-02    3.49       1.0  T
   3    -26.7848957 -0.166031E-06  0.705E-03    3.49       3.3  T
   4    -26.7848957 -0.334162E-07  0.403E-03    3.49       5.7  T
   5    -26.7848957 -0.157353E-07  0.221E-03    3.49      10.4  T
   6    -26.7848957 -0.317434E-08  0.148E-03    3.49      15.5  T
   7    -26.7848957 -0.226206E-08  0.275E-04    3.49      83.4  T
   8    -26.7848957 -0.568328E-10  0.129E-04    3.49     178.0  T
     SCC iter.                  ...        0 min,  0.007 sec
     gradient                   ...        0 min,  0.003 sec
 * total energy  :   -26.4938507 Eh     change       -0.1343458E-03 Eh
   gradient norm :     0.0043712 Eh/α   predicted    -0.7873651E-04 ( -41.39%)
   displ. norm   :     0.4704131 α      lambda       -0.3733312E-03
   maximum displ.:     0.2721722 α      in ANC's #7, #1, #2, ...

........................................................................
.............................. CYCLE   25 ..............................
........................................................................

 iter      E             dE          RMSdq      gap      omega  full diag
   1    -26.7806580 -0.267807E+02  0.203E-01    3.48       0.0  T
   2    -26.7806618 -0.381872E-05  0.110E-01    3.48       1.0  T
   3    -26.7806628 -0.945916E-06  0.150E-02    3.48       1.5  T
   4    -26.7806630 -0.160939E-06  0.779E-03    3.48       2.9  T
   5    -26.7806630 -0.580235E-07  0.440E-03    3.48       5.2  T
   6    -26.7806630 -0.174824E-07  0.276E-03    3.48       8.3  T
   7    -26.7806630 -0.777473E-08  0.943E-04    3.48      24.3  T
   8    -26.7806630 -0.966718E-09  0.287E-04    3.48      80.0  T
     SCC iter.                  ...        0 min,  0.007 sec
     gradient                   ...        0 min,  0.002 sec
 * total energy  :   -26.4940743 Eh     change       -0.2236772E-03 Eh
   gradient norm :     0.0108961 Eh/α   predicted    -0.2279737E-03 (   1.92%)
   displ. norm   :     0.0990884 α      lambda       -0.1646889E-03
   maximum displ.:     0.0648727 α      in ANC's #1, #2, #7, ...

........................................................................
.............................. CYCLE   26 ..............................
........................................................................

 iter      E             dE          RMSdq      gap      omega  full diag
   1    -26.7818561 -0.267819E+02  0.473E-02    3.48       0.0  T
   2    -26.7818564 -0.360276E-06  0.262E-02    3.48       1.0  T
   3    -26.7818565 -0.453189E-07  0.510E-03    3.48       4.5  T
   4    -26.7818565 -0.194309E-07  0.273E-03    3.48       8.4  T
   5    -26.7818565 -0.187329E-08  0.566E-04    3.48      40.5  T
   6    -26.7818565 -0.472571E-09  0.453E-04    3.48      50.7  T
     SCC iter.                  ...        0 min,  0.005 sec
     gradient                   ...        0 min,  0.003 sec
 * total energy  :   -26.4942136 Eh     change       -0.1392722E-03 Eh
   gradient norm :     0.0077320 Eh/α   predicted    -0.8315835E-04 ( -40.29%)
   displ. norm   :     0.3538818 α      lambda       -0.3384177E-03
   maximum displ.:     0.2295443 α      in ANC's #1, #7, #2, ...

........................................................................
.............................. CYCLE   27 ..............................
........................................................................

 iter      E             dE          RMSdq      gap      omega  full diag
   1    -26.7828208 -0.267828E+02  0.146E-01    3.47       0.0  T
   2    -26.7828222 -0.138896E-05  0.807E-02    3.47       1.0  T
   3    -26.7828226 -0.402668E-06  0.119E-02    3.47       1.9  T
   4    -26.7828227 -0.720948E-07  0.625E-03    3.47       3.7  T
   5    -26.7828227 -0.204981E-07  0.132E-03    3.47      17.4  T
   6    -26.7828227 -0.164354E-08  0.879E-04    3.47      26.1  T
   7    -26.7828227 -0.626205E-09  0.310E-04    3.47      73.9  T
     SCC iter.                  ...        0 min,  0.006 sec
     gradient                   ...        0 min,  0.002 sec
 * total energy  :   -26.4944292 Eh     change       -0.2156373E-03 Eh
   gradient norm :     0.0052960 Eh/α   predicted    -0.1904145E-03 ( -11.70%)
   displ. norm   :     0.1173529 α      lambda       -0.1078492E-03
   maximum displ.:     0.0854290 α      in ANC's #1, #2, #7, ...

........................................................................
.............................. CYCLE   28 ..............................
........................................................................

 iter      E             dE          RMSdq      gap      omega  full diag
   1    -26.7857280 -0.267857E+02  0.503E-02    3.48       0.0  T
   2    -26.7857295 -0.150643E-05  0.282E-02    3.47       1.0  T
   3    -26.7857294  0.495759E-07  0.697E-03    3.47       3.3  T
   4    -26.7857296 -0.214686E-06  0.336E-03    3.47       6.8  T
   5    -26.7857296 -0.109593E-07  0.134E-03    3.47      17.1  T
   6    -26.7857296 -0.349228E-08  0.599E-04    3.47      38.3  T
   7    -26.7857296 -0.322729E-09  0.295E-04    3.47      77.8  T
     SCC iter.                  ...        0 min,  0.006 sec
     gradient                   ...        0 min,  0.003 sec
 * total energy  :   -26.4944828 Eh     change       -0.5358543E-04 Eh
   gradient norm :     0.0030766 Eh/α   predicted    -0.5466721E-04 (   2.02%)
   displ. norm   :     0.3231133 α      lambda       -0.1070204E-03
   maximum displ.:     0.2075303 α      in ANC's #1, #7, #2, ...

........................................................................
.............................. CYCLE   29 ..............................
........................................................................

 iter      E             dE          RMSdq      gap      omega  full diag
   1    -26.7828669 -0.267829E+02  0.132E-01    3.47       0.0  T
   2    -26.7828693 -0.245282E-05  0.720E-02    3.47       1.0  T
   3    -26.7828696 -0.269539E-06  0.103E-02    3.47       2.2  T
   4    -26.7828697 -0.146653E-06  0.471E-03    3.47       4.9  T
   5    -26.7828698 -0.310177E-07  0.176E-03    3.47      13.0  T
   6    -26.7828698 -0.849794E-08  0.838E-04    3.47      27.4  T
   7    -26.7828698 -0.496076E-09  0.356E-04    3.47      64.4  T
     SCC iter.                  ...        0 min,  0.006 sec
     gradient                   ...        0 min,  0.002 sec
 * total energy  :   -26.4944865 Eh     change       -0.3662187E-05 Eh
   gradient norm :     0.0064152 Eh/α   predicted    -0.5909697E-04 (1513.71%)
   displ. norm   :     0.1283706 α      lambda       -0.1108935E-03
   maximum displ.:     0.0748357 α      in ANC's #1, #7, #2, ...

........................................................................
.............................. CYCLE   30 ..............................
........................................................................

 iter      E             dE          RMSdq      gap      omega  full diag
   1    -26.7851728 -0.267852E+02  0.603E-02    3.46       0.0  T
   2    -26.7851735 -0.674525E-06  0.332E-02    3.47       1.0  T
   3    -26.7851736 -0.760349E-07  0.480E-03    3.47       4.8  T
   4    -26.7851736 -0.196173E-07  0.215E-03    3.47      10.7  T
   5    -26.7851736 -0.445023E-08  0.805E-04    3.47      28.5  T
   6    -26.7851736 -0.653664E-09  0.275E-04    3.47      83.5  T
     SCC iter.                  ...        0 min,  0.005 sec
     gradient                   ...        0 min,  0.002 sec
 * total energy  :   -26.4945413 Eh     change       -0.5485307E-04 Eh
   gradient norm :     0.0021821 Eh/α   predicted    -0.5637973E-04 (   2.78%)
   displ. norm   :     0.0537324 α      lambda       -0.1886042E-04
   maximum displ.:     0.0383903 α      in ANC's #1, #2, #7, ...

........................................................................
.............................. CYCLE   31 ..............................
........................................................................

 iter      E             dE          RMSdq      gap      omega  full diag
   1    -26.7853451 -0.267853E+02  0.210E-02    3.46       0.0  T
   2    -26.7853452 -0.654244E-07  0.118E-02    3.46       1.9  T
   3    -26.7853452 -0.663893E-08  0.188E-03    3.46      12.2  T
   4    -26.7853452 -0.543767E-08  0.113E-03    3.46      20.3  T
   5    -26.7853452 -0.127436E-08  0.488E-04    3.46      47.0  T
   6    -26.7853452 -0.287287E-09  0.331E-04    3.46      69.2  T
     SCC iter.                  ...        0 min,  0.005 sec
     gradient                   ...        0 min,  0.002 sec
 * total energy  :   -26.4945571 Eh     change       -0.1577099E-04 Eh
   gradient norm :     0.0017287 Eh/α   predicted    -0.9474417E-05 ( -39.93%)
   displ. norm   :     0.2351646 α      lambda       -0.3505013E-04
   maximum displ.:     0.1771885 α      in ANC's #1, #7, #2, ...

........................................................................
.............................. CYCLE   32 ..............................
........................................................................

 iter      E             dE          RMSdq      gap      omega  full diag
   1    -26.7848601 -0.267849E+02  0.938E-02    3.46       0.0  T
   2    -26.7848606 -0.446724E-06  0.509E-02    3.46       1.0  T
   3    -26.7848607 -0.130361E-06  0.810E-03    3.46       2.8  T
   4    -26.7848608 -0.334066E-07  0.373E-03    3.46       6.2  T
   5    -26.7848608 -0.117559E-07  0.156E-03    3.46      14.7  T
   6    -26.7848608 -0.123285E-08  0.100E-03    3.46      22.9  T
   7    -26.7848608 -0.104485E-08  0.370E-04    3.46      62.0  T
   8    -26.7848608 -0.127599E-09  0.783E-05    3.46     292.9  T
     SCC iter.                  ...        0 min,  0.008 sec
     gradient                   ...        0 min,  0.003 sec
 * total energy  :   -26.4945796 Eh     change       -0.2251912E-04 Eh
   gradient norm :     0.0020499 Eh/α   predicted    -0.1795440E-04 ( -20.27%)
   displ. norm   :     0.0189117 α      lambda       -0.8818557E-05
   maximum displ.:     0.0152284 α      in ANC's #2, #7, #5, ...

........................................................................
.............................. CYCLE   33 ..............................
........................................................................

 iter      E             dE          RMSdq      gap      omega  full diag
   1    -26.7853145 -0.267853E+02  0.990E-03    3.46       0.0  T
   2    -26.7853146 -0.747061E-07  0.544E-03    3.46       4.2  T
   3    -26.7853146 -0.372040E-08  0.127E-03    3.46      18.0  T
   4    -26.7853146 -0.219162E-08  0.595E-04    3.46      38.5  T
   5    -26.7853146 -0.454534E-10  0.294E-04    3.46      78.1  T
     SCC iter.                  ...        0 min,  0.005 sec
     gradient                   ...        0 min,  0.003 sec
 * total energy  :   -26.4945859 Eh     change       -0.6307847E-05 Eh
   gradient norm :     0.0010973 Eh/α   predicted    -0.4412403E-05 ( -30.05%)
   displ. norm   :     0.0689874 α      lambda       -0.9328965E-05
   maximum displ.:     0.0577528 α      in ANC's #1, #2, #5, ...

........................................................................
.............................. CYCLE   34 ..............................
........................................................................

 iter      E             dE          RMSdq      gap      omega  full diag
   1    -26.7858455 -0.267858E+02  0.341E-02    3.47       0.0  T
   2    -26.7858458 -0.312634E-06  0.178E-02    3.47       1.3  T
   3    -26.7858458 -0.864152E-08  0.315E-03    3.47       7.3  T
   4    -26.7858458 -0.197588E-07  0.185E-03    3.47      12.4  T
   5    -26.7858458 -0.175990E-08  0.639E-04    3.47      35.9  T
   6    -26.7858458 -0.475374E-09  0.462E-04    3.47      49.7  T
     SCC iter.                  ...        0 min,  0.005 sec
     gradient                   ...        0 min,  0.003 sec
 * total energy  :   -26.4945937 Eh     change       -0.7769090E-05 Eh
   gradient norm :     0.0012403 Eh/α   predicted    -0.4675528E-05 ( -39.82%)
   displ. norm   :     0.0589847 α      lambda       -0.4885438E-05
   maximum displ.:     0.0457485 α      in ANC's #1, #2, #7, ...

........................................................................
.............................. CYCLE   35 ..............................
........................................................................

 iter      E             dE          RMSdq      gap      omega  full diag
   1    -26.7855235 -0.267855E+02  0.294E-02    3.47       0.0  T
   2    -26.7855235 -0.412879E-07  0.150E-02    3.47       1.5  T
   3    -26.7855235 -0.109697E-07  0.205E-03    3.47      11.2  T
   4    -26.7855235 -0.499472E-09  0.552E-04    3.47      41.6  T
   5    -26.7855235 -0.238057E-09  0.191E-04    3.47     120.2  T
     SCC iter.                  ...        0 min,  0.005 sec
     gradient                   ...        0 min,  0.003 sec
 * total energy  :   -26.4945992 Eh     change       -0.5463788E-05 Eh
   gradient norm :     0.0010156 Eh/α   predicted    -0.2448401E-05 ( -55.19%)
   displ. norm   :     0.0854136 α      lambda       -0.6874743E-05
   maximum displ.:     0.0586919 α      in ANC's #1, #2, #6, ...

........................................................................
.............................. CYCLE   36 ..............................
........................................................................

 iter      E             dE          RMSdq      gap      omega  full diag
   1    -26.7851929 -0.267852E+02  0.409E-02    3.47       0.0  T
   2    -26.7851930 -0.110943E-06  0.210E-02    3.47       1.1  T
   3    -26.7851930 -0.270276E-07  0.343E-03    3.47       6.7  T
   4    -26.7851930 -0.327668E-08  0.140E-03    3.47      16.4  T
   5    -26.7851930 -0.130439E-08  0.659E-04    3.47      34.8  T
   6    -26.7851930 -0.434802E-09  0.388E-04    3.47      59.1  T
     SCC iter.                  ...        0 min,  0.006 sec
     gradient                   ...        0 min,  0.003 sec
 * total energy  :   -26.4946049 Eh     change       -0.5750092E-05 Eh
   gradient norm :     0.0007994 Eh/α   predicted    -0.3451529E-05 ( -39.97%)
   displ. norm   :     0.0372784 α      lambda       -0.3560145E-05
   maximum displ.:     0.0324383 α      in ANC's #2, #6, #8, ...

........................................................................
.............................. CYCLE   37 ..............................
........................................................................

 iter      E             dE          RMSdq      gap      omega  full diag
   1    -26.7850939 -0.267851E+02  0.133E-02    3.47       0.0  T
   2    -26.7850939 -0.311268E-07  0.732E-03    3.47       3.1  T
   3    -26.7850939  0.232930E-09  0.191E-03    3.47      12.0  T
   4    -26.7850939 -0.666484E-08  0.689E-04    3.47      33.3  T
   5    -26.7850939 -0.160338E-09  0.211E-04    3.47     108.9  T
     SCC iter.                  ...        0 min,  0.004 sec
     gradient                   ...        0 min,  0.002 sec
 * total energy  :   -26.4946085 Eh     change       -0.3588921E-05 Eh
   gradient norm :     0.0005277 Eh/α   predicted    -0.1791401E-05 ( -50.09%)
   displ. norm   :     0.0372081 α      lambda       -0.2913048E-05
   maximum displ.:     0.0262480 α      in ANC's #2, #3, #1, ...

   *** GEOMETRY OPTIMIZATION CONVERGED AFTER 37 ITERATIONS ***

------------------------------------------------------------------------
 total energy gain   :        -0.0276317 Eh      -17.3391 kcal/mol
 total RMSD          :         1.3187750 a0        0.6979 Å
 total power (kW/mol):        -1.9607271 (step) -171.2165 (real)
------------------------------------------------------------------------

 ANCopt (total)                0 d,  0 h,  0 min,  0.424 sec
 optimizer setup                ...        0 min,  0.000 sec (  0.061%)
 model hessian                  ...        0 min,  0.008 sec (  1.882%)
 ANC generation                 ...        0 min,  0.001 sec (  0.215%)
 coordinate transformation      ...        0 min,  0.000 sec (  0.072%)
 single point calculation       ...        0 min,  0.396 sec ( 93.538%)
 optimization log               ...        0 min,  0.006 sec (  1.513%)
 hessian update                 ...        0 min,  0.005 sec (  1.155%)
 rational function              ...        0 min,  0.004 sec (  1.061%)

================
 final structure:
================
19
 xtb: 6.7.1 (edcfbbe)
C           -2.04161199688822        1.06551126915791       -0.97800903603746
N           -1.20237298447347        0.26307467029618       -0.11303148690504
C           -1.76450490187881       -0.99073722928545        0.34203237009551
C            0.00584154575472        0.71038883127507        0.24873886539122
O            0.46769486583740        1.78344296922569       -0.15625591326855
C            0.83218020958006       -0.16735433616089        1.15400777122231
Se           1.74626954158017       -1.53409577522709        0.04893406793830
C            2.98395787357772       -0.33882563010538       -0.86215677455786
H           -2.97543819169129        1.30823419009584       -0.47066359805262
H           -2.25581324812078        0.52227704929155       -1.89866435973854
H           -1.50951765889853        1.98430253927994       -1.21663288933403
H           -1.04353349802397       -1.80438115833116        0.23430937995075
H           -2.07969750193154       -0.92555410084136        1.38548783348963
H           -2.63175914159328       -1.21772778629215       -0.27143975472110
H            1.61853433843326        0.42947153785726        1.61675764627359
H            0.25357423612507       -0.69525524365156        1.90824499971840
H            2.42902099944334        0.53995736238862       -1.18248769970987
H            3.38761408104975       -0.87100507619706       -1.71836973450688
H            3.77956143211724       -0.06172408277500       -0.17495068724966

 Bond Distances (Angstroems)
 ---------------------------
C1-N2=1.4479         C1-H9=1.0901         C1-H10=1.0902        C1-H11=1.0882        N2-C1=1.4479         N2-C3=1.4475         
N2-C4=1.3382         C3-N2=1.4475         C3-H12=1.0924        C3-H13=1.0920        C3-H14=1.0863        C4-N2=1.3382         
C4-O5=1.2364         C4-C6=1.5076         O5-C4=1.2364         C6-C4=1.5076         C6-Se7=1.9811        C6-H15=1.0903        
C6-H16=1.0874        Se7-C6=1.9811        Se7-C8=1.9470        C8-Se7=1.9470        C8-H17=1.0876        C8-H18=1.0859        
C8-H19=1.0872        H9-C1=1.0901         H10-C1=1.0902        H11-C1=1.0882        H12-C3=1.0924        H13-C3=1.0920        
H14-C3=1.0863        H15-C6=1.0903        H16-C6=1.0874        H17-C8=1.0876        H18-C8=1.0859        H19-C8=1.0872        
 C  H  Rav=1.0889 sigma=0.0021  Rmin=1.0859  Rmax=1.0924    11
 C  C  Rav=1.5076 sigma=0.0000  Rmin=1.5076  Rmax=1.5076     1
 N  C  Rav=1.4112 sigma=0.0516  Rmin=1.3382  Rmax=1.4479     3
 O  C  Rav=1.2364 sigma=0.0000  Rmin=1.2364  Rmax=1.2364     1
 Se C  Rav=1.9640 sigma=0.0171  Rmin=1.9470  Rmax=1.9811     2

 selected bond angles (degree)
 --------------------
H9-C1-N2=109.99                H10-C1-N2=110.01               H10-C1-H9=109.61               H11-C1-N2=108.39               
H11-C1-H9=109.45               H11-C1-H10=109.37              C3-N2-C1=116.28                C4-N2-C1=119.97                
C4-N2-C3=123.72                H12-C3-N2=110.97               H13-C3-N2=111.15               H13-C3-H12=109.22              
H14-C3-N2=108.27               H14-C3-H12=108.40              H14-C3-H13=108.76              O5-C4-N2=122.60                
C6-C4-N2=117.56                C6-C4-O5=119.82                Se7-C6-C4=108.64               H15-C6-C4=109.36               
H15-C6-Se7=106.36              H16-C6-C4=114.05               H16-C6-Se7=107.31              H16-C6-H15=110.80              
C8-Se7-C6= 97.52               H17-C8-Se7=108.03              H18-C8-Se7=107.72              H18-C8-H17=110.70              
H19-C8-Se7=109.02              H19-C8-H17=110.71              H19-C8-H18=110.56              

 selected dihedral angles (degree)
 ---------------------------------
C3-N2-C1-H9= 58.72            C3-N2-C1-H10=297.88           C3-N2-C1-H11=178.34           C4-N2-C1-H9=240.38            
C4-N2-C1-H10=119.54           C4-N2-C1-H11=  0.00           H12-C3-N2-C1=133.65           H12-C3-N2-C4=311.93           
H13-C3-N2-C1=255.41           H13-C3-N2-C4= 73.68           H14-C3-N2-C1= 14.81           H14-C3-N2-C4=193.08           
O5-C4-N2-C1=357.97            O5-C4-N2-C3=179.76            C6-C4-N2-C1=179.82            C6-C4-N2-C3=  1.61            
Se7-C6-C4-N2= 82.29           Se7-C6-C4-O5=264.08           H15-C6-C4-N2=197.98           H15-C6-C4-O5= 19.78           
H16-C6-C4-N2=322.66           H16-C6-C4-O5=144.46           C8-Se7-C6-C4= 69.32           C8-Se7-C6-H15=311.70          
C8-Se7-C6-H16=193.07          H17-C8-Se7-C6=315.21          H18-C8-Se7-C6=195.59          H19-C8-Se7-C6= 75.58          
           -------------------------------------------------
          |                Final Singlepoint                |
           -------------------------------------------------

          ...................................................
          :                      SETUP                      :
          :.................................................:
          :  # basis functions                  49          :
          :  # atomic orbitals                  48          :
          :  # shells                           28          :
          :  # electrons                        48          :
          :  max. iterations                   250          :
          :  Hamiltonian                  GFN2-xTB          :
          :  restarted?                      false          :
          :  GBSA solvation                   true          :
          :  PC potential                    false          :
          :  electronic temp.          300.0000000     K    :
          :  accuracy                    1.0000000          :
          :  -> integral cutoff          0.2500000E+02      :
          :  -> integral neglect         0.1000000E-07      :
          :  -> SCF convergence          0.1000000E-05 Eh   :
          :  -> wf. convergence          0.1000000E-03 e    :
          :  Broyden damping             0.4000000          :
          :  net charge                          0          :
          :  unpaired electrons                  0          :
          ...................................................

 iter      E             dE          RMSdq      gap      omega  full diag
   1    -26.7850939 -0.267851E+02  0.143E-04    3.47       0.0  T
   2    -26.7850939 -0.991207E-11  0.899E-05    3.47     255.2  T
   3    -26.7850939 -0.471445E-11  0.648E-05    3.47     354.0  T

   *** convergence criteria satisfied after 3 iterations ***

         #    Occupation            Energy/Eh            Energy/eV
      -------------------------------------------------------------
         1        2.0000           -0.7529514             -20.4889
       ...           ...                  ...                  ...
        18        2.0000           -0.4813734             -13.0988
        19        2.0000           -0.4657160             -12.6728
        20        2.0000           -0.4587585             -12.4835
        21        2.0000           -0.4444417             -12.0939
        22        2.0000           -0.4068333             -11.0705
        23        2.0000           -0.3934988             -10.7076
        24        2.0000           -0.3676074             -10.0031 (HOMO)
        25                         -0.2402456              -6.5374 (LUMO)
        26                         -0.1936156              -5.2685
        27                         -0.1527299              -4.1560
        28                         -0.0066819              -0.1818
        29                          0.0187694               0.5107
       ...                                ...                  ...
        48                          0.6880957              18.7240
      -------------------------------------------------------------
                  HL-Gap            0.1273618 Eh            3.4657 eV
             Fermi-level           -0.3039265 Eh           -8.2703 eV

 SCC (total)                   0 d,  0 h,  0 min,  0.007 sec
 SCC setup                      ...        0 min,  0.000 sec (  6.380%)
 Dispersion                     ...        0 min,  0.000 sec (  4.722%)
 classical contributions        ...        0 min,  0.000 sec (  1.192%)
 integral evaluation            ...        0 min,  0.001 sec ( 13.746%)
 iterations                     ...        0 min,  0.003 sec ( 38.894%)
 molecular gradient             ...        0 min,  0.002 sec ( 31.978%)
 printout                       ...        0 min,  0.000 sec (  2.832%)

         :::::::::::::::::::::::::::::::::::::::::::::::::::::
         ::                     SUMMARY                     ::
         :::::::::::::::::::::::::::::::::::::::::::::::::::::
         :: total energy             -26.494608514218 Eh    ::
         :: total w/o Gsasa/hb       -26.493612859623 Eh    ::
         :: gradient norm              0.000527891338 Eh/a0 ::
         :: HOMO-LUMO gap              3.465690157982 eV    ::
         ::.................................................::
         :: SCC energy               -26.785022762231 Eh    ::
         :: -> isotropic ES            0.059643172419 Eh    ::
         :: -> anisotropic ES         -0.002587169532 Eh    ::
         :: -> anisotropic XC          0.011008779215 Eh    ::
         :: -> dispersion             -0.014339286778 Eh    ::
         :: -> Gsolv                  -0.014395472847 Eh    ::
         ::    -> Gelec               -0.013399818252 Eh    ::
         ::    -> Gsasa                0.000783634436 Eh    ::
         ::    -> Ghb                 -0.002860048730 Eh    ::
         ::    -> Gshift               0.001080759698 Eh    ::
         :: repulsion energy           0.290414248013 Eh    ::
         :: add. restraining           0.000000000000 Eh    ::
         :: total charge              -0.000000000000 e     ::
         :::::::::::::::::::::::::::::::::::::::::::::::::::::

           -------------------------------------------------
          |                Property Printout                |
           -------------------------------------------------

    * Orbital Energies and Occupations

         #    Occupation            Energy/Eh            Energy/eV
      -------------------------------------------------------------
         1        2.0000           -0.7529514             -20.4889
       ...           ...                  ...                  ...
        12        2.0000           -0.5094519             -13.8629
        13        2.0000           -0.5002986             -13.6138
        14        2.0000           -0.4939050             -13.4398
        15        2.0000           -0.4910609             -13.3624
        16        2.0000           -0.4883573             -13.2889
        17        2.0000           -0.4845277             -13.1847
        18        2.0000           -0.4813734             -13.0988
        19        2.0000           -0.4657160             -12.6728
        20        2.0000           -0.4587585             -12.4835
        21        2.0000           -0.4444417             -12.0939
        22        2.0000           -0.4068333             -11.0705
        23        2.0000           -0.3934988             -10.7076
        24        2.0000           -0.3676074             -10.0031 (HOMO)
        25                         -0.2402456              -6.5374 (LUMO)
        26                         -0.1936156              -5.2685
        27                         -0.1527299              -4.1560
        28                         -0.0066819              -0.1818
        29                          0.0187694               0.5107
        30                          0.0413794               1.1260
        31                          0.0828440               2.2543
        32                          0.1041259               2.8334
        33                          0.1267563               3.4492
        34                          0.1365994               3.7171
        35                          0.1485854               4.0432
       ...                                ...                  ...
        48                          0.6880957              18.7240
      -------------------------------------------------------------
                  HL-Gap            0.1273618 Eh            3.4657 eV
             Fermi-level           -0.3039265 Eh           -8.2703 eV

     #   Z          covCN         q      C6AA      α(0)
     1   6 C        3.703    -0.065    21.911     6.693
     2   7 N        2.731    -0.067    22.546     7.052
     3   6 C        3.696    -0.074    22.091     6.723
     4   6 C        2.813     0.266    22.520     7.775
     5   8 O        0.859    -0.552    24.978     6.701
     6   6 C        3.793    -0.053    21.532     6.608
     7  34 Se       1.982    -0.243   244.014    27.219
     8   6 C        3.743    -0.068    21.873     6.672
     9   1 H        0.925     0.075     2.033     2.230
    10   1 H        0.924     0.075     2.033     2.230
    11   1 H        0.925     0.076     2.018     2.221
    12   1 H        0.924     0.082     1.954     2.186
    13   1 H        0.924     0.074     2.038     2.233
    14   1 H        0.925     0.096     1.823     2.111
    15   1 H        0.925     0.075     2.033     2.230
    16   1 H        0.925     0.086     1.916     2.165
    17   1 H        0.925     0.068     2.105     2.269
    18   1 H        0.925     0.078     2.002     2.212
    19   1 H        0.925     0.070     2.082     2.256

 Mol. C6AA /au·bohr⁶  :       4113.126054
 Mol. C8AA /au·bohr⁸  :     126186.467414
 Mol. α(0) /au        :         99.786446


Wiberg/Mayer (AO) data.
largest (>0.10) Wiberg bond orders for each atom

 ---------------------------------------------------------------------------
     #   Z sym  total        # sym  WBO       # sym  WBO       # sym  WBO
 ---------------------------------------------------------------------------
     1   6 C    3.957 --     2 N    0.991    11 H    0.976     9 H    0.973
                            10 H    0.973
     2   7 N    3.547 --     4 C    1.315     3 C    0.994     1 C    0.991
                             5 O    0.196
     3   6 C    3.955 --     2 N    0.994    14 H    0.976    13 H    0.970
                            12 H    0.959
     4   6 C    3.955 --     5 O    1.561     2 N    1.315     6 C    0.987
     5   8 O    1.897 --     4 C    1.561     2 N    0.196
     6   6 C    3.982 --     7 Se   0.994     4 C    0.987    15 H    0.959
                            16 H    0.949
     7  34 Se   2.280 --     8 C    1.055     6 C    0.994
     8   6 C    3.977 --     7 Se   1.055    19 H    0.970    17 H    0.968
                            18 H    0.966
     9   1 H    0.993 --     1 C    0.973
    10   1 H    0.994 --     1 C    0.973
    11   1 H    0.994 --     1 C    0.976
    12   1 H    0.993 --     3 C    0.959
    13   1 H    0.994 --     3 C    0.970
    14   1 H    0.991 --     3 C    0.976
    15   1 H    0.994 --     6 C    0.959
    16   1 H    0.993 --     6 C    0.949
    17   1 H    0.995 --     8 C    0.968
    18   1 H    0.994 --     8 C    0.966
    19   1 H    0.995 --     8 C    0.970
 ---------------------------------------------------------------------------

Topologies differ in total number of bonds
Writing topology from bond orders to xtbtopo.mol

molecular dipole:
                 x           y           z       tot (Debye)
 q only:       -1.407      -0.974       0.130
   full:       -1.251      -0.633       0.193       3.597
molecular quadrupole (traceless):
                xx          xy          yy          xz          yz          zz
 q only:        9.800       0.954     -11.587      -0.052      -0.468       1.786
  q+dip:       12.185       2.066     -16.031      -0.197       0.891       3.846
   full:       11.629       1.826     -15.268      -1.310       0.962       3.640

           -------------------------------------------------
          |                Geometry Summary                 |
           -------------------------------------------------

      molecular mass/u    :      180.1065244
   center of mass at/Å    :        0.7089185      -0.4794903      -0.0175878
  moments of inertia/u·Å² :        0.2077203E+03   0.5834842E+03   0.6895194E+03
rotational constants/cm⁻¹ :        0.8115544E-01   0.2889133E-01   0.2444838E-01

 * 15 selected distances

     #   Z          #   Z                                           value/Å
     1   6 C        2   7 N                                       1.4478996 (max)
     2   7 N        3   6 C                                       1.4474530
     2   7 N        4   6 C                                       1.3381892
     4   6 C        5   8 O                                       1.2364363
     1   6 C        9   1 H                                       1.0901126
     1   6 C       10   1 H                                       1.0902257
     1   6 C       11   1 H                                       1.0882295
     3   6 C       12   1 H                                       1.0924379
     3   6 C       13   1 H                                       1.0919683
     3   6 C       14   1 H                                       1.0862794
     6   6 C       15   1 H                                       1.0902713
     6   6 C       16   1 H                                       1.0873538
     8   6 C       17   1 H                                       1.0875783
     8   6 C       18   1 H                                       1.0859347 (min)
     8   6 C       19   1 H                                       1.0872087

 * 3 distinct bonds (by element types)

   Z      Z             #   av. dist./Å        max./Å        min./Å
   1 H    6 C          11     1.0888727     1.0924379     1.0859347
   6 C    7 N           3     1.4111806     1.4478996     1.3381892
   6 C    8 O           1     1.2364363     1.2364363     1.2364363


optimized geometry written to: xtbopt.xyz


           -------------------------------------------------
          | TOTAL ENERGY              -26.494608514218 Eh   |
          | GRADIENT NORM               0.000527891338 Eh/α |
          | HOMO-LUMO GAP               3.465690157982 eV   |
           -------------------------------------------------
########################################################################
[WARNING] Runtime exception occurred
-2- restart_readRestart: Dimension missmatch in restart file.
-1- restart_readRestart: Number of electron missmatch in restart file.
########################################################################

------------------------------------------------------------------------
 * finished run on 2026/08/28 at 17:58:34.003     
------------------------------------------------------------------------
 total:
 * wall-time:     0 d,  0 h,  0 min,  0.485 sec
 *  cpu-time:     0 d,  0 h,  0 min,  3.125 sec
 * ratio c/w:     6.446 speedup
 SCF:
 * wall-time:     0 d,  0 h,  0 min,  0.021 sec
 *  cpu-time:     0 d,  0 h,  0 min,  0.172 sec
 * ratio c/w:     8.156 speedup
 ANC optimizer:
 * wall-time:     0 d,  0 h,  0 min,  0.434 sec
 *  cpu-time:     0 d,  0 h,  0 min,  2.844 sec
 * ratio c/w:     6.545 speedup

