      -----------------------------------------------------------      
     |                   =====================                   |     
     |                           x T B                           |     
     |                   =====================                   |     
     |                         S. Grimme                         |     
     |          Mulliken Center for Theoretical Chemistry        |     
     |                    University of Bonn                     |     
      -----------------------------------------------------------      

   * xtb version 6.7.1 (edcfbbe) compiled by 'VssAdministrator@runnervm171ch' on 2026-06-10

   xtb is free software: you can redistribute it and/or modify it under
   the terms of the GNU Lesser General Public License as published by
   the Free Software Foundation, either version 3 of the License, or
   (at your option) any later version.
   
   xtb is distributed in the hope that it will be useful,
   but WITHOUT ANY WARRANTY; without even the implied warranty of
   MERCHANTABILITY or FITNESS FOR A PARTICULAR PURPOSE.  See the
   GNU Lesser General Public License for more details.
   
   Cite this work as:
   * C. Bannwarth, E. Caldeweyher, S. Ehlert, A. Hansen, P. Pracht,
     J. Seibert, S. Spicher, S. Grimme, WIREs Comput. Mol. Sci., 2020, 11,
     e01493. DOI: 10.1002/wcms.1493
   
   for GFN2-xTB:
   * C. Bannwarth, S. Ehlert and S. Grimme., J. Chem. Theory Comput., 2019,
     15, 1652-1671. DOI: 10.1021/acs.jctc.8b01176
   for GFN1-xTB:
   * S. Grimme, C. Bannwarth, P. Shushkov, J. Chem. Theory Comput., 2017,
     13, 1989-2009. DOI: 10.1021/acs.jctc.7b00118
   for GFN0-xTB:
   * P. Pracht, E. Caldeweyher, S. Ehlert, S. Grimme, ChemRxiv, 2019, preprint.
     DOI: 10.26434/chemrxiv.8326202.v1
   for GFN-FF:
   * S. Spicher and S. Grimme, Angew. Chem. Int. Ed., 2020, 59, 15665-15673.
     DOI: 10.1002/anie.202004239
   
   for ALPB and GBSA implicit solvation:
   * S. Ehlert, M. Stahn, S. Spicher, S. Grimme, J. Chem. Theory Comput.,
     2021, 17, 4250-4261. DOI: 10.1021/acs.jctc.1c00471
   
   for ddCOSMO and CPCM-X implicit solvation:
   * M. Stahn, S. Ehlert, S. Grimme, J. Phys. Chem. A,
     2023, XX, XXXX-XXXX. DOI: 10.1021/acs.jpca.3c04382
   
   for DFT-D4:
   * E. Caldeweyher, C. Bannwarth and S. Grimme, J. Chem. Phys., 2017,
     147, 034112. DOI: 10.1063/1.4993215
   * E. Caldeweyher, S. Ehlert, A. Hansen, H. Neugebauer, S. Spicher,
     C. Bannwarth and S. Grimme, J. Chem. Phys., 2019, 150, 154122.
     DOI: 10.1063/1.5090222
   * E. Caldeweyher, J.-M. Mewes, S. Ehlert and S. Grimme, Phys. Chem. Chem. Phys.
     2020, 22, 8499-8512. DOI: 10.1039/D0CP00502A
   
   for sTDA-xTB:
   * S. Grimme and C. Bannwarth, J. Chem. Phys., 2016, 145, 054103.
     DOI: 10.1063/1.4959605
   
   in the mass-spec context:
   * V. Asgeirsson, C. Bauer and S. Grimme, Chem. Sci., 2017, 8, 4879.
     DOI: 10.1039/c7sc00601b
   * J. Koopman and S. Grimme, ACS Omega 2019, 4, 12, 15120-15133.
     DOI: 10.1021/acsomega.9b02011
   
   for metadynamics refer to:
   * S. Grimme, J. Chem. Theory Comput., 2019, 155, 2847-2862
     DOI: 10.1021/acs.jctc.9b00143
   
   for SPH calculations refer to:
   * S. Spicher and S. Grimme, J. Chem. Theory Comput., 2021, 17, 1701-1714
     DOI: 10.1021/acs.jctc.0c01306
   
   for ONIOM refer to:
   * C. Plett, A. Katbashev, S. Ehlert, S. Grimme, M. Bursch,
     Phys. Chem. Chem. Phys., 2023, 25, 17860-17868. DOI: 10.1039/D3CP02178E
   
   for DIPRO refer to:
   * J. Kohn, N. Gildemeister, S. Grimme, D. Fazzi, A. Hansen,
     J. Chem. Phys., 2023, just accepted.
   
   for PTB refer to:
   * S. Grimme, M. Mueller, A. Hansen, J. Chem. Phys., 2023, 158, 124111.
     DOI: 10.1063/5.0137838
   
   with help from (in alphabetical order)
   P. Atkinson, C. Bannwarth, F. Bohle, G. Brandenburg, E. Caldeweyher
   M. Checinski, S. Dohm, S. Ehlert, S. Ehrlich, I. Gerasimov, C. Hölzer
   A. Katbashev, J. Kohn, J. Koopman, C. Lavigne, S. Lehtola, F. März, M. Müller,
   F. Musil, H. Neugebauer, J. Pisarek, C. Plett, P. Pracht, F. Pultar,
   J. Seibert, P. Shushkov, S. Spicher, M. Stahn, M. Steiner, T. Strunk,
   J. Stückrath, T. Rose, and J. Unsleber
   
 * started run on 2026/08/28 at 17:58:32.863     
   ID    Z sym.   atoms
    1    6 C      1, 3, 4, 6
    2    7 N      2
    3    8 O      5
    4   17 Cl     7
    5    1 H      8-15

           -------------------------------------------------
          |                Calculation Setup                |
           -------------------------------------------------

          program call               : C:\Users\Christian\Miniconda3\Library\bin\xtb.exe R_chloroacetamide.xyz --gfn 2 --chrg 0 --opt --alpb water
          coordinate file            : R_chloroacetamide.xyz
          omp threads                :                    12


           -------------------------------------------------
          |                 G F N 2 - x T B                 |
           -------------------------------------------------

        Reference                      10.1021/acs.jctc.8b01176
      * Hamiltonian:
        H0-scaling (s, p, d)           1.850000    2.230000    2.230000
        zeta-weighting                 0.500000
      * Dispersion:
        s8                             2.700000
        a1                             0.520000
        a2                             5.000000
        s9                             5.000000
      * Repulsion:
        kExp                           1.500000    1.000000
        rExp                           1.000000
      * Coulomb:
        alpha                          2.000000
        third order                    shell-resolved
        anisotropic                    true
        a3                             3.000000
        a5                             4.000000
        cn-shift                       1.200000
        cn-exp                         4.000000
        max-rad                        5.000000

      * Solvation model:               ALPB
        Solvent                        water
        Parameter file                 internal GFN2-xTB/ALPB
        Dielectric constant                8.0200E+01
        Reference state                gsolv [1 M gas/solution]
        Free energy shift                  1.0808E-03 Eh       6.7819E-01 kcal/mol
        Temperature                        2.9815E+02 K
        Density                            1.0000E+00 kg/L
        Solvent mass                       1.8000E+01 g/mol
        Interaction kernel             P16
        Born radius scaling (c1)           1.4744E+00
        Born radii integrator          GBOBC
        Born offset                        0.0000E+00 a0       0.0000E+00 AA
        H-bond correction              true
        Ion screening                  false
        Surface tension                    1.0000E-05 Eh       1.5569E+01 dyn/cm
        Grid points                               230 per atom

          ...................................................
          :                      SETUP                      :
          :.................................................:
          :  # basis functions                  42          :
          :  # atomic orbitals                  41          :
          :  # shells                           23          :
          :  # electrons                        42          :
          :  max. iterations                   250          :
          :  Hamiltonian                  GFN2-xTB          :
          :  restarted?                      false          :
          :  GBSA solvation                   true          :
          :  PC potential                    false          :
          :  electronic temp.          300.0000000     K    :
          :  accuracy                    1.0000000          :
          :  -> integral cutoff          0.2500000E+02      :
          :  -> integral neglect         0.1000000E-07      :
          :  -> SCF convergence          0.1000000E-05 Eh   :
          :  -> wf. convergence          0.1000000E-03 e    :
          :  Broyden damping             0.4000000          :
          :  net charge                          0          :
          :  unpaired electrons                  0          :
          ...................................................

 iter      E             dE          RMSdq      gap      omega  full diag
   1    -24.3605766 -0.243606E+02  0.439E+00    3.97       0.0  T
   2    -24.4153873 -0.548106E-01  0.247E+00    4.19       1.0  T
   3    -24.4161995 -0.812259E-03  0.112E+00    4.07       1.0  T
   4    -24.4164711 -0.271584E-03  0.160E-01    4.10       1.0  T
   5    -24.4165311 -0.599935E-04  0.993E-02    4.07       1.0  T
   6    -24.4165481 -0.169357E-04  0.490E-02    4.08       1.0  T
   7    -24.4165587 -0.106884E-04  0.328E-02    4.07       1.0  T
   8    -24.4165633 -0.453591E-05  0.175E-02    4.07       1.5  T
   9    -24.4165652 -0.194259E-05  0.589E-03    4.07       4.4  T
  10    -24.4165653 -0.103636E-06  0.306E-03    4.07       8.4  T
  11    -24.4165654 -0.349022E-07  0.179E-03    4.07      14.5  T
  12    -24.4165654 -0.173885E-07  0.105E-03    4.07      24.7  T
  13    -24.4165654 -0.782175E-08  0.431E-04    4.07      59.9  T
  14    -24.4165654 -0.100846E-08  0.214E-04    4.07     120.6  T

   *** convergence criteria satisfied after 14 iterations ***

         #    Occupation            Energy/Eh            Energy/eV
      -------------------------------------------------------------
         1        2.0000           -1.0665276             -29.0217
       ...           ...                  ...                  ...
        15        2.0000           -0.4798167             -13.0565
        16        2.0000           -0.4789123             -13.0319
        17        2.0000           -0.4650651             -12.6551
        18        2.0000           -0.4401755             -11.9778
        19        2.0000           -0.4266449             -11.6096
        20        2.0000           -0.4074824             -11.0882
        21        2.0000           -0.3936140             -10.7108 (HOMO)
        22                         -0.2441989              -6.6450 (LUMO)
        23                         -0.1518398              -4.1318
        24                         -0.0259273              -0.7055
        25                          0.0023594               0.0642
        26                          0.0059212               0.1611
       ...                                ...                  ...
        41                          0.5391430              14.6708
      -------------------------------------------------------------
                  HL-Gap            0.1494150 Eh            4.0658 eV
             Fermi-level           -0.3189064 Eh           -8.6779 eV

 SCC (total)                   0 d,  0 h,  0 min,  0.022 sec
 SCC setup                      ...        0 min,  0.001 sec (  2.742%)
 Dispersion                     ...        0 min,  0.000 sec (  1.407%)
 classical contributions        ...        0 min,  0.000 sec (  0.537%)
 integral evaluation            ...        0 min,  0.005 sec ( 21.920%)
 iterations                     ...        0 min,  0.013 sec ( 57.601%)
 molecular gradient             ...        0 min,  0.003 sec ( 14.514%)
 printout                       ...        0 min,  0.000 sec (  1.161%)

         :::::::::::::::::::::::::::::::::::::::::::::::::::::
         ::                     SUMMARY                     ::
         :::::::::::::::::::::::::::::::::::::::::::::::::::::
         :: total energy             -24.197551430911 Eh    ::
         :: total w/o Gsasa/hb       -24.197002581725 Eh    ::
         :: gradient norm              0.057751651493 Eh/a0 ::
         :: HOMO-LUMO gap              4.065790104182 eV    ::
         ::.................................................::
         :: SCC energy               -24.416535207776 Eh    ::
         :: -> isotropic ES            0.056692432074 Eh    ::
         :: -> anisotropic ES          0.000158047501 Eh    ::
         :: -> anisotropic XC          0.007821849478 Eh    ::
         :: -> dispersion             -0.010197375496 Eh    ::
         :: -> Gsolv                  -0.014247101038 Eh    ::
         ::    -> Gelec               -0.013698251852 Eh    ::
         ::    -> Gsasa                0.000866874572 Eh    ::
         ::    -> Ghb                 -0.002496483457 Eh    ::
         ::    -> Gshift               0.001080759698 Eh    ::
         :: repulsion energy           0.218983776865 Eh    ::
         :: add. restraining           0.000000000000 Eh    ::
         :: total charge              -0.000000000000 e     ::
         :::::::::::::::::::::::::::::::::::::::::::::::::::::

      ----------------------------------------------------------- 
     |                   =====================                   |
     |                        A N C O P T                        |
     |                   =====================                   |
     |               Approximate Normal Coordinate               |
     |                Rational Function Optimizer                |
      ----------------------------------------------------------- 
      ----------------------------------------------------------- 
     |                   =====================                   |
     |                        A N C O P T                        |
     |                   =====================                   |
     |               Approximate Normal Coordinate               |
     |                Rational Function Optimizer                |
      ----------------------------------------------------------- 

          ...................................................
          :                      SETUP                      :
          :.................................................:
          :   optimization level            normal          :
          :   max. optcycles                   200          :
          :   ANC micro-cycles                  20          :
          :   degrees of freedom                39          :
          :.................................................:
          :   RF solver                   davidson          :
          :   write xtbopt.log                true          :
          :   linear?                        false          :
          :   energy convergence         0.5000000E-05 Eh   :
          :   grad. convergence          0.1000000E-02 Eh/α :
          :   maxmium RF displ.          1.0000000          :
          :   Hlow (freq-cutoff)         0.1000000E-01      :
          :   Hmax (freq-cutoff)         5.0000000          :
          :   S6 in model hess.         20.0000000          :
          ...................................................

generating ANC from exact Hessian ...
Using Lindh-Hessian (1995)
 Shifting diagonal of input Hessian by    7.0868895336464455E-003
 Lowest  eigenvalues of input Hessian
    0.000000    0.000000    0.000000    0.000000    0.000000    0.000000
    0.010000    0.013450    0.016559    0.016968    0.018107    0.025410
    0.035733    0.036849    0.044184    0.063476    0.073994    0.076828
 Highest eigenvalues
    1.136018    1.137950    1.186642    1.508832    1.706897    2.150154


........................................................................
.............................. CYCLE    1 ..............................
........................................................................

 iter      E             dE          RMSdq      gap      omega  full diag
   1    -24.4165654 -0.244166E+02  0.332E-05    4.07       0.0  T
   2    -24.4165654 -0.312639E-11  0.188E-05    4.07    1373.5  T
   3    -24.4165654 -0.408562E-12  0.116E-05    4.07    2216.4  T
     SCC iter.                  ...        0 min,  0.003 sec
     gradient                   ...        0 min,  0.002 sec
 * total energy  :   -24.1975514 Eh     change       -0.2802203E-09 Eh
   gradient norm :     0.0577522 Eh/α   predicted     0.0000000E+00 (-100.00%)
   displ. norm   :     0.2020290 α      lambda       -0.5192544E-02
   maximum displ.:     0.1062272 α      in ANC's #10, #8, #11, ...

........................................................................
.............................. CYCLE    2 ..............................
........................................................................

 iter      E             dE          RMSdq      gap      omega  full diag
   1    -24.4302066 -0.244302E+02  0.231E-01    4.27       0.0  T
   2    -24.4303854 -0.178759E-03  0.134E-01    4.29       1.0  T
   3    -24.4303905 -0.515760E-05  0.674E-02    4.29       1.0  T
   4    -24.4303915 -0.103719E-05  0.858E-03    4.29       3.0  T
   5    -24.4303918 -0.225480E-06  0.596E-03    4.29       4.3  T
   6    -24.4303919 -0.107717E-06  0.333E-03    4.29       7.8  T
   7    -24.4303919 -0.427732E-07  0.215E-03    4.29      12.0  T
   8    -24.4303919 -0.245207E-07  0.661E-04    4.29      39.0  T
   9    -24.4303919 -0.128572E-08  0.326E-04    4.29      79.2  T
     SCC iter.                  ...        0 min,  0.007 sec
     gradient                   ...        0 min,  0.002 sec
 * total energy  :   -24.2010467 Eh     change       -0.3495292E-02 Eh
   gradient norm :     0.0265742 Eh/α   predicted    -0.2702242E-02 ( -22.69%)
   displ. norm   :     0.1408181 α      lambda       -0.1333883E-02
   maximum displ.:     0.0708414 α      in ANC's #8, #7, #10, ...

........................................................................
.............................. CYCLE    3 ..............................
........................................................................

 iter      E             dE          RMSdq      gap      omega  full diag
   1    -24.4366375 -0.244366E+02  0.158E-01    4.40       0.0  T
   2    -24.4367671 -0.129591E-03  0.816E-02    4.42       1.0  T
   3    -24.4367704 -0.333308E-05  0.455E-02    4.42       1.0  T
   4    -24.4367710 -0.555774E-06  0.686E-03    4.42       3.8  T
   5    -24.4367711 -0.100933E-06  0.524E-03    4.42       4.9  T
   6    -24.4367712 -0.129289E-06  0.292E-03    4.42       8.8  T
   7    -24.4367713 -0.398702E-07  0.172E-03    4.42      15.0  T
   8    -24.4367713 -0.177846E-07  0.599E-04    4.42      43.1  T
   9    -24.4367713 -0.133624E-08  0.351E-04    4.42      73.6  T
     SCC iter.                  ...        0 min,  0.007 sec
     gradient                   ...        0 min,  0.002 sec
 * total energy  :   -24.2018193 Eh     change       -0.7725822E-03 Eh
   gradient norm :     0.0071838 Eh/α   predicted    -0.6801672E-03 ( -11.96%)
   displ. norm   :     0.0985996 α      lambda       -0.2910570E-03
   maximum displ.:     0.0651539 α      in ANC's #7, #8, #5, ...

........................................................................
.............................. CYCLE    4 ..............................
........................................................................

 iter      E             dE          RMSdq      gap      omega  full diag
   1    -24.4370184 -0.244370E+02  0.797E-02    4.43       0.0  T
   2    -24.4370312 -0.128437E-04  0.430E-02    4.44       1.0  T
   3    -24.4370318 -0.532754E-06  0.195E-02    4.43       1.3  T
   4    -24.4370321 -0.286521E-06  0.391E-03    4.44       6.6  T
   5    -24.4370321 -0.586396E-07  0.265E-03    4.44       9.7  T
   6    -24.4370321 -0.255107E-07  0.157E-03    4.44      16.5  T
   7    -24.4370322 -0.163603E-07  0.801E-04    4.44      32.2  T
   8    -24.4370322 -0.426660E-08  0.422E-04    4.44      61.2  T
     SCC iter.                  ...        0 min,  0.006 sec
     gradient                   ...        0 min,  0.002 sec
 * total energy  :   -24.2020523 Eh     change       -0.2330027E-03 Eh
   gradient norm :     0.0049500 Eh/α   predicted    -0.1469431E-03 ( -36.94%)
   displ. norm   :     0.2122878 α      lambda       -0.4132871E-03
   maximum displ.:     0.1418499 α      in ANC's #7, #5, #4, ...

........................................................................
.............................. CYCLE    5 ..............................
........................................................................

 iter      E             dE          RMSdq      gap      omega  full diag
   1    -24.4355777 -0.244356E+02  0.146E-01    4.42       0.0  T
   2    -24.4355904 -0.126895E-04  0.837E-02    4.43       1.0  T
   3    -24.4355905 -0.404163E-07  0.230E-02    4.42       1.1  T
   4    -24.4355924 -0.193780E-05  0.637E-03    4.43       4.1  T
   5    -24.4355925 -0.102813E-06  0.434E-03    4.43       6.0  T
   6    -24.4355926 -0.649556E-07  0.251E-03    4.43      10.3  T
   7    -24.4355926 -0.405602E-07  0.136E-03    4.43      19.0  T
   8    -24.4355926 -0.135133E-07  0.676E-04    4.43      38.2  T
   9    -24.4355926 -0.288775E-08  0.214E-04    4.43     120.9  T
     SCC iter.                  ...        0 min,  0.007 sec
     gradient                   ...        0 min,  0.002 sec
 * total energy  :   -24.2022944 Eh     change       -0.2420914E-03 Eh
   gradient norm :     0.0079177 Eh/α   predicted    -0.2159567E-03 ( -10.80%)
   displ. norm   :     0.0936297 α      lambda       -0.1038129E-03
   maximum displ.:     0.0607264 α      in ANC's #5, #7, #4, ...

........................................................................
.............................. CYCLE    6 ..............................
........................................................................

 iter      E             dE          RMSdq      gap      omega  full diag
   1    -24.4356618 -0.244357E+02  0.522E-02    4.43       0.0  T
   2    -24.4356620 -0.202512E-06  0.307E-02    4.43       1.0  T
   3    -24.4356621 -0.909103E-07  0.237E-03    4.43      10.9  T
   4    -24.4356621 -0.118876E-07  0.156E-03    4.43      16.5  T
   5    -24.4356621 -0.488178E-08  0.782E-04    4.43      33.0  T
   6    -24.4356621 -0.215270E-08  0.542E-04    4.43      47.6  T
     SCC iter.                  ...        0 min,  0.005 sec
     gradient                   ...        0 min,  0.002 sec
 * total energy  :   -24.2023813 Eh     change       -0.8686667E-04 Eh
   gradient norm :     0.0066497 Eh/α   predicted    -0.5236256E-04 ( -39.72%)
   displ. norm   :     0.2172982 α      lambda       -0.2294524E-03
   maximum displ.:     0.1540672 α      in ANC's #5, #4, #7, ...

........................................................................
.............................. CYCLE    7 ..............................
........................................................................

 iter      E             dE          RMSdq      gap      omega  full diag
   1    -24.4358347 -0.244358E+02  0.107E-01    4.46       0.0  T
   2    -24.4358367 -0.191967E-05  0.631E-02    4.45       1.0  T
   3    -24.4358368 -0.169062E-06  0.763E-03    4.45       3.4  T
   4    -24.4358372 -0.331645E-06  0.387E-03    4.45       6.7  T
   5    -24.4358372 -0.335836E-07  0.275E-03    4.45       9.4  T
   6    -24.4358372 -0.318876E-07  0.157E-03    4.45      16.5  T
   7    -24.4358372 -0.141593E-07  0.652E-04    4.45      39.6  T
   8    -24.4358372 -0.173342E-08  0.333E-04    4.45      77.6  T
     SCC iter.                  ...        0 min,  0.006 sec
     gradient                   ...        0 min,  0.002 sec
 * total energy  :   -24.2025282 Eh     change       -0.1469193E-03 Eh
   gradient norm :     0.0036733 Eh/α   predicted    -0.1201478E-03 ( -18.22%)
   displ. norm   :     0.1080614 α      lambda       -0.6761026E-04
   maximum displ.:     0.0812650 α      in ANC's #5, #4, #7, ...

........................................................................
.............................. CYCLE    8 ..............................
........................................................................

 iter      E             dE          RMSdq      gap      omega  full diag
   1    -24.4363289 -0.244363E+02  0.472E-02    4.46       0.0  T
   2    -24.4363293 -0.336564E-06  0.280E-02    4.46       1.0  T
   3    -24.4363293 -0.766668E-07  0.361E-03    4.46       7.2  T
   4    -24.4363294 -0.593087E-07  0.250E-03    4.46      10.3  T
   5    -24.4363294 -0.193945E-07  0.189E-03    4.46      13.6  T
   6    -24.4363294 -0.252268E-07  0.944E-04    4.46      27.3  T
   7    -24.4363294 -0.515736E-08  0.451E-04    4.46      57.2  T
     SCC iter.                  ...        0 min,  0.006 sec
     gradient                   ...        0 min,  0.002 sec
 * total energy  :   -24.2025768 Eh     change       -0.4856973E-04 Eh
   gradient norm :     0.0030735 Eh/α   predicted    -0.3420045E-04 ( -29.58%)
   displ. norm   :     0.1007942 α      lambda       -0.4759795E-04
   maximum displ.:     0.0747198 α      in ANC's #5, #4, #3, ...

........................................................................
.............................. CYCLE    9 ..............................
........................................................................

 iter      E             dE          RMSdq      gap      omega  full diag
   1    -24.4367214 -0.244367E+02  0.362E-02    4.47       0.0  T
   2    -24.4367215 -0.134277E-06  0.216E-02    4.47       1.2  T
   3    -24.4367216 -0.105973E-06  0.311E-03    4.47       8.3  T
   4    -24.4367216 -0.250547E-07  0.262E-03    4.47       9.9  T
   5    -24.4367217 -0.454667E-07  0.137E-03    4.47      18.8  T
   6    -24.4367217 -0.139729E-07  0.737E-04    4.47      35.0  T
   7    -24.4367217 -0.279887E-08  0.225E-04    4.47     114.8  T
     SCC iter.                  ...        0 min,  0.006 sec
     gradient                   ...        0 min,  0.003 sec
 * total energy  :   -24.2026105 Eh     change       -0.3373660E-04 Eh
   gradient norm :     0.0025528 Eh/α   predicted    -0.2404149E-04 ( -28.74%)
   displ. norm   :     0.0871397 α      lambda       -0.3435487E-04
   maximum displ.:     0.0589218 α      in ANC's #5, #4, #3, ...

........................................................................
.............................. CYCLE   10 ..............................
........................................................................

 iter      E             dE          RMSdq      gap      omega  full diag
   1    -24.4371071 -0.244371E+02  0.253E-02    4.49       0.0  T
   2    -24.4371072 -0.151741E-06  0.152E-02    4.49       1.7  T
   3    -24.4371073 -0.467248E-07  0.312E-03    4.49       8.3  T
   4    -24.4371073 -0.392457E-07  0.217E-03    4.49      11.9  T
   5    -24.4371074 -0.172378E-07  0.166E-03    4.49      15.6  T
   6    -24.4371074 -0.232892E-07  0.714E-04    4.49      36.2  T
   7    -24.4371074 -0.333527E-08  0.154E-04    4.49     167.2  T
     SCC iter.                  ...        0 min,  0.008 sec
     gradient                   ...        0 min,  0.002 sec
 * total energy  :   -24.2026357 Eh     change       -0.2519763E-04 Eh
   gradient norm :     0.0026392 Eh/α   predicted    -0.1730927E-04 ( -31.31%)
   displ. norm   :     0.1186839 α      lambda       -0.3739131E-04
   maximum displ.:     0.0772386 α      in ANC's #4, #5, #3, ...

........................................................................
.............................. CYCLE   11 ..............................
........................................................................

 iter      E             dE          RMSdq      gap      omega  full diag
   1    -24.4366448 -0.244366E+02  0.339E-02    4.49       0.0  T
   2    -24.4366452 -0.407807E-06  0.203E-02    4.49       1.3  T
   3    -24.4366452 -0.662657E-08  0.429E-03    4.49       6.0  T
   4    -24.4366453 -0.866111E-07  0.196E-03    4.49      13.2  T
   5    -24.4366453 -0.106765E-07  0.159E-03    4.49      16.2  T
   6    -24.4366453 -0.168989E-07  0.893E-04    4.49      28.9  T
   7    -24.4366453 -0.624984E-08  0.339E-04    4.49      76.1  T
     SCC iter.                  ...        0 min,  0.006 sec
     gradient                   ...        0 min,  0.002 sec
 * total energy  :   -24.2026602 Eh     change       -0.2447738E-04 Eh
   gradient norm :     0.0026315 Eh/α   predicted    -0.1896051E-04 ( -22.54%)
   displ. norm   :     0.1155012 α      lambda       -0.5312924E-04
   maximum displ.:     0.0729752 α      in ANC's #4, #2, #7, ...

........................................................................
.............................. CYCLE   12 ..............................
........................................................................

 iter      E             dE          RMSdq      gap      omega  full diag
   1    -24.4376496 -0.244376E+02  0.574E-02    4.50       0.0  T
   2    -24.4376501 -0.456083E-06  0.335E-02    4.50       1.0  T
   3    -24.4376501 -0.347766E-07  0.338E-03    4.50       7.6  T
   4    -24.4376502 -0.610765E-07  0.156E-03    4.50      16.5  T
   5    -24.4376502 -0.483339E-08  0.107E-03    4.50      24.0  T
   6    -24.4376502 -0.429977E-08  0.584E-04    4.50      44.2  T
   7    -24.4376502 -0.193768E-08  0.335E-04    4.50      77.1  T
     SCC iter.                  ...        0 min,  0.006 sec
     gradient                   ...        0 min,  0.002 sec
 * total energy  :   -24.2026826 Eh     change       -0.2246094E-04 Eh
   gradient norm :     0.0038485 Eh/α   predicted    -0.2691946E-04 (  19.85%)
   displ. norm   :     0.1066695 α      lambda       -0.3390706E-04
   maximum displ.:     0.0760969 α      in ANC's #4, #3, #5, ...

........................................................................
.............................. CYCLE   13 ..............................
........................................................................

 iter      E             dE          RMSdq      gap      omega  full diag
   1    -24.4364023 -0.244364E+02  0.336E-02    4.49       0.0  T
   2    -24.4364026 -0.377504E-06  0.198E-02    4.49       1.3  T
   3    -24.4364026  0.422723E-08  0.325E-03    4.49       8.0  T
   4    -24.4364027 -0.501227E-07  0.114E-03    4.49      22.7  T
   5    -24.4364027 -0.320520E-08  0.814E-04    4.49      31.7  T
   6    -24.4364027 -0.251558E-08  0.460E-04    4.49      56.1  T
     SCC iter.                  ...        0 min,  0.005 sec
     gradient                   ...        0 min,  0.002 sec
 * total energy  :   -24.2026977 Eh     change       -0.1512209E-04 Eh
   gradient norm :     0.0032366 Eh/α   predicted    -0.1714797E-04 (  13.40%)
   displ. norm   :     0.0441128 α      lambda       -0.2903944E-04
   maximum displ.:     0.0390950 α      in ANC's #5, #4, #2, ...

........................................................................
.............................. CYCLE   14 ..............................
........................................................................

 iter      E             dE          RMSdq      gap      omega  full diag
   1    -24.4366123 -0.244366E+02  0.237E-02    4.47       0.0  T
   2    -24.4366129 -0.600756E-06  0.137E-02    4.47       1.9  T
   3    -24.4366130 -0.602897E-07  0.561E-03    4.47       4.6  T
   4    -24.4366131 -0.769110E-07  0.255E-03    4.47      10.1  T
   5    -24.4366131 -0.195128E-07  0.206E-03    4.47      12.6  T
   6    -24.4366131 -0.298578E-07  0.110E-03    4.47      23.6  T
   7    -24.4366131 -0.977798E-08  0.294E-04    4.47      87.9  T
   8    -24.4366131 -0.431911E-09  0.110E-04    4.47     233.9  T
     SCC iter.                  ...        0 min,  0.006 sec
     gradient                   ...        0 min,  0.002 sec
 * total energy  :   -24.2027150 Eh     change       -0.1724267E-04 Eh
   gradient norm :     0.0019475 Eh/α   predicted    -0.1454820E-04 ( -15.63%)
   displ. norm   :     0.0500922 α      lambda       -0.9325979E-05
   maximum displ.:     0.0309061 α      in ANC's #4, #2, #5, ...

........................................................................
.............................. CYCLE   15 ..............................
........................................................................

 iter      E             dE          RMSdq      gap      omega  full diag
   1    -24.4369805 -0.244370E+02  0.278E-02    4.47       0.0  T
   2    -24.4369807 -0.153208E-06  0.164E-02    4.47       1.6  T
   3    -24.4369807  0.137865E-07  0.289E-03    4.47       8.9  T
   4    -24.4369807 -0.662089E-07  0.138E-03    4.47      18.7  T
   5    -24.4369807 -0.586234E-08  0.103E-03    4.47      25.0  T
   6    -24.4369807 -0.689609E-08  0.606E-04    4.47      42.6  T
   7    -24.4369807 -0.289422E-08  0.204E-04    4.47     126.6  T
     SCC iter.                  ...        0 min,  0.005 sec
     gradient                   ...        0 min,  0.002 sec
 * total energy  :   -24.2027209 Eh     change       -0.5951836E-05 Eh
   gradient norm :     0.0007042 Eh/α   predicted    -0.4665816E-05 ( -21.61%)
   displ. norm   :     0.0266801 α      lambda       -0.2134010E-05
   maximum displ.:     0.0201666 α      in ANC's #4, #5, #3, ...

........................................................................
.............................. CYCLE   16 ..............................
........................................................................

 iter      E             dE          RMSdq      gap      omega  full diag
   1    -24.4369074 -0.244369E+02  0.979E-03    4.47       0.0  T
   2    -24.4369074 -0.163072E-07  0.583E-03    4.47       4.4  T
   3    -24.4369074 -0.510868E-08  0.992E-04    4.47      26.0  T
   4    -24.4369074 -0.475713E-08  0.696E-04    4.47      37.1  T
     SCC iter.                  ...        0 min,  0.003 sec
     gradient                   ...        0 min,  0.002 sec
 * total energy  :   -24.2027231 Eh     change       -0.2201157E-05 Eh
   gradient norm :     0.0005471 Eh/α   predicted    -0.1065601E-05 ( -51.59%)
   displ. norm   :     0.0250877 α      lambda       -0.1535113E-05
   maximum displ.:     0.0194178 α      in ANC's #4, #1, #2, ...

   *** GEOMETRY OPTIMIZATION CONVERGED AFTER 16 ITERATIONS ***

------------------------------------------------------------------------
 total energy gain   :        -0.0051717 Eh       -3.2453 kcal/mol
 total RMSD          :         0.3199233 a0        0.1693 Å
 total power (kW/mol):        -0.8486459 (step)  -81.6018 (real)
------------------------------------------------------------------------

 ANCopt (total)                0 d,  0 h,  0 min,  0.166 sec
 optimizer setup                ...        0 min,  0.000 sec (  0.192%)
 model hessian                  ...        0 min,  0.005 sec (  3.142%)
 ANC generation                 ...        0 min,  0.000 sec (  0.258%)
 coordinate transformation      ...        0 min,  0.000 sec (  0.073%)
 single point calculation       ...        0 min,  0.153 sec ( 91.905%)
 optimization log               ...        0 min,  0.003 sec (  1.508%)
 hessian update                 ...        0 min,  0.002 sec (  0.939%)
 rational function              ...        0 min,  0.002 sec (  1.373%)

================
 final structure:
================
15
 xtb: 6.7.1 (edcfbbe)
C           -0.54154627643961        1.29094521559990        0.20142599307074
N           -0.44612473468176       -0.12470570087728       -0.07557253875800
C           -1.71303180494132       -0.82701087909362       -0.04583325432098
C            0.68296195685582       -0.81282576312718       -0.24663731871197
O            0.70194742653082       -2.02924773552003       -0.45261081081679
C            2.00193455487554       -0.05460234357283       -0.20362856475546
Cl           2.30989159234919        0.57037048455915        1.44513251380316
H            0.32276106840032        1.83273413679787       -0.16636486295643
H           -0.62870546661545        1.46318509851454        1.27626160658541
H           -1.43423745472069        1.67573713761050       -0.28958332433565
H           -2.35686301924568       -0.46277235712184       -0.84629687598452
H           -1.52585435846197       -1.88917821538925       -0.18645865629204
H           -2.20261521527496       -0.66575703539125        0.91462823846549
H            2.02711721567012        0.78938320015449       -0.89007353292554
H            2.80236551569962       -0.75625524314318       -0.43438761206741

 Bond Distances (Angstroems)
 ---------------------------
C1-N2=1.4456         C1-H8=1.0844         C1-H9=1.0920         C1-H10=1.0891        N2-C1=1.4456         N2-C3=1.4489         
N2-C4=1.3333         C3-N2=1.4489         C3-H11=1.0899        C3-H12=1.0877        C3-H13=1.0900        C4-N2=1.3333         
C4-O5=1.2339         C4-C6=1.5220         O5-C4=1.2339         C6-C4=1.5220         C6-Cl7=1.7899        C6-H14=1.0882        
C6-H15=1.0892        Cl7-C6=1.7899        H8-C1=1.0844         H9-C1=1.0920         H10-C1=1.0891        H11-C3=1.0899        
H12-C3=1.0877        H13-C3=1.0900        H14-C6=1.0882        H15-C6=1.0892        
 C  H  Rav=1.0888 sigma=0.0021  Rmin=1.0844  Rmax=1.0920     8
 C  C  Rav=1.5220 sigma=0.0000  Rmin=1.5220  Rmax=1.5220     1
 N  C  Rav=1.4093 sigma=0.0537  Rmin=1.3333  Rmax=1.4489     3
 O  C  Rav=1.2339 sigma=0.0000  Rmin=1.2339  Rmax=1.2339     1
 Cl C  Rav=1.7899 sigma=0.0000  Rmin=1.7899  Rmax=1.7899     1

 selected bond angles (degree)
 --------------------
H8-C1-N2=111.82                H9-C1-N2=110.38                H9-C1-H8=108.58                H10-C1-N2=108.28               
H10-C1-H8=108.90               H10-C1-H9=108.82               C3-N2-C1=114.39                C4-N2-C1=125.87                
C4-N2-C3=119.54                H11-C3-N2=109.84               H12-C3-N2=108.68               H12-C3-H11=109.45              
H13-C3-N2=109.82               H13-C3-H11=109.41              H13-C3-H12=109.61              O5-C4-N2=122.91                
C6-C4-N2=118.24                C6-C4-O5=118.85                Cl7-C6-C4=110.43               H14-C6-C4=112.87               
H14-C6-Cl7=107.84              H15-C6-C4=108.06               H15-C6-Cl7=107.08              H15-C6-H14=110.43              

 selected dihedral angles (degree)
 ---------------------------------
C3-N2-C1-H8=200.37            C3-N2-C1-H9= 79.38            C3-N2-C1-H10=320.35           C4-N2-C1-H8= 25.61            
C4-N2-C1-H9=264.62            C4-N2-C1-H10=145.59           H11-C3-N2-C1= 64.73           H11-C3-N2-C4=239.84           
H12-C3-N2-C1=184.45           H12-C3-N2-C4=359.56           H13-C3-N2-C1=304.35           H13-C3-N2-C4=119.46           
O5-C4-N2-C1=178.38            O5-C4-N2-C3=  3.87            C6-C4-N2-C1=357.51            C6-C4-N2-C3=183.01            
Cl7-C6-C4-N2= 67.36           Cl7-C6-C4-O5=246.53           H14-C6-C4-N2=306.57           H14-C6-C4-O5=125.74           
H15-C6-C4-N2=184.17           H15-C6-C4-O5=  3.34           
           -------------------------------------------------
          |                Final Singlepoint                |
           -------------------------------------------------

          ...................................................
          :                      SETUP                      :
          :.................................................:
          :  # basis functions                  42          :
          :  # atomic orbitals                  41          :
          :  # shells                           23          :
          :  # electrons                        42          :
          :  max. iterations                   250          :
          :  Hamiltonian                  GFN2-xTB          :
          :  restarted?                      false          :
          :  GBSA solvation                   true          :
          :  PC potential                    false          :
          :  electronic temp.          300.0000000     K    :
          :  accuracy                    1.0000000          :
          :  -> integral cutoff          0.2500000E+02      :
          :  -> integral neglect         0.1000000E-07      :
          :  -> SCF convergence          0.1000000E-05 Eh   :
          :  -> wf. convergence          0.1000000E-03 e    :
          :  Broyden damping             0.4000000          :
          :  net charge                          0          :
          :  unpaired electrons                  0          :
          ...................................................

 iter      E             dE          RMSdq      gap      omega  full diag
   1    -24.4369074 -0.244369E+02  0.500E-04    4.47       0.0  T
   2    -24.4369074 -0.577050E-09  0.435E-04    4.47      59.4  T
   3    -24.4369074 -0.141015E-08  0.203E-04    4.47     127.0  T

   *** convergence criteria satisfied after 3 iterations ***

         #    Occupation            Energy/Eh            Energy/eV
      -------------------------------------------------------------
         1        2.0000           -1.0654662             -28.9928
       ...           ...                  ...                  ...
        15        2.0000           -0.4805916             -13.0776
        16        2.0000           -0.4795408             -13.0490
        17        2.0000           -0.4655415             -12.6680
        18        2.0000           -0.4380635             -11.9203
        19        2.0000           -0.4262743             -11.5995
        20        2.0000           -0.4038965             -10.9906
        21        2.0000           -0.3971095             -10.8059 (HOMO)
        22                         -0.2328928              -6.3373 (LUMO)
        23                         -0.1536776              -4.1818
        24                         -0.0090834              -0.2472
        25                          0.0051076               0.1390
        26                          0.0092467               0.2516
       ...                                ...                  ...
        41                          0.5671803              15.4338
      -------------------------------------------------------------
                  HL-Gap            0.1642166 Eh            4.4686 eV
             Fermi-level           -0.3150011 Eh           -8.5716 eV

 SCC (total)                   0 d,  0 h,  0 min,  0.007 sec
 SCC setup                      ...        0 min,  0.000 sec (  5.397%)
 Dispersion                     ...        0 min,  0.000 sec (  5.380%)
 classical contributions        ...        0 min,  0.000 sec (  1.635%)
 integral evaluation            ...        0 min,  0.001 sec ( 12.618%)
 iterations                     ...        0 min,  0.003 sec ( 38.942%)
 molecular gradient             ...        0 min,  0.002 sec ( 32.552%)
 printout                       ...        0 min,  0.000 sec (  3.188%)

         :::::::::::::::::::::::::::::::::::::::::::::::::::::
         ::                     SUMMARY                     ::
         :::::::::::::::::::::::::::::::::::::::::::::::::::::
         :: total energy             -24.202723149525 Eh    ::
         :: total w/o Gsasa/hb       -24.202071166332 Eh    ::
         :: gradient norm              0.000552081033 Eh/a0 ::
         :: HOMO-LUMO gap              4.468562389673 eV    ::
         ::.................................................::
         :: SCC energy               -24.436878598961 Eh    ::
         :: -> isotropic ES            0.060255409605 Eh    ::
         :: -> anisotropic ES         -0.000978602554 Eh    ::
         :: -> anisotropic XC          0.007401800978 Eh    ::
         :: -> dispersion             -0.010277578192 Eh    ::
         :: -> Gsolv                  -0.015134305373 Eh    ::
         ::    -> Gelec               -0.014482322180 Eh    ::
         ::    -> Gsasa                0.000953063370 Eh    ::
         ::    -> Ghb                 -0.002685806261 Eh    ::
         ::    -> Gshift               0.001080759698 Eh    ::
         :: repulsion energy           0.234155449436 Eh    ::
         :: add. restraining           0.000000000000 Eh    ::
         :: total charge               0.000000000000 e     ::
         :::::::::::::::::::::::::::::::::::::::::::::::::::::

           -------------------------------------------------
          |                Property Printout                |
           -------------------------------------------------

    * Orbital Energies and Occupations

         #    Occupation            Energy/Eh            Energy/eV
      -------------------------------------------------------------
         1        2.0000           -1.0654662             -28.9928
       ...           ...                  ...                  ...
         9        2.0000           -0.5571373             -15.1605
        10        2.0000           -0.5442172             -14.8089
        11        2.0000           -0.5197504             -14.1431
        12        2.0000           -0.5102109             -13.8835
        13        2.0000           -0.5009944             -13.6328
        14        2.0000           -0.4925857             -13.4039
        15        2.0000           -0.4805916             -13.0776
        16        2.0000           -0.4795408             -13.0490
        17        2.0000           -0.4655415             -12.6680
        18        2.0000           -0.4380635             -11.9203
        19        2.0000           -0.4262743             -11.5995
        20        2.0000           -0.4038965             -10.9906
        21        2.0000           -0.3971095             -10.8059 (HOMO)
        22                         -0.2328928              -6.3373 (LUMO)
        23                         -0.1536776              -4.1818
        24                         -0.0090834              -0.2472
        25                          0.0051076               0.1390
        26                          0.0092467               0.2516
        27                          0.0121140               0.3296
        28                          0.0125973               0.3428
        29                          0.0709542               1.9308
        30                          0.1101378               2.9970
        31                          0.1245945               3.3904
        32                          0.1354389               3.6855
       ...                                ...                  ...
        41                          0.5671803              15.4338
      -------------------------------------------------------------
                  HL-Gap            0.1642166 Eh            4.4686 eV
             Fermi-level           -0.3150011 Eh           -8.5716 eV

     #   Z          covCN         q      C6AA      α(0)
     1   6 C        3.698    -0.080    22.207     6.740
     2   7 N        2.730    -0.050    22.208     6.999
     3   6 C        3.708    -0.072    22.028     6.708
     4   6 C        2.791     0.264    22.554     7.779
     5   8 O        0.859    -0.536    24.588     6.648
     6   6 C        3.715    -0.007    20.830     6.521
     7  17 Cl       0.916    -0.214   105.899    15.743
     8   1 H        0.925     0.083     1.947     2.182
     9   1 H        0.924     0.080     1.978     2.199
    10   1 H        0.925     0.093     1.850     2.127
    11   1 H        0.925     0.080     1.982     2.201
    12   1 H        0.925     0.081     1.973     2.197
    13   1 H        0.925     0.079     1.988     2.205
    14   1 H        0.925     0.105     1.743     2.065
    15   1 H        0.925     0.095     1.830     2.115

 Mol. C6AA /au·bohr⁶  :       2464.155029
 Mol. C8AA /au·bohr⁸  :      62276.384100
 Mol. α(0) /au        :         74.430767


Wiberg/Mayer (AO) data.
largest (>0.10) Wiberg bond orders for each atom

 ---------------------------------------------------------------------------
     #   Z sym  total        # sym  WBO       # sym  WBO       # sym  WBO
 ---------------------------------------------------------------------------
     1   6 C    3.950 --     2 N    0.992    10 H    0.973     8 H    0.973
                             9 H    0.968
     2   7 N    3.565 --     4 C    1.338     1 C    0.992     3 C    0.989
                             5 O    0.208
     3   6 C    3.954 --     2 N    0.989    12 H    0.976    13 H    0.972
                            11 H    0.972
     4   6 C    3.960 --     5 O    1.576     2 N    1.338     6 C    0.967
     5   8 O    1.912 --     4 C    1.576     2 N    0.208
     6   6 C    3.920 --    15 H    0.975     4 C    0.967    14 H    0.960
                             7 Cl   0.935
     7  17 Cl   0.995 --     6 C    0.935
     8   1 H    0.993 --     1 C    0.973
     9   1 H    0.994 --     1 C    0.968
    10   1 H    0.991 --     1 C    0.973
    11   1 H    0.993 --     3 C    0.972
    12   1 H    0.994 --     3 C    0.976
    13   1 H    0.994 --     3 C    0.972
    14   1 H    0.989 --     6 C    0.960
    15   1 H    0.991 --     6 C    0.975
 ---------------------------------------------------------------------------

Topologies differ in total number of bonds
Writing topology from bond orders to xtbtopo.mol

molecular dipole:
                 x           y           z       tot (Debye)
 q only:       -1.284       1.714      -0.421
   full:       -1.083       1.701      -0.314       5.188
molecular quadrupole (traceless):
                xx          xy          yy          xz          yz          zz
 q only:        5.398       2.353      -5.206      -4.807      -3.169      -0.192
  q+dip:        6.903       1.251      -7.563      -4.401      -4.841       0.661
   full:        6.261       1.687      -7.757      -4.106      -4.320       1.496

           -------------------------------------------------
          |                Geometry Summary                 |
           -------------------------------------------------

      molecular mass/u    :      121.5655153
   center of mass at/Å    :        0.7323053      -0.1384897       0.3189039
  moments of inertia/u·Å² :        0.1509020E+03   0.3264121E+03   0.4248458E+03
rotational constants/cm⁻¹ :        0.1117124E+00   0.5164524E-01   0.3967942E-01

 * 13 selected distances

     #   Z          #   Z                                           value/Å
     1   6 C        2   7 N                                       1.4456491
     2   7 N        3   6 C                                       1.4488516
     2   7 N        4   6 C                                       1.3332702
     4   6 C        5   8 O                                       1.2338834
     6   6 C        7  17 Cl                                      1.7899280 (max)
     1   6 C        8   1 H                                       1.0843582 (min)
     1   6 C        9   1 H                                       1.0920326
     1   6 C       10   1 H                                       1.0890605
     3   6 C       11   1 H                                       1.0899223
     3   6 C       12   1 H                                       1.0876629
     3   6 C       13   1 H                                       1.0900373
     6   6 C       14   1 H                                       1.0881878
     6   6 C       15   1 H                                       1.0891540

 * 4 distinct bonds (by element types)

   Z      Z             #   av. dist./Å        max./Å        min./Å
   1 H    6 C           8     1.0888019     1.0920326     1.0843582
   6 C    7 N           3     1.4092570     1.4488516     1.3332702
   6 C    8 O           1     1.2338834     1.2338834     1.2338834
   6 C   17 Cl          1     1.7899280     1.7899280     1.7899280


optimized geometry written to: xtbopt.xyz


           -------------------------------------------------
          | TOTAL ENERGY              -24.202723149525 Eh   |
          | GRADIENT NORM               0.000552081033 Eh/α |
          | HOMO-LUMO GAP               4.468562389673 eV   |
           -------------------------------------------------

------------------------------------------------------------------------
 * finished run on 2026/08/28 at 17:58:33.101     
------------------------------------------------------------------------
 total:
 * wall-time:     0 d,  0 h,  0 min,  0.238 sec
 *  cpu-time:     0 d,  0 h,  0 min,  1.391 sec
 * ratio c/w:     5.851 speedup
 SCF:
 * wall-time:     0 d,  0 h,  0 min,  0.023 sec
 *  cpu-time:     0 d,  0 h,  0 min,  0.047 sec
 * ratio c/w:     2.062 speedup
 ANC optimizer:
 * wall-time:     0 d,  0 h,  0 min,  0.176 sec
 *  cpu-time:     0 d,  0 h,  0 min,  1.266 sec
 * ratio c/w:     7.190 speedup

