15

C     -0.571467    1.327135    0.133688
N     -0.478494   -0.093062   -0.173608
C     -1.721240   -0.841790   -0.068086
C      0.714520   -0.816773   -0.172679
O      0.726666   -2.051394   -0.199700
C      2.029208   -0.058305   -0.171856
Cl     2.414219    0.479018    1.474473
H      0.318033    1.876119   -0.175715
H     -0.706390    1.442027    1.213240
H     -1.432899    1.753092   -0.389377
H     -2.504671   -0.323413   -0.628653
H     -1.619525   -1.853612   -0.469913
H     -2.003117   -0.904978    0.987250
H      2.007292    0.794339   -0.854256
H      2.827866   -0.728403   -0.504807
