      -----------------------------------------------------------      
     |                   =====================                   |     
     |                           x T B                           |     
     |                   =====================                   |     
     |                         S. Grimme                         |     
     |          Mulliken Center for Theoretical Chemistry        |     
     |                    University of Bonn                     |     
      -----------------------------------------------------------      

   * xtb version 6.7.1 (edcfbbe) compiled by 'VssAdministrator@runnervm171ch' on 2026-06-10

   xtb is free software: you can redistribute it and/or modify it under
   the terms of the GNU Lesser General Public License as published by
   the Free Software Foundation, either version 3 of the License, or
   (at your option) any later version.
   
   xtb is distributed in the hope that it will be useful,
   but WITHOUT ANY WARRANTY; without even the implied warranty of
   MERCHANTABILITY or FITNESS FOR A PARTICULAR PURPOSE.  See the
   GNU Lesser General Public License for more details.
   
   Cite this work as:
   * C. Bannwarth, E. Caldeweyher, S. Ehlert, A. Hansen, P. Pracht,
     J. Seibert, S. Spicher, S. Grimme, WIREs Comput. Mol. Sci., 2020, 11,
     e01493. DOI: 10.1002/wcms.1493
   
   for GFN2-xTB:
   * C. Bannwarth, S. Ehlert and S. Grimme., J. Chem. Theory Comput., 2019,
     15, 1652-1671. DOI: 10.1021/acs.jctc.8b01176
   for GFN1-xTB:
   * S. Grimme, C. Bannwarth, P. Shushkov, J. Chem. Theory Comput., 2017,
     13, 1989-2009. DOI: 10.1021/acs.jctc.7b00118
   for GFN0-xTB:
   * P. Pracht, E. Caldeweyher, S. Ehlert, S. Grimme, ChemRxiv, 2019, preprint.
     DOI: 10.26434/chemrxiv.8326202.v1
   for GFN-FF:
   * S. Spicher and S. Grimme, Angew. Chem. Int. Ed., 2020, 59, 15665-15673.
     DOI: 10.1002/anie.202004239
   
   for ALPB and GBSA implicit solvation:
   * S. Ehlert, M. Stahn, S. Spicher, S. Grimme, J. Chem. Theory Comput.,
     2021, 17, 4250-4261. DOI: 10.1021/acs.jctc.1c00471
   
   for ddCOSMO and CPCM-X implicit solvation:
   * M. Stahn, S. Ehlert, S. Grimme, J. Phys. Chem. A,
     2023, XX, XXXX-XXXX. DOI: 10.1021/acs.jpca.3c04382
   
   for DFT-D4:
   * E. Caldeweyher, C. Bannwarth and S. Grimme, J. Chem. Phys., 2017,
     147, 034112. DOI: 10.1063/1.4993215
   * E. Caldeweyher, S. Ehlert, A. Hansen, H. Neugebauer, S. Spicher,
     C. Bannwarth and S. Grimme, J. Chem. Phys., 2019, 150, 154122.
     DOI: 10.1063/1.5090222
   * E. Caldeweyher, J.-M. Mewes, S. Ehlert and S. Grimme, Phys. Chem. Chem. Phys.
     2020, 22, 8499-8512. DOI: 10.1039/D0CP00502A
   
   for sTDA-xTB:
   * S. Grimme and C. Bannwarth, J. Chem. Phys., 2016, 145, 054103.
     DOI: 10.1063/1.4959605
   
   in the mass-spec context:
   * V. Asgeirsson, C. Bauer and S. Grimme, Chem. Sci., 2017, 8, 4879.
     DOI: 10.1039/c7sc00601b
   * J. Koopman and S. Grimme, ACS Omega 2019, 4, 12, 15120-15133.
     DOI: 10.1021/acsomega.9b02011
   
   for metadynamics refer to:
   * S. Grimme, J. Chem. Theory Comput., 2019, 155, 2847-2862
     DOI: 10.1021/acs.jctc.9b00143
   
   for SPH calculations refer to:
   * S. Spicher and S. Grimme, J. Chem. Theory Comput., 2021, 17, 1701-1714
     DOI: 10.1021/acs.jctc.0c01306
   
   for ONIOM refer to:
   * C. Plett, A. Katbashev, S. Ehlert, S. Grimme, M. Bursch,
     Phys. Chem. Chem. Phys., 2023, 25, 17860-17868. DOI: 10.1039/D3CP02178E
   
   for DIPRO refer to:
   * J. Kohn, N. Gildemeister, S. Grimme, D. Fazzi, A. Hansen,
     J. Chem. Phys., 2023, just accepted.
   
   for PTB refer to:
   * S. Grimme, M. Mueller, A. Hansen, J. Chem. Phys., 2023, 158, 124111.
     DOI: 10.1063/5.0137838
   
   with help from (in alphabetical order)
   P. Atkinson, C. Bannwarth, F. Bohle, G. Brandenburg, E. Caldeweyher
   M. Checinski, S. Dohm, S. Ehlert, S. Ehrlich, I. Gerasimov, C. Hölzer
   A. Katbashev, J. Kohn, J. Koopman, C. Lavigne, S. Lehtola, F. März, M. Müller,
   F. Musil, H. Neugebauer, J. Pisarek, C. Plett, P. Pracht, F. Pultar,
   J. Seibert, P. Shushkov, S. Spicher, M. Stahn, M. Steiner, T. Strunk,
   J. Stückrath, T. Rose, and J. Unsleber
   
 * started run on 2026/08/28 at 17:58:33.187     
   ID    Z sym.   atoms
    1   34 Se     1
    2    6 C      2
    3    1 H      3-5

           -------------------------------------------------
          |                Calculation Setup                |
           -------------------------------------------------

          program call               : C:\Users\Christian\Miniconda3\Library\bin\xtb.exe R_MeSe_anion.xyz --gfn 2 --chrg -1 --opt --alpb water
          coordinate file            : R_MeSe_anion.xyz
          omp threads                :                    12


           -------------------------------------------------
          |                 G F N 2 - x T B                 |
           -------------------------------------------------

        Reference                      10.1021/acs.jctc.8b01176
      * Hamiltonian:
        H0-scaling (s, p, d)           1.850000    2.230000    2.230000
        zeta-weighting                 0.500000
      * Dispersion:
        s8                             2.700000
        a1                             0.520000
        a2                             5.000000
        s9                             5.000000
      * Repulsion:
        kExp                           1.500000    1.000000
        rExp                           1.000000
      * Coulomb:
        alpha                          2.000000
        third order                    shell-resolved
        anisotropic                    true
        a3                             3.000000
        a5                             4.000000
        cn-shift                       1.200000
        cn-exp                         4.000000
        max-rad                        5.000000

      * Solvation model:               ALPB
        Solvent                        water
        Parameter file                 internal GFN2-xTB/ALPB
        Dielectric constant                8.0200E+01
        Reference state                gsolv [1 M gas/solution]
        Free energy shift                  1.0808E-03 Eh       6.7819E-01 kcal/mol
        Temperature                        2.9815E+02 K
        Density                            1.0000E+00 kg/L
        Solvent mass                       1.8000E+01 g/mol
        Interaction kernel             P16
        Born radius scaling (c1)           1.4744E+00
        Born radii integrator          GBOBC
        Born offset                        0.0000E+00 a0       0.0000E+00 AA
        H-bond correction              true
        Ion screening                  false
        Surface tension                    1.0000E-05 Eh       1.5569E+01 dyn/cm
        Grid points                               230 per atom

          ...................................................
          :                      SETUP                      :
          :.................................................:
          :  # basis functions                  17          :
          :  # atomic orbitals                  16          :
          :  # shells                            8          :
          :  # electrons                        14          :
          :  max. iterations                   250          :
          :  Hamiltonian                  GFN2-xTB          :
          :  restarted?                      false          :
          :  GBSA solvation                   true          :
          :  PC potential                    false          :
          :  electronic temp.          300.0000000     K    :
          :  accuracy                    1.0000000          :
          :  -> integral cutoff          0.2500000E+02      :
          :  -> integral neglect         0.1000000E-07      :
          :  -> SCF convergence          0.1000000E-05 Eh   :
          :  -> wf. convergence          0.1000000E-03 e    :
          :  Broyden damping             0.4000000          :
          :  net charge                         -1          :
          :  unpaired electrons                  0          :
          ...................................................

 iter      E             dE          RMSdq      gap      omega  full diag
   1     -7.1155989 -0.711560E+01  0.745E+00    6.21       0.0  T
   2     -7.2299805 -0.114382E+00  0.705E+00    5.21       1.0  T
   3     -7.2338156 -0.383506E-02  0.429E+00    5.31       1.0  T
   4     -7.2352358 -0.142021E-02  0.109E+00    5.51       1.0  T
   5     -7.2354043 -0.168555E-03  0.415E-01    5.65       1.0  T
   6     -7.2354486 -0.442698E-04  0.210E-01    5.64       1.0  T
   7     -7.2354686 -0.199744E-04  0.255E-02    5.69       1.8  T
   8     -7.2354693 -0.706505E-06  0.976E-03    5.69       4.6  T
   9     -7.2354693 -0.462498E-09  0.129E-03    5.69      34.6  T
  10     -7.2354693 -0.163641E-08  0.403E-04    5.69     110.9  T
  11     -7.2354693 -0.180992E-09  0.183E-05    5.69    2438.0  T

   *** convergence criteria satisfied after 11 iterations ***

         #    Occupation            Energy/Eh            Energy/eV
      -------------------------------------------------------------
         1        2.0000           -0.7192018             -19.5705
         2        2.0000           -0.5911590             -16.0863
         3        2.0000           -0.4912453             -13.3675
         4        2.0000           -0.4860649             -13.2265
         5        2.0000           -0.4731013             -12.8737
         6        2.0000           -0.4014720             -10.9246
         7        2.0000           -0.4007334             -10.9045 (HOMO)
         8                         -0.1917850              -5.2187 (LUMO)
         9                         -0.0120255              -0.3272
        10                         -0.0090757              -0.2470
        11                          0.0562806               1.5315
        12                          0.0570699               1.5529
       ...                                ...                  ...
        16                          0.4167927              11.3415
      -------------------------------------------------------------
                  HL-Gap            0.2089484 Eh            5.6858 eV
             Fermi-level           -0.2962592 Eh           -8.0616 eV

 SCC (total)                   0 d,  0 h,  0 min,  0.011 sec
 SCC setup                      ...        0 min,  0.000 sec (  4.394%)
 Dispersion                     ...        0 min,  0.000 sec (  2.125%)
 classical contributions        ...        0 min,  0.000 sec (  0.953%)
 integral evaluation            ...        0 min,  0.004 sec ( 33.052%)
 iterations                     ...        0 min,  0.005 sec ( 47.539%)
 molecular gradient             ...        0 min,  0.001 sec ( 10.347%)
 printout                       ...        0 min,  0.000 sec (  1.431%)

         :::::::::::::::::::::::::::::::::::::::::::::::::::::
         ::                     SUMMARY                     ::
         :::::::::::::::::::::::::::::::::::::::::::::::::::::
         :: total energy              -7.188905521080 Eh    ::
         :: total w/o Gsasa/hb        -7.179589569654 Eh    ::
         :: gradient norm              0.051614946079 Eh/a0 ::
         :: HOMO-LUMO gap              5.685776197165 eV    ::
         ::.................................................::
         :: SCC energy                -7.235469239160 Eh    ::
         :: -> isotropic ES            0.127557444094 Eh    ::
         :: -> anisotropic ES          0.001354659302 Eh    ::
         :: -> anisotropic XC          0.003458400522 Eh    ::
         :: -> dispersion             -0.001581373151 Eh    ::
         :: -> Gsolv                  -0.121298004991 Eh    ::
         ::    -> Gelec               -0.111982053566 Eh    ::
         ::    -> Gsasa                0.000336559051 Eh    ::
         ::    -> Ghb                 -0.010733270174 Eh    ::
         ::    -> Gshift               0.001080759698 Eh    ::
         :: repulsion energy           0.046563718080 Eh    ::
         :: add. restraining           0.000000000000 Eh    ::
         :: total charge              -1.000000000000 e     ::
         :::::::::::::::::::::::::::::::::::::::::::::::::::::

      ----------------------------------------------------------- 
     |                   =====================                   |
     |                        A N C O P T                        |
     |                   =====================                   |
     |               Approximate Normal Coordinate               |
     |                Rational Function Optimizer                |
      ----------------------------------------------------------- 
      ----------------------------------------------------------- 
     |                   =====================                   |
     |                        A N C O P T                        |
     |                   =====================                   |
     |               Approximate Normal Coordinate               |
     |                Rational Function Optimizer                |
      ----------------------------------------------------------- 

          ...................................................
          :                      SETUP                      :
          :.................................................:
          :   optimization level            normal          :
          :   max. optcycles                   200          :
          :   ANC micro-cycles                  20          :
          :   degrees of freedom                 9          :
          :.................................................:
          :   RF solver                   davidson          :
          :   write xtbopt.log                true          :
          :   linear?                        false          :
          :   energy convergence         0.5000000E-05 Eh   :
          :   grad. convergence          0.1000000E-02 Eh/α :
          :   maxmium RF displ.          1.0000000          :
          :   Hlow (freq-cutoff)         0.1000000E-01      :
          :   Hmax (freq-cutoff)         5.0000000          :
          :   S6 in model hess.         20.0000000          :
          ...................................................

generating ANC from exact Hessian ...
Using Lindh-Hessian (1995)
 Shifting diagonal of input Hessian by    0.0000000000000000     
 Lowest  eigenvalues of input Hessian
    0.000000    0.000000    0.000000    0.000000    0.000000    0.000000
    0.030760    0.031807    0.080563    0.088227    0.088974    0.308768
    0.786359    0.930900    0.986656
 Highest eigenvalues
    0.088227    0.088974    0.308768    0.786359    0.930900    0.986656


........................................................................
.............................. CYCLE    1 ..............................
........................................................................

 iter      E             dE          RMSdq      gap      omega  full diag
   1     -7.2354693 -0.723547E+01  0.122E-05    5.69       0.0  T
   2     -7.2354693 -0.941469E-13  0.455E-06    5.69    9834.6  T
   3     -7.2354693 -0.444089E-14  0.289E-06    5.69   15494.9  T
     SCC iter.                  ...        0 min,  0.002 sec
     gradient                   ...        0 min,  0.001 sec
 * total energy  :    -7.1889055 Eh     change       -0.5542233E-12 Eh
   gradient norm :     0.0516149 Eh/α   predicted     0.0000000E+00 (-100.00%)
   displ. norm   :     0.2109244 α      lambda       -0.6670156E-02
   maximum displ.:     0.1873363 α      in ANC's #3, #7, #2, ...

........................................................................
.............................. CYCLE    2 ..............................
........................................................................

 iter      E             dE          RMSdq      gap      omega  full diag
   1     -7.2452045 -0.724520E+01  0.873E-01    5.84       0.0  T
   2     -7.2452259 -0.214245E-04  0.465E-01    5.86       1.0  T
   3     -7.2452373 -0.113525E-04  0.178E-01    5.87       1.0  T
   4     -7.2452399 -0.261237E-05  0.757E-02    5.88       1.0  T
   5     -7.2452405 -0.665199E-06  0.248E-02    5.88       1.8  T
   6     -7.2452408 -0.292504E-06  0.344E-03    5.89      13.0  T
   7     -7.2452408 -0.178041E-08  0.131E-03    5.89      34.2  T
   8     -7.2452408 -0.136057E-09  0.140E-04    5.89     320.4  T
   9     -7.2452408 -0.364508E-11  0.187E-05    5.89    2391.9  T
     SCC iter.                  ...        0 min,  0.004 sec
     gradient                   ...        0 min,  0.001 sec
 * total energy  :    -7.1922788 Eh     change       -0.3373302E-02 Eh
   gradient norm :     0.0244877 Eh/α   predicted    -0.3483454E-02 (   3.27%)
   displ. norm   :     0.0690142 α      lambda       -0.1339433E-02
   maximum displ.:     0.0427839 α      in ANC's #7, #3, #2, ...

........................................................................
.............................. CYCLE    3 ..............................
........................................................................

 iter      E             dE          RMSdq      gap      omega  full diag
   1     -7.2511603 -0.725116E+01  0.305E-01    5.65       0.0  T
   2     -7.2512006 -0.403055E-04  0.138E-01    5.67       1.0  T
   3     -7.2512026 -0.196846E-05  0.848E-02    5.67       1.0  T
   4     -7.2512030 -0.394748E-06  0.132E-02    5.67       3.4  T
   5     -7.2512030 -0.448728E-07  0.121E-02    5.67       3.7  T
   6     -7.2512030 -0.181768E-07  0.263E-03    5.67      17.0  T
   7     -7.2512030 -0.868954E-09  0.330E-04    5.67     135.3  T
   8     -7.2512030 -0.332561E-10  0.390E-05    5.67    1147.5  T
     SCC iter.                  ...        0 min,  0.003 sec
     gradient                   ...        0 min,  0.001 sec
 * total energy  :    -7.1929712 Eh     change       -0.6923883E-03 Eh
   gradient norm :     0.0064716 Eh/α   predicted    -0.6729073E-03 (  -2.81%)
   displ. norm   :     0.0301642 α      lambda       -0.1482934E-03
   maximum displ.:     0.0159617 α      in ANC's #2, #6, #4, ...

........................................................................
.............................. CYCLE    4 ..............................
........................................................................

 iter      E             dE          RMSdq      gap      omega  full diag
   1     -7.2506309 -0.725063E+01  0.930E-02    5.58       0.0  T
   2     -7.2506325 -0.164761E-05  0.788E-02    5.58       1.0  T
   3     -7.2506328 -0.305702E-06  0.515E-02    5.58       1.0  T
   4     -7.2506331 -0.309770E-06  0.187E-02    5.59       2.4  T
   5     -7.2506332 -0.641019E-07  0.305E-03    5.59      14.7  T
   6     -7.2506332 -0.135141E-08  0.455E-04    5.59      98.3  T
   7     -7.2506332 -0.648281E-11  0.197E-04    5.59     227.0  T
     SCC iter.                  ...        0 min,  0.003 sec
     gradient                   ...        0 min,  0.001 sec
 * total energy  :    -7.1930580 Eh     change       -0.8674237E-04 Eh
   gradient norm :     0.0022368 Eh/α   predicted    -0.7421544E-04 ( -14.44%)
   displ. norm   :     0.0211822 α      lambda       -0.3264343E-04
   maximum displ.:     0.0143304 α      in ANC's #2, #1, #6, ...

........................................................................
.............................. CYCLE    5 ..............................
........................................................................

 iter      E             dE          RMSdq      gap      omega  full diag
   1     -7.2500620 -0.725006E+01  0.550E-02    5.54       0.0  T
   2     -7.2500624 -0.321288E-06  0.445E-02    5.54       1.0  T
   3     -7.2500625 -0.129376E-06  0.236E-02    5.55       1.9  T
   4     -7.2500626 -0.749885E-07  0.116E-02    5.55       3.9  T
   5     -7.2500626 -0.223232E-07  0.219E-03    5.55      20.4  T
   6     -7.2500626 -0.100484E-08  0.240E-04    5.55     186.1  T
   7     -7.2500626 -0.468514E-11  0.101E-04    5.55     441.7  T
     SCC iter.                  ...        0 min,  0.003 sec
     gradient                   ...        0 min,  0.002 sec
 * total energy  :    -7.1930666 Eh     change       -0.8642292E-05 Eh
   gradient norm :     0.0009457 Eh/α   predicted    -0.1632982E-04 (  88.95%)
   displ. norm   :     0.0151337 α      lambda       -0.7071625E-05
   maximum displ.:     0.0106707 α      in ANC's #2, #1, #4, ...

........................................................................
.............................. CYCLE    6 ..............................
........................................................................

 iter      E             dE          RMSdq      gap      omega  full diag
   1     -7.2502630 -0.725026E+01  0.280E-02    5.55       0.0  T
   2     -7.2502630 -0.220465E-07  0.168E-02    5.55       2.7  T
   3     -7.2502630 -0.126886E-07  0.515E-03    5.55       8.7  T
   4     -7.2502630 -0.613740E-10  0.509E-03    5.55       8.8  T
   5     -7.2502630 -0.219392E-08  0.742E-04    5.55      60.2  T
   6     -7.2502630 -0.202758E-09  0.161E-04    5.55     278.5  T
     SCC iter.                  ...        0 min,  0.003 sec
     gradient                   ...        0 min,  0.001 sec
 * total energy  :    -7.1930688 Eh     change       -0.2203434E-05 Eh
   gradient norm :     0.0005297 Eh/α   predicted    -0.3537977E-05 (  60.57%)
   displ. norm   :     0.0060221 α      lambda       -0.1634873E-05
   maximum displ.:     0.0046979 α      in ANC's #1, #2, #4, ...

   *** GEOMETRY OPTIMIZATION CONVERGED AFTER 6 ITERATIONS ***

------------------------------------------------------------------------
 total energy gain   :        -0.0041633 Eh       -2.6125 kcal/mol
 total RMSD          :         0.0905411 a0        0.0479 Å
 total power (kW/mol):        -1.8217809 (step) -308.9003 (real)
------------------------------------------------------------------------

 ANCopt (total)                0 d,  0 h,  0 min,  0.035 sec
 optimizer setup                ...        0 min,  0.000 sec (  0.609%)
 model hessian                  ...        0 min,  0.000 sec (  0.442%)
 ANC generation                 ...        0 min,  0.000 sec (  0.252%)
 coordinate transformation      ...        0 min,  0.000 sec (  0.078%)
 single point calculation       ...        0 min,  0.033 sec ( 92.106%)
 optimization log               ...        0 min,  0.001 sec (  1.977%)
 hessian update                 ...        0 min,  0.001 sec (  1.498%)
 rational function              ...        0 min,  0.001 sec (  2.040%)

================
 final structure:
================
5
 xtb: 6.7.1 (edcfbbe)
Se           1.76450034013079        0.00940542151337       -0.01174377629030
C           -0.21393820837235       -0.00044074611754        0.00188465598043
H           -0.51655952287473       -0.61204359281550       -0.83997163789480
H           -0.52395390976118        1.03258869516449       -0.10174617403201
H           -0.51004869912253       -0.42950977774481        0.95157793223669

 Bond Distances (Angstroems)
 ---------------------------
Se1-C2=1.9785        C2-Se1=1.9785        C2-H3=1.0837         C2-H4=1.0835         C2-H5=1.0834         H3-C2=1.0837         
H4-C2=1.0835         H5-C2=1.0834         
 C  H  Rav=1.0835 sigma=0.0001  Rmin=1.0834  Rmax=1.0837     3
 Se C  Rav=1.9785 sigma=0.0000  Rmin=1.9785  Rmax=1.9785     1

 selected bond angles (degree)
 --------------------
H3-C2-Se1=106.06               H4-C2-Se1=106.30               H4-C2-H3=112.57                H5-C2-Se1=106.34               
H5-C2-H3=112.40                H5-C2-H4=112.53                

 selected dihedral angles (degree)
 ---------------------------------

           -------------------------------------------------
          |                Final Singlepoint                |
           -------------------------------------------------

          ...................................................
          :                      SETUP                      :
          :.................................................:
          :  # basis functions                  17          :
          :  # atomic orbitals                  16          :
          :  # shells                            8          :
          :  # electrons                        14          :
          :  max. iterations                   250          :
          :  Hamiltonian                  GFN2-xTB          :
          :  restarted?                      false          :
          :  GBSA solvation                   true          :
          :  PC potential                    false          :
          :  electronic temp.          300.0000000     K    :
          :  accuracy                    1.0000000          :
          :  -> integral cutoff          0.2500000E+02      :
          :  -> integral neglect         0.1000000E-07      :
          :  -> SCF convergence          0.1000000E-05 Eh   :
          :  -> wf. convergence          0.1000000E-03 e    :
          :  Broyden damping             0.4000000          :
          :  net charge                         -1          :
          :  unpaired electrons                  0          :
          ...................................................

 iter      E             dE          RMSdq      gap      omega  full diag
   1     -7.2502630 -0.725026E+01  0.279E-05    5.55       0.0  T
   2     -7.2502630 -0.355271E-13  0.171E-05    5.55    2610.6  T
   3     -7.2502630 -0.621725E-14  0.440E-06    5.55   10174.5  T

   *** convergence criteria satisfied after 3 iterations ***

         #    Occupation            Energy/Eh            Energy/eV
      -------------------------------------------------------------
         1        2.0000           -0.7188693             -19.5614
         2        2.0000           -0.5950524             -16.1922
         3        2.0000           -0.4942354             -13.4488
         4        2.0000           -0.4941052             -13.4453
         5        2.0000           -0.4703469             -12.7988
         6        2.0000           -0.4050190             -11.0211
         7        2.0000           -0.4049797             -11.0201 (HOMO)
         8                         -0.2009813              -5.4690 (LUMO)
         9                         -0.0096545              -0.2627
        10                         -0.0095478              -0.2598
        11                          0.0526692               1.4332
        12                          0.0527514               1.4354
       ...                                ...                  ...
        16                          0.3738426              10.1728
      -------------------------------------------------------------
                  HL-Gap            0.2039984 Eh            5.5511 eV
             Fermi-level           -0.3029805 Eh           -8.2445 eV

 SCC (total)                   0 d,  0 h,  0 min,  0.004 sec
 SCC setup                      ...        0 min,  0.000 sec (  9.198%)
 Dispersion                     ...        0 min,  0.000 sec (  4.556%)
 classical contributions        ...        0 min,  0.000 sec (  2.336%)
 integral evaluation            ...        0 min,  0.000 sec ( 11.293%)
 iterations                     ...        0 min,  0.002 sec ( 44.796%)
 molecular gradient             ...        0 min,  0.001 sec ( 24.648%)
 printout                       ...        0 min,  0.000 sec (  2.722%)

         :::::::::::::::::::::::::::::::::::::::::::::::::::::
         ::                     SUMMARY                     ::
         :::::::::::::::::::::::::::::::::::::::::::::::::::::
         :: total energy              -7.193068799246 Eh    ::
         :: total w/o Gsasa/hb        -7.182851164645 Eh    ::
         :: gradient norm              0.000539660217 Eh/a0 ::
         :: HOMO-LUMO gap              5.551078213531 eV    ::
         ::.................................................::
         :: SCC energy                -7.250262961434 Eh    ::
         :: -> isotropic ES            0.131085781761 Eh    ::
         :: -> anisotropic ES         -0.001754131504 Eh    ::
         :: -> anisotropic XC          0.003811640688 Eh    ::
         :: -> dispersion             -0.001534960821 Eh    ::
         :: -> Gsolv                  -0.124775232405 Eh    ::
         ::    -> Gelec               -0.114557597803 Eh    ::
         ::    -> Gsasa                0.000311662205 Eh    ::
         ::    -> Ghb                 -0.011610056504 Eh    ::
         ::    -> Gshift               0.001080759698 Eh    ::
         :: repulsion energy           0.057194162188 Eh    ::
         :: add. restraining           0.000000000000 Eh    ::
         :: total charge              -1.000000000000 e     ::
         :::::::::::::::::::::::::::::::::::::::::::::::::::::

           -------------------------------------------------
          |                Property Printout                |
           -------------------------------------------------

    * Orbital Energies and Occupations

         #    Occupation            Energy/Eh            Energy/eV
      -------------------------------------------------------------
         1        2.0000           -0.7188693             -19.5614
         2        2.0000           -0.5950524             -16.1922
         3        2.0000           -0.4942354             -13.4488
         4        2.0000           -0.4941052             -13.4453
         5        2.0000           -0.4703469             -12.7988
         6        2.0000           -0.4050190             -11.0211
         7        2.0000           -0.4049797             -11.0201 (HOMO)
         8                         -0.2009813              -5.4690 (LUMO)
         9                         -0.0096545              -0.2627
        10                         -0.0095478              -0.2598
        11                          0.0526692               1.4332
        12                          0.0527514               1.4354
        13                          0.1324430               3.6040
        14                          0.2364982               6.4354
        15                          0.2371885               6.4542
        16                          0.3738426              10.1728
      -------------------------------------------------------------
                  HL-Gap            0.2039984 Eh            5.5511 eV
             Fermi-level           -0.3029805 Eh           -8.2445 eV

     #   Z          covCN         q      C6AA      α(0)
     1  34 Se       0.964    -1.326   274.959    29.060
     2   6 C        3.739     0.085    19.251     6.260
     3   1 H        0.926     0.081     1.973     2.197
     4   1 H        0.926     0.081     1.973     2.196
     5   1 H        0.926     0.080     1.974     2.197

 Mol. C6AA /au·bohr⁶  :        630.617326
 Mol. C8AA /au·bohr⁸  :      31579.181736
 Mol. α(0) /au        :         41.910153


Wiberg/Mayer (AO) data.
largest (>0.10) Wiberg bond orders for each atom

 ---------------------------------------------------------------------------
     #   Z sym  total        # sym  WBO       # sym  WBO       # sym  WBO
 ---------------------------------------------------------------------------
     1  34 Se   1.074 --     2 C    1.005
     2   6 C    3.917 --     1 Se   1.005     5 H    0.971     3 H    0.971
                             4 H    0.970
     3   1 H    0.994 --     2 C    0.971
     4   1 H    0.994 --     2 C    0.970
     5   1 H    0.994 --     2 C    0.971
 ---------------------------------------------------------------------------

Topologies differ in total number of bonds
Writing topology from bond orders to xtbtopo.mol

molecular dipole:
                 x           y           z       tot (Debye)
 q only:       -4.692      -0.025       0.031
   full:       -4.702      -0.025       0.031      11.953
molecular quadrupole (traceless):
                xx          xy          yy          xz          yz          zz
 q only:      -14.968      -0.121       7.485       0.148       0.001       7.482
  q+dip:      -16.741      -0.137       8.375       0.160       0.001       8.366
   full:      -15.625      -0.127       7.816       0.151       0.001       7.809

           -------------------------------------------------
          |                Geometry Summary                 |
           -------------------------------------------------

      molecular mass/u    :       93.9939467
   center of mass at/Å    :        1.4382995       0.0077486      -0.0095188
  moments of inertia/u·Å² :        0.3272530E+01   0.5438684E+02   0.5439088E+02
rotational constants/cm⁻¹ :        0.5151253E+01   0.3099580E+00   0.3099349E+00

 * 3 selected distances

     #   Z          #   Z                                           value/Å
     2   6 C        3   1 H                                       1.0836789 (max)
     2   6 C        4   1 H                                       1.0835124
     2   6 C        5   1 H                                       1.0833740 (min)

 * 1 distinct bonds (by element types)

   Z      Z             #   av. dist./Å        max./Å        min./Å
   1 H    6 C           3     1.0835218     1.0836789     1.0833740


optimized geometry written to: xtbopt.xyz


           -------------------------------------------------
          | TOTAL ENERGY               -7.193068799246 Eh   |
          | GRADIENT NORM               0.000539660217 Eh/α |
          | HOMO-LUMO GAP               5.551078213531 eV   |
           -------------------------------------------------
########################################################################
[WARNING] Runtime exception occurred
-2- restart_readRestart: Dimension missmatch in restart file.
-1- restart_readRestart: Number of electron missmatch in restart file.
########################################################################

------------------------------------------------------------------------
 * finished run on 2026/08/28 at 17:58:33.266     
------------------------------------------------------------------------
 total:
 * wall-time:     0 d,  0 h,  0 min,  0.079 sec
 *  cpu-time:     0 d,  0 h,  0 min,  0.094 sec
 * ratio c/w:     1.181 speedup
 SCF:
 * wall-time:     0 d,  0 h,  0 min,  0.011 sec
 *  cpu-time:     0 d,  0 h,  0 min,  0.016 sec
 * ratio c/w:     1.404 speedup
 ANC optimizer:
 * wall-time:     0 d,  0 h,  0 min,  0.042 sec
 *  cpu-time:     0 d,  0 h,  0 min,  0.031 sec
 * ratio c/w:     0.745 speedup

