      -----------------------------------------------------------      
     |                   =====================                   |     
     |                           x T B                           |     
     |                   =====================                   |     
     |                         S. Grimme                         |     
     |          Mulliken Center for Theoretical Chemistry        |     
     |                    University of Bonn                     |     
      -----------------------------------------------------------      

   * xtb version 6.7.1 (edcfbbe) compiled by 'VssAdministrator@runnervm171ch' on 2026-06-10

   xtb is free software: you can redistribute it and/or modify it under
   the terms of the GNU Lesser General Public License as published by
   the Free Software Foundation, either version 3 of the License, or
   (at your option) any later version.
   
   xtb is distributed in the hope that it will be useful,
   but WITHOUT ANY WARRANTY; without even the implied warranty of
   MERCHANTABILITY or FITNESS FOR A PARTICULAR PURPOSE.  See the
   GNU Lesser General Public License for more details.
   
   Cite this work as:
   * C. Bannwarth, E. Caldeweyher, S. Ehlert, A. Hansen, P. Pracht,
     J. Seibert, S. Spicher, S. Grimme, WIREs Comput. Mol. Sci., 2020, 11,
     e01493. DOI: 10.1002/wcms.1493
   
   for GFN2-xTB:
   * C. Bannwarth, S. Ehlert and S. Grimme., J. Chem. Theory Comput., 2019,
     15, 1652-1671. DOI: 10.1021/acs.jctc.8b01176
   for GFN1-xTB:
   * S. Grimme, C. Bannwarth, P. Shushkov, J. Chem. Theory Comput., 2017,
     13, 1989-2009. DOI: 10.1021/acs.jctc.7b00118
   for GFN0-xTB:
   * P. Pracht, E. Caldeweyher, S. Ehlert, S. Grimme, ChemRxiv, 2019, preprint.
     DOI: 10.26434/chemrxiv.8326202.v1
   for GFN-FF:
   * S. Spicher and S. Grimme, Angew. Chem. Int. Ed., 2020, 59, 15665-15673.
     DOI: 10.1002/anie.202004239
   
   for ALPB and GBSA implicit solvation:
   * S. Ehlert, M. Stahn, S. Spicher, S. Grimme, J. Chem. Theory Comput.,
     2021, 17, 4250-4261. DOI: 10.1021/acs.jctc.1c00471
   
   for ddCOSMO and CPCM-X implicit solvation:
   * M. Stahn, S. Ehlert, S. Grimme, J. Phys. Chem. A,
     2023, XX, XXXX-XXXX. DOI: 10.1021/acs.jpca.3c04382
   
   for DFT-D4:
   * E. Caldeweyher, C. Bannwarth and S. Grimme, J. Chem. Phys., 2017,
     147, 034112. DOI: 10.1063/1.4993215
   * E. Caldeweyher, S. Ehlert, A. Hansen, H. Neugebauer, S. Spicher,
     C. Bannwarth and S. Grimme, J. Chem. Phys., 2019, 150, 154122.
     DOI: 10.1063/1.5090222
   * E. Caldeweyher, J.-M. Mewes, S. Ehlert and S. Grimme, Phys. Chem. Chem. Phys.
     2020, 22, 8499-8512. DOI: 10.1039/D0CP00502A
   
   for sTDA-xTB:
   * S. Grimme and C. Bannwarth, J. Chem. Phys., 2016, 145, 054103.
     DOI: 10.1063/1.4959605
   
   in the mass-spec context:
   * V. Asgeirsson, C. Bauer and S. Grimme, Chem. Sci., 2017, 8, 4879.
     DOI: 10.1039/c7sc00601b
   * J. Koopman and S. Grimme, ACS Omega 2019, 4, 12, 15120-15133.
     DOI: 10.1021/acsomega.9b02011
   
   for metadynamics refer to:
   * S. Grimme, J. Chem. Theory Comput., 2019, 155, 2847-2862
     DOI: 10.1021/acs.jctc.9b00143
   
   for SPH calculations refer to:
   * S. Spicher and S. Grimme, J. Chem. Theory Comput., 2021, 17, 1701-1714
     DOI: 10.1021/acs.jctc.0c01306
   
   for ONIOM refer to:
   * C. Plett, A. Katbashev, S. Ehlert, S. Grimme, M. Bursch,
     Phys. Chem. Chem. Phys., 2023, 25, 17860-17868. DOI: 10.1039/D3CP02178E
   
   for DIPRO refer to:
   * J. Kohn, N. Gildemeister, S. Grimme, D. Fazzi, A. Hansen,
     J. Chem. Phys., 2023, just accepted.
   
   for PTB refer to:
   * S. Grimme, M. Mueller, A. Hansen, J. Chem. Phys., 2023, 158, 124111.
     DOI: 10.1063/5.0137838
   
   with help from (in alphabetical order)
   P. Atkinson, C. Bannwarth, F. Bohle, G. Brandenburg, E. Caldeweyher
   M. Checinski, S. Dohm, S. Ehlert, S. Ehrlich, I. Gerasimov, C. Hölzer
   A. Katbashev, J. Kohn, J. Koopman, C. Lavigne, S. Lehtola, F. März, M. Müller,
   F. Musil, H. Neugebauer, J. Pisarek, C. Plett, P. Pracht, F. Pultar,
   J. Seibert, P. Shushkov, S. Spicher, M. Stahn, M. Steiner, T. Strunk,
   J. Stückrath, T. Rose, and J. Unsleber
   
 * started run on 2026/08/28 at 17:58:33.374     
   ID    Z sym.   atoms
    1   16 S      1
    2    6 C      2
    3    1 H      3-5

           -------------------------------------------------
          |                Calculation Setup                |
           -------------------------------------------------

          program call               : C:\Users\Christian\Miniconda3\Library\bin\xtb.exe R_MeS_anion.xyz --gfn 2 --chrg -1 --opt --alpb water
          coordinate file            : R_MeS_anion.xyz
          omp threads                :                    12


           -------------------------------------------------
          |                 G F N 2 - x T B                 |
           -------------------------------------------------

        Reference                      10.1021/acs.jctc.8b01176
      * Hamiltonian:
        H0-scaling (s, p, d)           1.850000    2.230000    2.230000
        zeta-weighting                 0.500000
      * Dispersion:
        s8                             2.700000
        a1                             0.520000
        a2                             5.000000
        s9                             5.000000
      * Repulsion:
        kExp                           1.500000    1.000000
        rExp                           1.000000
      * Coulomb:
        alpha                          2.000000
        third order                    shell-resolved
        anisotropic                    true
        a3                             3.000000
        a5                             4.000000
        cn-shift                       1.200000
        cn-exp                         4.000000
        max-rad                        5.000000

      * Solvation model:               ALPB
        Solvent                        water
        Parameter file                 internal GFN2-xTB/ALPB
        Dielectric constant                8.0200E+01
        Reference state                gsolv [1 M gas/solution]
        Free energy shift                  1.0808E-03 Eh       6.7819E-01 kcal/mol
        Temperature                        2.9815E+02 K
        Density                            1.0000E+00 kg/L
        Solvent mass                       1.8000E+01 g/mol
        Interaction kernel             P16
        Born radius scaling (c1)           1.4744E+00
        Born radii integrator          GBOBC
        Born offset                        0.0000E+00 a0       0.0000E+00 AA
        H-bond correction              true
        Ion screening                  false
        Surface tension                    1.0000E-05 Eh       1.5569E+01 dyn/cm
        Grid points                               230 per atom
q/qsh data taken from xtbrestart
CAMM data taken from xtbrestart

          ...................................................
          :                      SETUP                      :
          :.................................................:
          :  # basis functions                  17          :
          :  # atomic orbitals                  16          :
          :  # shells                            8          :
          :  # electrons                        14          :
          :  max. iterations                   250          :
          :  Hamiltonian                  GFN2-xTB          :
          :  restarted?                       true          :
          :  GBSA solvation                   true          :
          :  PC potential                    false          :
          :  electronic temp.          300.0000000     K    :
          :  accuracy                    1.0000000          :
          :  -> integral cutoff          0.2500000E+02      :
          :  -> integral neglect         0.1000000E-07      :
          :  -> SCF convergence          0.1000000E-05 Eh   :
          :  -> wf. convergence          0.1000000E-03 e    :
          :  Broyden damping             0.4000000          :
          :  net charge                         -1          :
          :  unpaired electrons                  0          :
          ...................................................

 iter      E             dE          RMSdq      gap      omega  full diag
   1     -7.2310782 -0.723108E+01  0.569E+00    3.93       0.0  T
   2     -7.2536774 -0.225992E-01  0.186E+00    4.29       1.0  T
   3     -7.2551406 -0.146319E-02  0.125E+00    4.24       1.0  T
   4     -7.2555127 -0.372145E-03  0.660E-01    4.27       1.0  T
   5     -7.2555856 -0.728334E-04  0.173E-01    4.26       1.0  T
   6     -7.2555894 -0.378616E-05  0.417E-02    4.25       1.1  T
   7     -7.2555896 -0.250572E-06  0.142E-02    4.25       3.1  T
   8     -7.2555897 -0.337861E-07  0.108E-03    4.25      41.5  T
   9     -7.2555897 -0.917195E-10  0.569E-04    4.25      78.7  T
  10     -7.2555897 -0.349782E-10  0.713E-05    4.25     627.3  T

   *** convergence criteria satisfied after 10 iterations ***

         #    Occupation            Energy/Eh            Energy/eV
      -------------------------------------------------------------
         1        2.0000           -0.6313095             -17.1788
         2        2.0000           -0.5784235             -15.7397
         3        2.0000           -0.4741449             -12.9021
         4        2.0000           -0.4741427             -12.9021
         5        2.0000           -0.4189403             -11.3999
         6        2.0000           -0.2888420              -7.8598
         7        2.0000           -0.2888419              -7.8598 (HOMO)
         8                         -0.1325750              -3.6076 (LUMO)
         9                          0.0399854               1.0881
        10                          0.0399859               1.0881
        11                          0.0611124               1.6630
        12                          0.0611125               1.6630
       ...                                ...                  ...
        16                          0.3288549               8.9486
      -------------------------------------------------------------
                  HL-Gap            0.1562669 Eh            4.2522 eV
             Fermi-level           -0.2107085 Eh           -5.7337 eV

 SCC (total)                   0 d,  0 h,  0 min,  0.010 sec
 SCC setup                      ...        0 min,  0.000 sec (  4.519%)
 Dispersion                     ...        0 min,  0.000 sec (  2.002%)
 classical contributions        ...        0 min,  0.000 sec (  0.973%)
 integral evaluation            ...        0 min,  0.003 sec ( 33.233%)
 iterations                     ...        0 min,  0.005 sec ( 46.937%)
 molecular gradient             ...        0 min,  0.001 sec ( 10.776%)
 printout                       ...        0 min,  0.000 sec (  1.398%)

         :::::::::::::::::::::::::::::::::::::::::::::::::::::
         ::                     SUMMARY                     ::
         :::::::::::::::::::::::::::::::::::::::::::::::::::::
         :: total energy              -7.200233140114 Eh    ::
         :: total w/o Gsasa/hb        -7.203723051197 Eh    ::
         :: gradient norm              0.021069876875 Eh/a0 ::
         :: HOMO-LUMO gap              4.252238964894 eV    ::
         ::.................................................::
         :: SCC energy                -7.255589610957 Eh    ::
         :: -> isotropic ES            0.151462096712 Eh    ::
         :: -> anisotropic ES          0.004017374147 Eh    ::
         :: -> anisotropic XC          0.006523582012 Eh    ::
         :: -> dispersion             -0.001871656605 Eh    ::
         :: -> Gsolv                  -0.098903514061 Eh    ::
         ::    -> Gelec               -0.102393425144 Eh    ::
         ::    -> Gsasa                0.002559248652 Eh    ::
         ::    -> Ghb                 -0.000150097267 Eh    ::
         ::    -> Gshift               0.001080759698 Eh    ::
         :: repulsion energy           0.055356470843 Eh    ::
         :: add. restraining           0.000000000000 Eh    ::
         :: total charge              -1.000000000000 e     ::
         :::::::::::::::::::::::::::::::::::::::::::::::::::::

      ----------------------------------------------------------- 
     |                   =====================                   |
     |                        A N C O P T                        |
     |                   =====================                   |
     |               Approximate Normal Coordinate               |
     |                Rational Function Optimizer                |
      ----------------------------------------------------------- 
      ----------------------------------------------------------- 
     |                   =====================                   |
     |                        A N C O P T                        |
     |                   =====================                   |
     |               Approximate Normal Coordinate               |
     |                Rational Function Optimizer                |
      ----------------------------------------------------------- 

          ...................................................
          :                      SETUP                      :
          :.................................................:
          :   optimization level            normal          :
          :   max. optcycles                   200          :
          :   ANC micro-cycles                  20          :
          :   degrees of freedom                 9          :
          :.................................................:
          :   RF solver                   davidson          :
          :   write xtbopt.log                true          :
          :   linear?                        false          :
          :   energy convergence         0.5000000E-05 Eh   :
          :   grad. convergence          0.1000000E-02 Eh/α :
          :   maxmium RF displ.          1.0000000          :
          :   Hlow (freq-cutoff)         0.1000000E-01      :
          :   Hmax (freq-cutoff)         5.0000000          :
          :   S6 in model hess.         20.0000000          :
          ...................................................

generating ANC from exact Hessian ...
Using Lindh-Hessian (1995)
 Shifting diagonal of input Hessian by    0.0000000000000000     
 Lowest  eigenvalues of input Hessian
    0.000000    0.000000    0.000000    0.000000    0.000000    0.000000
    0.058763    0.058763    0.105814    0.105815    0.121823    0.390523
    1.026218    1.026221    1.055504
 Highest eigenvalues
    0.105815    0.121823    0.390523    1.026218    1.026221    1.055504


........................................................................
.............................. CYCLE    1 ..............................
........................................................................

 iter      E             dE          RMSdq      gap      omega  full diag
   1     -7.2555897 -0.725559E+01  0.922E-06    4.25       0.0  T
   2     -7.2555897 -0.293099E-13  0.469E-06    4.25    9543.2  T
   3     -7.2555897  0.444089E-14  0.226E-06    4.25   19761.9  T
     SCC iter.                  ...        0 min,  0.001 sec
     gradient                   ...        0 min,  0.001 sec
 * total energy  :    -7.2002331 Eh     change       -0.8260059E-12 Eh
   gradient norm :     0.0210699 Eh/α   predicted     0.0000000E+00 (-100.00%)
   displ. norm   :     0.1557717 α      lambda       -0.3147444E-02
   maximum displ.:     0.1544594 α      in ANC's #5, #6, #9, ...

........................................................................
.............................. CYCLE    2 ..............................
........................................................................

 iter      E             dE          RMSdq      gap      omega  full diag
   1     -7.2578537 -0.725785E+01  0.647E-01    4.45       0.0  T
   2     -7.2579033 -0.495707E-04  0.389E-01    4.42       1.0  T
   3     -7.2579040 -0.769072E-06  0.868E-02    4.42       1.0  T
   4     -7.2579081 -0.405500E-05  0.359E-02    4.41       1.2  T
   5     -7.2579083 -0.153852E-06  0.672E-03    4.41       6.7  T
   6     -7.2579083 -0.829802E-08  0.782E-04    4.41      57.2  T
   7     -7.2579083 -0.144480E-09  0.390E-04    4.41     114.6  T
     SCC iter.                  ...        0 min,  0.003 sec
     gradient                   ...        0 min,  0.001 sec
 * total energy  :    -7.2017873 Eh     change       -0.1554152E-02 Eh
   gradient norm :     0.0057349 Eh/α   predicted    -0.1611909E-02 (   3.72%)
   displ. norm   :     0.0106961 α      lambda       -0.5291441E-04
   maximum displ.:     0.0087897 α      in ANC's #6, #5, #9, ...

........................................................................
.............................. CYCLE    3 ..............................
........................................................................

 iter      E             dE          RMSdq      gap      omega  full diag
   1     -7.2592046 -0.725920E+01  0.314E-02    4.41       0.0  T
   2     -7.2592049 -0.293410E-06  0.158E-02    4.42       2.8  T
   3     -7.2592049 -0.326659E-07  0.768E-03    4.41       5.8  T
   4     -7.2592049 -0.894421E-08  0.296E-03    4.41      15.1  T
   5     -7.2592049 -0.454724E-09  0.683E-04    4.41      65.5  T
   6     -7.2592049 -0.839746E-10  0.138E-04    4.41     323.7  T
     SCC iter.                  ...        0 min,  0.003 sec
     gradient                   ...        0 min,  0.001 sec
 * total energy  :    -7.2018206 Eh     change       -0.3325936E-04 Eh
   gradient norm :     0.0022503 Eh/α   predicted    -0.2645897E-04 ( -20.45%)
   displ. norm   :     0.0037564 α      lambda       -0.7738795E-05
   maximum displ.:     0.0030941 α      in ANC's #9, #6, #5, ...

........................................................................
.............................. CYCLE    4 ..............................
........................................................................

 iter      E             dE          RMSdq      gap      omega  full diag
   1     -7.2596284 -0.725963E+01  0.143E-02    4.41       0.0  T
   2     -7.2596285 -0.139147E-06  0.711E-03    4.41       6.3  T
   3     -7.2596285 -0.914431E-08  0.468E-03    4.41       9.6  T
   4     -7.2596285 -0.326751E-08  0.164E-03    4.41      27.3  T
   5     -7.2596285 -0.280709E-09  0.386E-04    4.41     115.9  T
   6     -7.2596285 -0.301057E-10  0.645E-05    4.41     692.9  T
     SCC iter.                  ...        0 min,  0.003 sec
     gradient                   ...        0 min,  0.001 sec
 * total energy  :    -7.2018252 Eh     change       -0.4670865E-05 Eh
   gradient norm :     0.0008485 Eh/α   predicted    -0.3867524E-05 ( -17.20%)
   displ. norm   :     0.0024987 α      lambda       -0.1351814E-05
   maximum displ.:     0.0021832 α      in ANC's #9, #5, #6, ...

   *** GEOMETRY OPTIMIZATION CONVERGED AFTER 4 ITERATIONS ***

------------------------------------------------------------------------
 total energy gain   :        -0.0015921 Eh       -0.9990 kcal/mol
 total RMSD          :         0.0687555 a0        0.0364 Å
 total power (kW/mol):        -1.0450027 (step) -217.5650 (real)
------------------------------------------------------------------------

 ANCopt (total)                0 d,  0 h,  0 min,  0.019 sec
 optimizer setup                ...        0 min,  0.000 sec (  1.110%)
 model hessian                  ...        0 min,  0.000 sec (  0.826%)
 ANC generation                 ...        0 min,  0.000 sec (  0.474%)
 coordinate transformation      ...        0 min,  0.000 sec (  0.083%)
 single point calculation       ...        0 min,  0.017 sec ( 90.012%)
 optimization log               ...        0 min,  0.000 sec (  2.360%)
 hessian update                 ...        0 min,  0.000 sec (  1.460%)
 rational function              ...        0 min,  0.000 sec (  2.429%)

================
 final structure:
================
5
 xtb: 6.7.1 (edcfbbe)
S            1.66552462190640       -0.02463306775794       -0.00391535234793
C           -0.14172370446640        0.00208728384434        0.00034291105194
H           -0.52098244619770       -0.76723802338552       -0.67538327531659
H           -0.50857122148340       -0.19102287334827        1.01051030802404
H           -0.49424724975889        0.98080768064739       -0.33155459141146

 Bond Distances (Angstroems)
 ---------------------------
S1-C2=1.8075         C2-S1=1.8075         C2-H3=1.0919         C2-H4=1.0919         C2-H5=1.0919         H3-C2=1.0919         
H4-C2=1.0919         H5-C2=1.0919         
 C  H  Rav=1.0919 sigma=0.0000  Rmin=1.0919  Rmax=1.0919     3
 S  C  Rav=1.8075 sigma=0.0000  Rmin=1.8075  Rmax=1.8075     1

 selected bond angles (degree)
 --------------------
H3-C2-S1=109.60                H4-C2-S1=109.60                H4-C2-H3=109.34                H5-C2-S1=109.59                
H5-C2-H3=109.35                H5-C2-H4=109.34                

 selected dihedral angles (degree)
 ---------------------------------

           -------------------------------------------------
          |                Final Singlepoint                |
           -------------------------------------------------

          ...................................................
          :                      SETUP                      :
          :.................................................:
          :  # basis functions                  17          :
          :  # atomic orbitals                  16          :
          :  # shells                            8          :
          :  # electrons                        14          :
          :  max. iterations                   250          :
          :  Hamiltonian                  GFN2-xTB          :
          :  restarted?                      false          :
          :  GBSA solvation                   true          :
          :  PC potential                    false          :
          :  electronic temp.          300.0000000     K    :
          :  accuracy                    1.0000000          :
          :  -> integral cutoff          0.2500000E+02      :
          :  -> integral neglect         0.1000000E-07      :
          :  -> SCF convergence          0.1000000E-05 Eh   :
          :  -> wf. convergence          0.1000000E-03 e    :
          :  Broyden damping             0.4000000          :
          :  net charge                         -1          :
          :  unpaired electrons                  0          :
          ...................................................

 iter      E             dE          RMSdq      gap      omega  full diag
   1     -7.2596285 -0.725963E+01  0.423E-06    4.41       0.0  T
   2     -7.2596285 -0.186517E-13  0.204E-06    4.41   21923.3  T
   3     -7.2596285 -0.355271E-14  0.130E-06    4.41   34483.6  T

   *** convergence criteria satisfied after 3 iterations ***

         #    Occupation            Energy/Eh            Energy/eV
      -------------------------------------------------------------
         1        2.0000           -0.6323523             -17.2072
         2        2.0000           -0.5776284             -15.7181
         3        2.0000           -0.4774917             -12.9932
         4        2.0000           -0.4774866             -12.9931
         5        2.0000           -0.4169759             -11.3465
         6        2.0000           -0.2872798              -7.8173
         7        2.0000           -0.2872789              -7.8173 (HOMO)
         8                         -0.1252633              -3.4086 (LUMO)
         9                          0.0432273               1.1763
        10                          0.0432326               1.1764
        11                          0.0611114               1.6629
        12                          0.0611123               1.6630
       ...                                ...                  ...
        16                          0.3544319               9.6446
      -------------------------------------------------------------
                  HL-Gap            0.1620156 Eh            4.4087 eV
             Fermi-level           -0.2062711 Eh           -5.6129 eV

 SCC (total)                   0 d,  0 h,  0 min,  0.003 sec
 SCC setup                      ...        0 min,  0.000 sec (  7.940%)
 Dispersion                     ...        0 min,  0.000 sec (  5.735%)
 classical contributions        ...        0 min,  0.000 sec (  2.935%)
 integral evaluation            ...        0 min,  0.000 sec ( 10.298%)
 iterations                     ...        0 min,  0.001 sec ( 41.967%)
 molecular gradient             ...        0 min,  0.001 sec ( 27.464%)
 printout                       ...        0 min,  0.000 sec (  3.215%)

         :::::::::::::::::::::::::::::::::::::::::::::::::::::
         ::                     SUMMARY                     ::
         :::::::::::::::::::::::::::::::::::::::::::::::::::::
         :: total energy              -7.201825222138 Eh    ::
         :: total w/o Gsasa/hb        -7.205290321166 Eh    ::
         :: gradient norm              0.000849283850 Eh/a0 ::
         :: HOMO-LUMO gap              4.408669635976 eV    ::
         ::.................................................::
         :: SCC energy                -7.259628508737 Eh    ::
         :: -> isotropic ES            0.153718366993 Eh    ::
         :: -> anisotropic ES          0.002356290955 Eh    ::
         :: -> anisotropic XC          0.006960910888 Eh    ::
         :: -> dispersion             -0.001858305915 Eh    ::
         :: -> Gsolv                  -0.099615184154 Eh    ::
         ::    -> Gelec               -0.103080283182 Eh    ::
         ::    -> Gsasa                0.002510177086 Eh    ::
         ::    -> Ghb                 -0.000125837756 Eh    ::
         ::    -> Gshift               0.001080759698 Eh    ::
         :: repulsion energy           0.057803286599 Eh    ::
         :: add. restraining           0.000000000000 Eh    ::
         :: total charge              -1.000000000000 e     ::
         :::::::::::::::::::::::::::::::::::::::::::::::::::::

           -------------------------------------------------
          |                Property Printout                |
           -------------------------------------------------

    * Orbital Energies and Occupations

         #    Occupation            Energy/Eh            Energy/eV
      -------------------------------------------------------------
         1        2.0000           -0.6323523             -17.2072
         2        2.0000           -0.5776284             -15.7181
         3        2.0000           -0.4774917             -12.9932
         4        2.0000           -0.4774866             -12.9931
         5        2.0000           -0.4169759             -11.3465
         6        2.0000           -0.2872798              -7.8173
         7        2.0000           -0.2872789              -7.8173 (HOMO)
         8                         -0.1252633              -3.4086 (LUMO)
         9                          0.0432273               1.1763
        10                          0.0432326               1.1764
        11                          0.0611114               1.6629
        12                          0.0611123               1.6630
        13                          0.1516315               4.1261
        14                          0.2334754               6.3532
        15                          0.2334808               6.3533
        16                          0.3544319               9.6446
      -------------------------------------------------------------
                  HL-Gap            0.1620156 Eh            4.4087 eV
             Fermi-level           -0.2062711 Eh           -5.6129 eV

     #   Z          covCN         q      C6AA      α(0)
     1  16 S        0.970    -0.978   187.075    23.134
     2   6 C        3.743     0.043    19.921     6.367
     3   1 H        0.924    -0.022     3.464     2.910
     4   1 H        0.924    -0.022     3.464     2.911
     5   1 H        0.924    -0.022     3.464     2.911

 Mol. C6AA /au·bohr⁶  :        560.537766
 Mol. C8AA /au·bohr⁸  :      19285.912587
 Mol. α(0) /au        :         38.232777


Wiberg/Mayer (AO) data.
largest (>0.10) Wiberg bond orders for each atom

 ---------------------------------------------------------------------------
     #   Z sym  total        # sym  WBO       # sym  WBO       # sym  WBO
 ---------------------------------------------------------------------------
     1  16 S    1.060 --     2 C    1.028
     2   6 C    3.994 --     1 S    1.028     5 H    0.989     3 H    0.989
                             4 H    0.989
     3   1 H    1.000 --     2 C    0.989
     4   1 H    1.000 --     2 C    0.989
     5   1 H    1.000 --     2 C    0.989
 ---------------------------------------------------------------------------

Topologies differ in total number of bonds
Writing topology from bond orders to xtbtopo.mol

molecular dipole:
                 x           y           z       tot (Debye)
 q only:       -3.027       0.045       0.007
   full:       -3.593       0.053       0.008       9.132
molecular quadrupole (traceless):
                xx          xy          yy          xz          yz          zz
 q only:       -9.620       0.213       4.808       0.034      -0.000       4.811
  q+dip:      -13.453       0.299       6.724       0.047      -0.001       6.728
   full:      -12.267       0.272       6.132       0.043      -0.001       6.136

           -------------------------------------------------
          |                Geometry Summary                 |
           -------------------------------------------------

      molecular mass/u    :       47.0993456
   center of mass at/Å    :        1.0651229      -0.0157552      -0.0025016
  moments of inertia/u·Å² :        0.3199723E+01   0.3814264E+02   0.3814275E+02
rotational constants/cm⁻¹ :        0.5268467E+01   0.4419629E+00   0.4419617E+00

 * 3 selected distances

     #   Z          #   Z                                           value/Å
     2   6 C        3   1 H                                       1.0919271 (min)
     2   6 C        4   1 H                                       1.0919281
     2   6 C        5   1 H                                       1.0919353 (max)

 * 1 distinct bonds (by element types)

   Z      Z             #   av. dist./Å        max./Å        min./Å
   1 H    6 C           3     1.0919302     1.0919353     1.0919271


optimized geometry written to: xtbopt.xyz


           -------------------------------------------------
          | TOTAL ENERGY               -7.201825222138 Eh   |
          | GRADIENT NORM               0.000849283850 Eh/α |
          | HOMO-LUMO GAP               4.408669635976 eV   |
           -------------------------------------------------

------------------------------------------------------------------------
 * finished run on 2026/08/28 at 17:58:33.436     
------------------------------------------------------------------------
 total:
 * wall-time:     0 d,  0 h,  0 min,  0.062 sec
 *  cpu-time:     0 d,  0 h,  0 min,  0.062 sec
 * ratio c/w:     1.012 speedup
 SCF:
 * wall-time:     0 d,  0 h,  0 min,  0.011 sec
 *  cpu-time:     0 d,  0 h,  0 min,  0.016 sec
 * ratio c/w:     1.456 speedup
 ANC optimizer:
 * wall-time:     0 d,  0 h,  0 min,  0.025 sec
 *  cpu-time:     0 d,  0 h,  0 min,  0.047 sec
 * ratio c/w:     1.896 speedup

