      -----------------------------------------------------------      
     |                   =====================                   |     
     |                           x T B                           |     
     |                   =====================                   |     
     |                         S. Grimme                         |     
     |          Mulliken Center for Theoretical Chemistry        |     
     |                    University of Bonn                     |     
      -----------------------------------------------------------      

   * xtb version 6.7.1 (edcfbbe) compiled by 'VssAdministrator@runnervm171ch' on 2026-06-10

   xtb is free software: you can redistribute it and/or modify it under
   the terms of the GNU Lesser General Public License as published by
   the Free Software Foundation, either version 3 of the License, or
   (at your option) any later version.
   
   xtb is distributed in the hope that it will be useful,
   but WITHOUT ANY WARRANTY; without even the implied warranty of
   MERCHANTABILITY or FITNESS FOR A PARTICULAR PURPOSE.  See the
   GNU Lesser General Public License for more details.
   
   Cite this work as:
   * C. Bannwarth, E. Caldeweyher, S. Ehlert, A. Hansen, P. Pracht,
     J. Seibert, S. Spicher, S. Grimme, WIREs Comput. Mol. Sci., 2020, 11,
     e01493. DOI: 10.1002/wcms.1493
   
   for GFN2-xTB:
   * C. Bannwarth, S. Ehlert and S. Grimme., J. Chem. Theory Comput., 2019,
     15, 1652-1671. DOI: 10.1021/acs.jctc.8b01176
   for GFN1-xTB:
   * S. Grimme, C. Bannwarth, P. Shushkov, J. Chem. Theory Comput., 2017,
     13, 1989-2009. DOI: 10.1021/acs.jctc.7b00118
   for GFN0-xTB:
   * P. Pracht, E. Caldeweyher, S. Ehlert, S. Grimme, ChemRxiv, 2019, preprint.
     DOI: 10.26434/chemrxiv.8326202.v1
   for GFN-FF:
   * S. Spicher and S. Grimme, Angew. Chem. Int. Ed., 2020, 59, 15665-15673.
     DOI: 10.1002/anie.202004239
   
   for ALPB and GBSA implicit solvation:
   * S. Ehlert, M. Stahn, S. Spicher, S. Grimme, J. Chem. Theory Comput.,
     2021, 17, 4250-4261. DOI: 10.1021/acs.jctc.1c00471
   
   for ddCOSMO and CPCM-X implicit solvation:
   * M. Stahn, S. Ehlert, S. Grimme, J. Phys. Chem. A,
     2023, XX, XXXX-XXXX. DOI: 10.1021/acs.jpca.3c04382
   
   for DFT-D4:
   * E. Caldeweyher, C. Bannwarth and S. Grimme, J. Chem. Phys., 2017,
     147, 034112. DOI: 10.1063/1.4993215
   * E. Caldeweyher, S. Ehlert, A. Hansen, H. Neugebauer, S. Spicher,
     C. Bannwarth and S. Grimme, J. Chem. Phys., 2019, 150, 154122.
     DOI: 10.1063/1.5090222
   * E. Caldeweyher, J.-M. Mewes, S. Ehlert and S. Grimme, Phys. Chem. Chem. Phys.
     2020, 22, 8499-8512. DOI: 10.1039/D0CP00502A
   
   for sTDA-xTB:
   * S. Grimme and C. Bannwarth, J. Chem. Phys., 2016, 145, 054103.
     DOI: 10.1063/1.4959605
   
   in the mass-spec context:
   * V. Asgeirsson, C. Bauer and S. Grimme, Chem. Sci., 2017, 8, 4879.
     DOI: 10.1039/c7sc00601b
   * J. Koopman and S. Grimme, ACS Omega 2019, 4, 12, 15120-15133.
     DOI: 10.1021/acsomega.9b02011
   
   for metadynamics refer to:
   * S. Grimme, J. Chem. Theory Comput., 2019, 155, 2847-2862
     DOI: 10.1021/acs.jctc.9b00143
   
   for SPH calculations refer to:
   * S. Spicher and S. Grimme, J. Chem. Theory Comput., 2021, 17, 1701-1714
     DOI: 10.1021/acs.jctc.0c01306
   
   for ONIOM refer to:
   * C. Plett, A. Katbashev, S. Ehlert, S. Grimme, M. Bursch,
     Phys. Chem. Chem. Phys., 2023, 25, 17860-17868. DOI: 10.1039/D3CP02178E
   
   for DIPRO refer to:
   * J. Kohn, N. Gildemeister, S. Grimme, D. Fazzi, A. Hansen,
     J. Chem. Phys., 2023, just accepted.
   
   for PTB refer to:
   * S. Grimme, M. Mueller, A. Hansen, J. Chem. Phys., 2023, 158, 124111.
     DOI: 10.1063/5.0137838
   
   with help from (in alphabetical order)
   P. Atkinson, C. Bannwarth, F. Bohle, G. Brandenburg, E. Caldeweyher
   M. Checinski, S. Dohm, S. Ehlert, S. Ehrlich, I. Gerasimov, C. Hölzer
   A. Katbashev, J. Kohn, J. Koopman, C. Lavigne, S. Lehtola, F. März, M. Müller,
   F. Musil, H. Neugebauer, J. Pisarek, C. Plett, P. Pracht, F. Pultar,
   J. Seibert, P. Shushkov, S. Spicher, M. Stahn, M. Steiner, T. Strunk,
   J. Stückrath, T. Rose, and J. Unsleber
   
 * started run on 2026/08/28 at 18:17:48.526     
   ID    Z sym.   atoms
    1    6 C      1, 3, 4, 6, 17
    2    7 N      2
    3    8 O      5
    4   17 Cl     7
    5    1 H      8-15, 18-20
    6   16 S      16

           -------------------------------------------------
          |                Calculation Setup                |
           -------------------------------------------------

          program call               : C:\Users\Christian\Miniconda3\Library\bin\xtb.exe complex_S.xyz --gfn 2 --chrg -1 --alpb water --opt tight
          coordinate file            : complex_S.xyz
          omp threads                :                    12


           -------------------------------------------------
          |                 G F N 2 - x T B                 |
           -------------------------------------------------

        Reference                      10.1021/acs.jctc.8b01176
      * Hamiltonian:
        H0-scaling (s, p, d)           1.850000    2.230000    2.230000
        zeta-weighting                 0.500000
      * Dispersion:
        s8                             2.700000
        a1                             0.520000
        a2                             5.000000
        s9                             5.000000
      * Repulsion:
        kExp                           1.500000    1.000000
        rExp                           1.000000
      * Coulomb:
        alpha                          2.000000
        third order                    shell-resolved
        anisotropic                    true
        a3                             3.000000
        a5                             4.000000
        cn-shift                       1.200000
        cn-exp                         4.000000
        max-rad                        5.000000

      * Solvation model:               ALPB
        Solvent                        water
        Parameter file                 internal GFN2-xTB/ALPB
        Dielectric constant                8.0200E+01
        Reference state                gsolv [1 M gas/solution]
        Free energy shift                  1.0808E-03 Eh       6.7819E-01 kcal/mol
        Temperature                        2.9815E+02 K
        Density                            1.0000E+00 kg/L
        Solvent mass                       1.8000E+01 g/mol
        Interaction kernel             P16
        Born radius scaling (c1)           1.4744E+00
        Born radii integrator          GBOBC
        Born offset                        0.0000E+00 a0       0.0000E+00 AA
        H-bond correction              true
        Ion screening                  false
        Surface tension                    1.0000E-05 Eh       1.5569E+01 dyn/cm
        Grid points                               230 per atom

          ...................................................
          :                      SETUP                      :
          :.................................................:
          :  # basis functions                  59          :
          :  # atomic orbitals                  57          :
          :  # shells                           31          :
          :  # electrons                        56          :
          :  max. iterations                   250          :
          :  Hamiltonian                  GFN2-xTB          :
          :  restarted?                      false          :
          :  GBSA solvation                   true          :
          :  PC potential                    false          :
          :  electronic temp.          300.0000000     K    :
          :  accuracy                    1.0000000          :
          :  -> integral cutoff          0.2500000E+02      :
          :  -> integral neglect         0.1000000E-07      :
          :  -> SCF convergence          0.1000000E-05 Eh   :
          :  -> wf. convergence          0.1000000E-03 e    :
          :  Broyden damping             0.4000000          :
          :  net charge                         -1          :
          :  unpaired electrons                  0          :
          ...................................................

 iter      E             dE          RMSdq      gap      omega  full diag
   1    -30.3794265 -0.303794E+02  0.827E+00    1.00       0.0  T
   2    -30.5446266 -0.165200E+00  0.793E+00    2.81       1.0  T
   3    -30.7811617 -0.236535E+00  0.536E+00    1.86       1.0  T
   4    -30.6836891  0.974726E-01  0.334E+00    0.62       1.0  T
   5    -30.8204629 -0.136774E+00  0.139E+00    1.13       1.0  T
   6    -30.8363249 -0.158620E-01  0.430E-01    0.81       1.0  T
   7    -30.8368444 -0.519434E-03  0.255E-01    0.71       1.0  T
   8    -30.8373515 -0.507139E-03  0.140E-01    0.76       1.0  T
   9    -30.8374921 -0.140647E-03  0.786E-02    0.74       1.0  T
  10    -30.8375380 -0.458780E-04  0.454E-02    0.74       1.0  T
  11    -30.8375555 -0.174460E-04  0.226E-02    0.74       1.0  T
  12    -30.8375591 -0.358555E-05  0.118E-02    0.74       1.9  T
  13    -30.8375580  0.101597E-05  0.138E-02    0.74       1.6  T
  14    -30.8375599 -0.190673E-05  0.340E-03    0.74       6.6  T
  15    -30.8375600 -0.391666E-07  0.270E-03    0.74       8.3  T
  16    -30.8375600 -0.649476E-07  0.105E-03    0.74      21.2  T
  17    -30.8375600 -0.322991E-08  0.914E-04    0.74      24.5  T
  18    -30.8375601 -0.630092E-08  0.356E-04    0.74      62.8  T

   *** convergence criteria satisfied after 18 iterations ***

         #    Occupation            Energy/Eh            Energy/eV
      -------------------------------------------------------------
         1        2.0000           -1.0638151             -28.9479
       ...           ...                  ...                  ...
        22        2.0000           -0.4211847             -11.4610
        23        2.0000           -0.3915637             -10.6550
        24        2.0000           -0.3890029             -10.5853
        25        2.0000           -0.3393050              -9.2330
        26        2.0000           -0.3115890              -8.4788
        27        2.0000           -0.2814829              -7.6595
        28        2.0000           -0.2241664              -6.0999 (HOMO)
        29        0.0000           -0.1969454              -5.3592 (LUMO)
        30                         -0.1648143              -4.4848
        31                         -0.1226691              -3.3380
        32                         -0.0888863              -2.4187
        33                          0.0015884               0.0432
       ...                                ...                  ...
        57                         18.5967847             506.0443
      -------------------------------------------------------------
                  HL-Gap            0.0272210 Eh            0.7407 eV
             Fermi-level           -0.2105559 Eh           -5.7295 eV

 SCC (total)                   0 d,  0 h,  0 min,  0.032 sec
 SCC setup                      ...        0 min,  0.001 sec (  1.694%)
 Dispersion                     ...        0 min,  0.000 sec (  1.071%)
 classical contributions        ...        0 min,  0.000 sec (  0.341%)
 integral evaluation            ...        0 min,  0.009 sec ( 28.876%)
 iterations                     ...        0 min,  0.017 sec ( 55.147%)
 molecular gradient             ...        0 min,  0.004 sec ( 11.951%)
 printout                       ...        0 min,  0.000 sec (  0.853%)

         :::::::::::::::::::::::::::::::::::::::::::::::::::::
         ::                     SUMMARY                     ::
         :::::::::::::::::::::::::::::::::::::::::::::::::::::
         :: total energy              -9.321332070264 Eh    ::
         :: total w/o Gsasa/hb        -9.319876563362 Eh    ::
         :: gradient norm             82.211084078868 Eh/a0 ::
         :: HOMO-LUMO gap              0.740720891911 eV    ::
         ::.................................................::
         :: SCC energy               -30.837527790859 Eh    ::
         :: -> isotropic ES            0.191359509775 Eh    ::
         :: -> anisotropic ES         -0.012549137727 Eh    ::
         :: -> anisotropic XC          0.027288942123 Eh    ::
         :: -> dispersion             -0.020192546196 Eh    ::
         :: -> Gsolv                  -0.086712598372 Eh    ::
         ::    -> Gelec               -0.085257091471 Eh    ::
         ::    -> Gsasa                0.001202596418 Eh    ::
         ::    -> Ghb                 -0.003738863018 Eh    ::
         ::    -> Gshift               0.001080759698 Eh    ::
         :: repulsion energy          21.516195720595 Eh    ::
         :: add. restraining           0.000000000000 Eh    ::
         :: total charge              -1.000000000000 e     ::
         :::::::::::::::::::::::::::::::::::::::::::::::::::::

      ----------------------------------------------------------- 
     |                   =====================                   |
     |                        A N C O P T                        |
     |                   =====================                   |
     |               Approximate Normal Coordinate               |
     |                Rational Function Optimizer                |
      ----------------------------------------------------------- 
      ----------------------------------------------------------- 
     |                   =====================                   |
     |                        A N C O P T                        |
     |                   =====================                   |
     |               Approximate Normal Coordinate               |
     |                Rational Function Optimizer                |
      ----------------------------------------------------------- 

          ...................................................
          :                      SETUP                      :
          :.................................................:
          :   optimization level             tight          :
          :   max. optcycles                   200          :
          :   ANC micro-cycles                  20          :
          :   degrees of freedom                54          :
          :.................................................:
          :   RF solver                   davidson          :
          :   write xtbopt.log                true          :
          :   linear?                        false          :
          :   energy convergence         0.1000000E-05 Eh   :
          :   grad. convergence          0.8000000E-03 Eh/α :
          :   maxmium RF displ.          1.0000000          :
          :   Hlow (freq-cutoff)         0.1000000E-01      :
          :   Hmax (freq-cutoff)         5.0000000          :
          :   S6 in model hess.         20.0000000          :
          ...................................................

generating ANC from exact Hessian ...
Using Lindh-Hessian (1995)
 Shifting diagonal of input Hessian by    5.7199344330893407E-003
 Lowest  eigenvalues of input Hessian
    0.000000    0.000000    0.000000    0.000000    0.000000    0.000000
    0.010000    0.011630    0.011919    0.019117    0.021602    0.034097
    0.035859    0.040991    0.049150    0.059059    0.068409    0.080862
 Highest eigenvalues
    5.140933    5.280624    9.471029   24.992498   34.273046   86.669130


........................................................................
.............................. CYCLE    1 ..............................
........................................................................

 iter      E             dE          RMSdq      gap      omega  full diag
   1    -30.8375601 -0.308376E+02  0.173E-04    0.74       0.0  T
   2    -30.8375601  0.134017E-08  0.342E-04    0.74      65.4  T
   3    -30.8375601 -0.163076E-08  0.449E-05    0.74     497.5  T
     SCC iter.                  ...        0 min,  0.003 sec
     gradient                   ...        0 min,  0.003 sec
 * total energy  :    -9.3213321 Eh     change       -0.1246260E-08 Eh
   gradient norm :    82.2110914 Eh/α   predicted     0.0000000E+00 (-100.00%)
   displ. norm   :     0.9701452 α      lambda       -0.7975612E+02
   maximum displ.:     0.8702609 α      in ANC's #53, #52, #49, ...

........................................................................
.............................. CYCLE    2 ..............................
........................................................................

 iter      E             dE          RMSdq      gap      omega  full diag
   1    -31.0267282 -0.310267E+02  0.629E+00    1.55       0.0  T
   2    -30.9601917  0.665365E-01  0.410E+00    0.26       1.0  T
   3    -31.0769074 -0.116716E+00  0.262E+00    2.44       1.0  T
   4    -31.1478620 -0.709545E-01  0.136E+00    1.14       1.0  T
   5    -31.1589078 -0.110458E-01  0.695E-01    0.64       1.0  T
   6    -31.1554698  0.343796E-02  0.657E-01    0.33       1.0  T
   7    -31.1603107 -0.484088E-02  0.432E-01    0.56       1.0  T
   8    -31.1623090 -0.199828E-02  0.214E-01    0.49       1.0  T
   9    -31.1626905 -0.381478E-03  0.128E-01    0.46       1.0  T
  10    -31.1629287 -0.238262E-03  0.244E-02    0.43       1.0  T
  11    -31.1629346 -0.591315E-05  0.129E-02    0.43       1.7  T
  12    -31.1629350 -0.340224E-06  0.110E-02    0.43       2.0  T
  13    -31.1629366 -0.162097E-05  0.247E-03    0.43       9.1  T
  14    -31.1629366 -0.379481E-07  0.102E-03    0.43      22.0  T
  15    -31.1629367 -0.368495E-08  0.422E-04    0.43      53.0  T
  16    -31.1629367 -0.634422E-09  0.260E-04    0.43      86.1  T
     SCC iter.                  ...        0 min,  0.014 sec
     gradient                   ...        0 min,  0.003 sec
 * total energy  :   -29.6035563 Eh     change       -0.2028222E+02 Eh
   gradient norm :     4.2410573 Eh/α   predicted    -0.7741085E+02 ( 281.67%)
   displ. norm   :     0.6321631 α      lambda       -0.2364441E+01
   maximum displ.:     0.3392150 α      in ANC's #50, #49, #45, ...

........................................................................
.............................. CYCLE    3 ..............................
........................................................................

 iter      E             dE          RMSdq      gap      omega  full diag
   1    -31.1759673 -0.311760E+02  0.148E+00    0.63       0.0  T
   2    -31.1719286  0.403869E-02  0.117E+00    0.25       1.0  T
   3    -31.1789421 -0.701350E-02  0.825E-01    0.77       1.0  T
   4    -31.1854017 -0.645955E-02  0.310E-01    0.46       1.0  T
   5    -31.1858116 -0.409915E-03  0.124E-01    0.40       1.0  T
   6    -31.1858394 -0.278570E-04  0.715E-02    0.37       1.0  T
   7    -31.1858777 -0.382034E-04  0.439E-02    0.40       1.0  T
   8    -31.1858956 -0.179400E-04  0.264E-02    0.39       1.0  T
   9    -31.1859023 -0.668808E-05  0.139E-02    0.39       1.6  T
  10    -31.1859041 -0.184959E-05  0.614E-03    0.39       3.6  T
  11    -31.1859044 -0.302131E-06  0.226E-03    0.39       9.9  T
  12    -31.1859044 -0.187640E-07  0.107E-03    0.39      20.8  T
  13    -31.1859045 -0.492617E-08  0.634E-04    0.39      35.3  T
  14    -31.1859045 -0.220177E-08  0.378E-04    0.39      59.1  T
     SCC iter.                  ...        0 min,  0.015 sec
     gradient                   ...        0 min,  0.004 sec
 * total energy  :   -30.4141243 Eh     change       -0.8105679E+00 Eh
   gradient norm :     1.6431109 Eh/α   predicted    -0.1654677E+01 ( 104.14%)
   displ. norm   :     0.5562341 α      lambda       -0.3164137E+00
   maximum displ.:     0.2244753 α      in ANC's #17, #31, #45, ...

........................................................................
.............................. CYCLE    4 ..............................
........................................................................

 iter      E             dE          RMSdq      gap      omega  full diag
   1    -31.2622183 -0.312622E+02  0.991E-01    0.90       0.0  T
   2    -31.2650037 -0.278533E-02  0.546E-01    0.45       1.0  T
   3    -31.2653048 -0.301180E-03  0.281E-01    0.55       1.0  T
   4    -31.2656456 -0.340800E-03  0.122E-01    0.42       1.0  T
   5    -31.2657034 -0.577173E-04  0.504E-02    0.47       1.0  T
   6    -31.2657166 -0.132115E-04  0.251E-02    0.46       1.0  T
   7    -31.2657184 -0.184568E-05  0.160E-02    0.46       1.4  T
   8    -31.2657197 -0.123703E-05  0.110E-02    0.46       2.0  T
   9    -31.2657205 -0.838219E-06  0.671E-03    0.46       3.3  T
  10    -31.2657209 -0.369583E-06  0.356E-03    0.46       6.3  T
  11    -31.2657210 -0.980818E-07  0.141E-03    0.46      15.9  T
  12    -31.2657210 -0.102776E-07  0.783E-04    0.46      28.6  T
  13    -31.2657210 -0.346552E-08  0.387E-04    0.46      57.8  T
     SCC iter.                  ...        0 min,  0.012 sec
     gradient                   ...        0 min,  0.004 sec
 * total energy  :   -30.6594209 Eh     change       -0.2452967E+00 Eh
   gradient norm :     1.3438459 Eh/α   predicted    -0.2071559E+00 ( -15.55%)
   displ. norm   :     0.5469814 α      lambda       -0.2240346E+00
   maximum displ.:     0.2132784 α      in ANC's #17, #45, #14, ...

........................................................................
.............................. CYCLE    5 ..............................
........................................................................

 iter      E             dE          RMSdq      gap      omega  full diag
   1    -31.3471456 -0.313471E+02  0.966E-01    1.13       0.0  T
   2    -31.3480715 -0.925813E-03  0.520E-01    0.94       1.0  T
   3    -31.3481693 -0.978937E-04  0.190E-01    0.96       1.0  T
   4    -31.3482561 -0.867759E-04  0.894E-02    0.89       1.0  T
   5    -31.3482755 -0.193882E-04  0.226E-02    0.91       1.0  T
   6    -31.3482761 -0.627500E-06  0.119E-02    0.91       1.9  T
   7    -31.3482764 -0.290547E-06  0.497E-03    0.91       4.5  T
   8    -31.3482765 -0.991525E-07  0.354E-03    0.91       6.3  T
   9    -31.3482766 -0.823956E-07  0.221E-03    0.91      10.1  T
  10    -31.3482766 -0.386155E-07  0.131E-03    0.91      17.1  T
  11    -31.3482767 -0.148993E-07  0.500E-04    0.91      44.7  T
  12    -31.3482767 -0.177598E-08  0.212E-04    0.91     105.4  T
     SCC iter.                  ...        0 min,  0.011 sec
     gradient                   ...        0 min,  0.003 sec
 * total energy  :   -30.8422171 Eh     change       -0.1827961E+00 Eh
   gradient norm :     1.0824751 Eh/α   predicted    -0.1455319E+00 ( -20.39%)
   displ. norm   :     0.5904513 α      lambda       -0.1900990E+00
   maximum displ.:     0.2320559 α      in ANC's #45, #17, #44, ...

........................................................................
.............................. CYCLE    6 ..............................
........................................................................

 iter      E             dE          RMSdq      gap      omega  full diag
   1    -31.4150169 -0.314150E+02  0.100E+00    1.41       0.0  T
   2    -31.4158390 -0.822100E-03  0.557E-01    1.31       1.0  T
   3    -31.4159132 -0.742473E-04  0.193E-01    1.35       1.0  T
   4    -31.4160101 -0.969367E-04  0.868E-02    1.29       1.0  T
   5    -31.4160224 -0.123020E-04  0.234E-02    1.30       1.0  T
   6    -31.4160232 -0.800174E-06  0.133E-02    1.30       1.7  T
   7    -31.4160237 -0.461139E-06  0.621E-03    1.30       3.6  T
   8    -31.4160239 -0.156178E-06  0.424E-03    1.30       5.3  T
   9    -31.4160240 -0.134704E-06  0.225E-03    1.30       9.9  T
  10    -31.4160240 -0.397451E-07  0.115E-03    1.30      19.4  T
  11    -31.4160240 -0.920371E-08  0.459E-04    1.30      48.7  T
  12    -31.4160240 -0.925422E-09  0.274E-04    1.30      81.7  T
     SCC iter.                  ...        0 min,  0.010 sec
     gradient                   ...        0 min,  0.003 sec
 * total energy  :   -30.9952094 Eh     change       -0.1529923E+00 Eh
   gradient norm :     0.7930005 Eh/α   predicted    -0.1281870E+00 ( -16.21%)
   displ. norm   :     0.6146329 α      lambda       -0.1417145E+00
   maximum displ.:     0.2529422 α      in ANC's #45, #48, #44, ...

........................................................................
.............................. CYCLE    7 ..............................
........................................................................

 iter      E             dE          RMSdq      gap      omega  full diag
   1    -31.4619150 -0.314619E+02  0.938E-01    1.59       0.0  T
   2    -31.4632798 -0.136484E-02  0.540E-01    1.45       1.0  T
   3    -31.4633853 -0.105425E-03  0.222E-01    1.50       1.0  T
   4    -31.4635127 -0.127451E-03  0.605E-02    1.44       1.0  T
   5    -31.4635195 -0.679395E-05  0.267E-02    1.45       1.0  T
   6    -31.4635216 -0.213055E-05  0.169E-02    1.45       1.3  T
   7    -31.4635231 -0.143833E-05  0.108E-02    1.45       2.1  T
   8    -31.4635239 -0.788173E-06  0.682E-03    1.45       3.3  T
   9    -31.4635243 -0.396737E-06  0.300E-03    1.45       7.4  T
  10    -31.4635243 -0.512796E-07  0.179E-03    1.45      12.5  T
  11    -31.4635243 -0.183861E-07  0.762E-04    1.45      29.4  T
  12    -31.4635243 -0.220242E-08  0.443E-04    1.45      50.5  T
     SCC iter.                  ...        0 min,  0.010 sec
     gradient                   ...        0 min,  0.003 sec
 * total energy  :   -31.1086220 Eh     change       -0.1134126E+00 Eh
   gradient norm :     0.5328283 Eh/α   predicted    -0.9762549E-01 ( -13.92%)
   displ. norm   :     0.6286706 α      lambda       -0.9769821E-01
   maximum displ.:     0.2528195 α      in ANC's #45, #21, #44, ...

........................................................................
.............................. CYCLE    8 ..............................
........................................................................

 iter      E             dE          RMSdq      gap      omega  full diag
   1    -31.4990885 -0.314991E+02  0.823E-01    1.69       0.0  T
   2    -31.4999879 -0.899313E-03  0.512E-01    1.56       1.0  T
   3    -31.5000372 -0.493341E-04  0.179E-01    1.61       1.0  T
   4    -31.5001141 -0.769354E-04  0.436E-02    1.56       1.0  T
   5    -31.5001174 -0.323972E-05  0.205E-02    1.57       1.1  T
   6    -31.5001191 -0.171458E-05  0.144E-02    1.56       1.6  T
   7    -31.5001202 -0.111565E-05  0.965E-03    1.56       2.3  T
   8    -31.5001210 -0.804468E-06  0.499E-03    1.56       4.5  T
   9    -31.5001212 -0.184315E-06  0.248E-03    1.56       9.0  T
  10    -31.5001212 -0.350828E-07  0.130E-03    1.56      17.2  T
  11    -31.5001212 -0.857846E-08  0.582E-04    1.56      38.4  T
  12    -31.5001212 -0.113442E-08  0.275E-04    1.56      81.2  T
     SCC iter.                  ...        0 min,  0.011 sec
     gradient                   ...        0 min,  0.003 sec
 * total energy  :   -31.1871536 Eh     change       -0.7853156E-01 Eh
   gradient norm :     0.3355100 Eh/α   predicted    -0.6815565E-01 ( -13.21%)
   displ. norm   :     0.6677759 α      lambda       -0.7248752E-01
   maximum displ.:     0.2992689 α      in ANC's #21, #45, #44, ...

........................................................................
.............................. CYCLE    9 ..............................
........................................................................

 iter      E             dE          RMSdq      gap      omega  full diag
   1    -31.5363863 -0.315364E+02  0.696E-01    1.79       0.0  T
   2    -31.5365844 -0.198160E-03  0.426E-01    1.80       1.0  T
   3    -31.5366383 -0.539109E-04  0.899E-02    1.78       1.0  T
   4    -31.5366559 -0.175079E-04  0.602E-02    1.78       1.0  T
   5    -31.5366639 -0.801223E-05  0.326E-02    1.78       1.0  T
   6    -31.5366678 -0.389184E-05  0.185E-02    1.79       1.2  T
   7    -31.5366696 -0.186339E-05  0.852E-03    1.79       2.6  T
   8    -31.5366700 -0.389655E-06  0.552E-03    1.79       4.1  T
   9    -31.5366702 -0.185206E-06  0.348E-03    1.79       6.4  T
  10    -31.5366703 -0.889407E-07  0.224E-03    1.79      10.0  T
  11    -31.5366703 -0.414565E-07  0.766E-04    1.79      29.2  T
  12    -31.5366703 -0.218503E-08  0.344E-04    1.79      65.0  T
     SCC iter.                  ...        0 min,  0.011 sec
     gradient                   ...        0 min,  0.003 sec
 * total energy  :   -31.2465560 Eh     change       -0.5940245E-01 Eh
   gradient norm :     0.2012461 Eh/α   predicted    -0.5240579E-01 ( -11.78%)
   displ. norm   :     0.6795379 α      lambda       -0.5187117E-01
   maximum displ.:     0.3194048 α      in ANC's #21, #45, #3, ...

........................................................................
.............................. CYCLE   10 ..............................
........................................................................

 iter      E             dE          RMSdq      gap      omega  full diag
   1    -31.5702630 -0.315703E+02  0.619E-01    2.00       0.0  T
   2    -31.5705378 -0.274752E-03  0.357E-01    2.10       1.0  T
   3    -31.5704778  0.599580E-04  0.231E-01    1.99       1.0  T
   4    -31.5706980 -0.220228E-03  0.106E-01    2.05       1.0  T
   5    -31.5707194 -0.214034E-04  0.439E-02    2.06       1.0  T
   6    -31.5707256 -0.613447E-05  0.226E-02    2.07       1.0  T
   7    -31.5707288 -0.325719E-05  0.926E-03    2.07       2.4  T
   8    -31.5707292 -0.423020E-06  0.589E-03    2.07       3.8  T
   9    -31.5707295 -0.222741E-06  0.329E-03    2.07       6.8  T
  10    -31.5707296 -0.951078E-07  0.136E-03    2.07      16.4  T
  11    -31.5707296 -0.103847E-07  0.727E-04    2.07      30.8  T
  12    -31.5707296 -0.264627E-08  0.300E-04    2.07      74.7  T
     SCC iter.                  ...        0 min,  0.014 sec
     gradient                   ...        0 min,  0.004 sec
 * total energy  :   -31.2849207 Eh     change       -0.3836473E-01 Eh
   gradient norm :     0.1234050 Eh/α   predicted    -0.3791200E-01 (  -1.18%)
   displ. norm   :     0.5642364 α      lambda       -0.2234483E-01
   maximum displ.:     0.2775492 α      in ANC's #3, #21, #1, ...

........................................................................
.............................. CYCLE   11 ..............................
........................................................................

 iter      E             dE          RMSdq      gap      omega  full diag
   1    -31.5925609 -0.315926E+02  0.412E-01    2.08       0.0  T
   2    -31.5927862 -0.225327E-03  0.245E-01    2.17       1.0  T
   3    -31.5928044 -0.181937E-04  0.181E-01    2.11       1.0  T
   4    -31.5929417 -0.137295E-03  0.856E-02    2.14       1.0  T
   5    -31.5929552 -0.134926E-04  0.472E-02    2.14       1.0  T
   6    -31.5929631 -0.786784E-05  0.233E-02    2.15       1.0  T
   7    -31.5929657 -0.266196E-05  0.623E-03    2.15       3.6  T
   8    -31.5929659 -0.176327E-06  0.432E-03    2.15       5.2  T
   9    -31.5929660 -0.913510E-07  0.245E-03    2.15       9.1  T
  10    -31.5929660 -0.371419E-07  0.151E-03    2.15      14.8  T
  11    -31.5929660 -0.169589E-07  0.705E-04    2.15      31.7  T
  12    -31.5929661 -0.294723E-08  0.329E-04    2.15      67.9  T
     SCC iter.                  ...        0 min,  0.011 sec
     gradient                   ...        0 min,  0.003 sec
 * total energy  :   -31.3015499 Eh     change       -0.1662919E-01 Eh
   gradient norm :     0.1114768 Eh/α   predicted    -0.1472932E-01 ( -11.42%)
   displ. norm   :     0.5252618 α      lambda       -0.1595726E-01
   maximum displ.:     0.2874515 α      in ANC's #3, #1, #21, ...

........................................................................
.............................. CYCLE   12 ..............................
........................................................................

 iter      E             dE          RMSdq      gap      omega  full diag
   1    -31.6077459 -0.316077E+02  0.338E-01    2.13       0.0  T
   2    -31.6079782 -0.232329E-03  0.211E-01    2.22       1.0  T
   3    -31.6080598 -0.816191E-04  0.145E-01    2.17       1.0  T
   4    -31.6081410 -0.811481E-04  0.703E-02    2.19       1.0  T
   5    -31.6081487 -0.770854E-05  0.491E-02    2.19       1.0  T
   6    -31.6081576 -0.896127E-05  0.224E-02    2.19       1.0  T
   7    -31.6081603 -0.268231E-05  0.532E-03    2.19       4.2  T
   8    -31.6081604 -0.118213E-06  0.334E-03    2.19       6.7  T
   9    -31.6081605 -0.393941E-07  0.186E-03    2.19      12.0  T
  10    -31.6081605 -0.174367E-07  0.117E-03    2.19      19.1  T
  11    -31.6081605 -0.921866E-08  0.641E-04    2.19      34.9  T
  12    -31.6081605 -0.268099E-08  0.315E-04    2.19      71.0  T
     SCC iter.                  ...        0 min,  0.011 sec
     gradient                   ...        0 min,  0.003 sec
 * total energy  :   -31.3142981 Eh     change       -0.1274819E-01 Eh
   gradient norm :     0.0949138 Eh/α   predicted    -0.1017994E-01 ( -20.15%)
   displ. norm   :     0.5407772 α      lambda       -0.1382201E-01
   maximum displ.:     0.2792941 α      in ANC's #1, #3, #21, ...

........................................................................
.............................. CYCLE   13 ..............................
........................................................................

 iter      E             dE          RMSdq      gap      omega  full diag
   1    -31.6206249 -0.316206E+02  0.335E-01    2.20       0.0  T
   2    -31.6208661 -0.241199E-03  0.213E-01    2.29       1.0  T
   3    -31.6210448 -0.178707E-03  0.146E-01    2.24       1.0  T
   4    -31.6211195 -0.746867E-04  0.828E-02    2.26       1.0  T
   5    -31.6211357 -0.162436E-04  0.530E-02    2.26       1.0  T
   6    -31.6211481 -0.123921E-04  0.306E-02    2.26       1.0  T
   7    -31.6211537 -0.552473E-05  0.116E-02    2.26       1.9  T
   8    -31.6211546 -0.901899E-06  0.482E-03    2.26       4.6  T
   9    -31.6211546 -0.737577E-07  0.250E-03    2.26       8.9  T
  10    -31.6211547 -0.263253E-07  0.168E-03    2.26      13.3  T
  11    -31.6211547 -0.204413E-07  0.892E-04    2.26      25.1  T
  12    -31.6211547 -0.580289E-08  0.521E-04    2.26      42.9  T
     SCC iter.                  ...        0 min,  0.011 sec
     gradient                   ...        0 min,  0.003 sec
 * total energy  :   -31.3249095 Eh     change       -0.1061136E-01 Eh
   gradient norm :     0.0794229 Eh/α   predicted    -0.8932143E-02 ( -15.82%)
   displ. norm   :     0.5265618 α      lambda       -0.1026044E-01
   maximum displ.:     0.3226504 α      in ANC's #1, #3, #5, ...

........................................................................
.............................. CYCLE   14 ..............................
........................................................................

 iter      E             dE          RMSdq      gap      omega  full diag
   1    -31.6261137 -0.316261E+02  0.328E-01    2.27       0.0  T
   2    -31.6263473 -0.233604E-03  0.215E-01    2.37       1.0  T
   3    -31.6266583 -0.310930E-03  0.144E-01    2.32       1.0  T
   4    -31.6267291 -0.708510E-04  0.938E-02    2.33       1.0  T
   5    -31.6267642 -0.350861E-04  0.602E-02    2.33       1.0  T
   6    -31.6267873 -0.231162E-04  0.362E-02    2.33       1.0  T
   7    -31.6267999 -0.125403E-04  0.125E-02    2.34       1.8  T
   8    -31.6268010 -0.117329E-05  0.638E-03    2.34       3.5  T
   9    -31.6268012 -0.150379E-06  0.339E-03    2.34       6.6  T
  10    -31.6268012 -0.411717E-07  0.246E-03    2.34       9.1  T
  11    -31.6268013 -0.500739E-07  0.132E-03    2.34      17.0  T
  12    -31.6268013 -0.133032E-07  0.827E-04    2.34      27.0  T
  13    -31.6268013 -0.515360E-08  0.221E-04    2.34     101.2  T
     SCC iter.                  ...        0 min,  0.012 sec
     gradient                   ...        0 min,  0.003 sec
 * total energy  :   -31.3332059 Eh     change       -0.8296475E-02 Eh
   gradient norm :     0.0851740 Eh/α   predicted    -0.6552730E-02 ( -21.02%)
   displ. norm   :     0.5537997 α      lambda       -0.1148746E-01
   maximum displ.:     0.3060851 α      in ANC's #1, #3, #6, ...

........................................................................
.............................. CYCLE   15 ..............................
........................................................................

 iter      E             dE          RMSdq      gap      omega  full diag
   1    -31.6338910 -0.316339E+02  0.444E-01    2.33       0.0  T
   2    -31.6343509 -0.459885E-03  0.288E-01    2.44       1.0  T
   3    -31.6350293 -0.678377E-03  0.223E-01    2.38       1.0  T
   4    -31.6352325 -0.203211E-03  0.184E-01    2.40       1.0  T
   5    -31.6353874 -0.154953E-03  0.162E-01    2.40       1.0  T
   6    -31.6356890 -0.301522E-03  0.109E-01    2.40       1.0  T
   7    -31.6358602 -0.171257E-03  0.325E-02    2.41       1.0  T
   8    -31.6358612 -0.987408E-06  0.194E-02    2.41       1.2  T
   9    -31.6358599  0.135847E-05  0.176E-02    2.41       1.3  T
  10    -31.6358631 -0.324656E-05  0.697E-03    2.41       3.2  T
  11    -31.6358632 -0.119014E-06  0.449E-03    2.41       5.0  T
  12    -31.6358635 -0.267643E-06  0.202E-03    2.41      11.0  T
  13    -31.6358635 -0.268960E-07  0.682E-04    2.41      32.8  T
  14    -31.6358635 -0.234491E-08  0.355E-04    2.41      63.0  T
     SCC iter.                  ...        0 min,  0.012 sec
     gradient                   ...        0 min,  0.004 sec
 * total energy  :   -31.3434060 Eh     change       -0.1020002E-01 Eh
   gradient norm :     0.1296449 Eh/α   predicted    -0.7505322E-02 ( -26.42%)
   displ. norm   :     0.7331489 α      lambda       -0.2009280E-01
   maximum displ.:     0.3073342 α      in ANC's #1, #45, #44, ...

........................................................................
.............................. CYCLE   16 ..............................
........................................................................

 iter      E             dE          RMSdq      gap      omega  full diag
   1    -31.6414609 -0.316415E+02  0.909E-01    2.37       0.0  T
   2    -31.6414285  0.324051E-04  0.761E-01    2.37       1.0  T
   3    -31.6468903 -0.546180E-02  0.383E-01    2.39       1.0  T
   4    -31.6471920 -0.301680E-03  0.180E-01    2.39       1.0  T
   5    -31.6472240 -0.319857E-04  0.940E-02    2.39       1.0  T
   6    -31.6472475 -0.234731E-04  0.496E-02    2.39       1.0  T
   7    -31.6472582 -0.107443E-04  0.188E-02    2.39       1.2  T
   8    -31.6472597 -0.145344E-05  0.110E-02    2.39       2.0  T
   9    -31.6472603 -0.630224E-06  0.669E-03    2.39       3.3  T
  10    -31.6472606 -0.328006E-06  0.251E-03    2.39       8.9  T
  11    -31.6472607 -0.365358E-07  0.135E-03    2.39      16.5  T
  12    -31.6472607 -0.824311E-08  0.693E-04    2.39      32.3  T
  13    -31.6472607 -0.261669E-08  0.371E-04    2.39      60.3  T
     SCC iter.                  ...        0 min,  0.013 sec
     gradient                   ...        0 min,  0.004 sec
 * total energy  :   -31.3599776 Eh     change       -0.1657164E-01 Eh
   gradient norm :     0.1650304 Eh/α   predicted    -0.1544651E-01 (  -6.79%)
   displ. norm   :     0.5106688 α      lambda       -0.1582832E-01
   maximum displ.:     0.1889235 α      in ANC's #1, #45, #14, ...

........................................................................
.............................. CYCLE   17 ..............................
........................................................................

 iter      E             dE          RMSdq      gap      omega  full diag
   1    -31.6534868 -0.316535E+02  0.785E-01    2.20       0.0  T
   2    -31.6525466  0.940131E-03  0.613E-01    2.04       1.0  T
   3    -31.6569955 -0.444886E-02  0.280E-01    2.17       1.0  T
   4    -31.6574647 -0.469206E-03  0.711E-02    2.15       1.0  T
   5    -31.6574673 -0.261544E-05  0.404E-02    2.16       1.0  T
   6    -31.6574734 -0.605552E-05  0.184E-02    2.15       1.2  T
   7    -31.6574745 -0.108187E-05  0.126E-02    2.15       1.8  T
   8    -31.6574753 -0.865271E-06  0.519E-03    2.15       4.3  T
   9    -31.6574754 -0.672872E-07  0.334E-03    2.15       6.7  T
  10    -31.6574755 -0.677316E-07  0.159E-03    2.15      14.1  T
  11    -31.6574755 -0.854079E-08  0.694E-04    2.15      32.2  T
  12    -31.6574755 -0.131811E-08  0.268E-04    2.15      83.5  T
     SCC iter.                  ...        0 min,  0.013 sec
     gradient                   ...        0 min,  0.003 sec
 * total energy  :   -31.3689075 Eh     change       -0.8929900E-02 Eh
   gradient norm :     0.1513297 Eh/α   predicted    -0.9978042E-02 (  11.74%)
   displ. norm   :     0.3135293 α      lambda       -0.1074031E-01
   maximum displ.:     0.1429015 α      in ANC's #6, #1, #2, ...

........................................................................
.............................. CYCLE   18 ..............................
........................................................................

 iter      E             dE          RMSdq      gap      omega  full diag
   1    -31.6487105 -0.316487E+02  0.348E-01    2.06       0.0  T
   2    -31.6489352 -0.224661E-03  0.308E-01    2.00       1.0  T
   3    -31.6498241 -0.888939E-03  0.143E-01    2.06       1.0  T
   4    -31.6498831 -0.589914E-04  0.606E-02    2.05       1.0  T
   5    -31.6498873 -0.424651E-05  0.236E-02    2.05       1.0  T
   6    -31.6498899 -0.255080E-05  0.125E-02    2.05       1.8  T
   7    -31.6498903 -0.397433E-06  0.762E-03    2.05       2.9  T
   8    -31.6498906 -0.308430E-06  0.433E-03    2.05       5.2  T
   9    -31.6498907 -0.127836E-06  0.186E-03    2.05      12.0  T
  10    -31.6498907 -0.182616E-07  0.122E-03    2.05      18.3  T
  11    -31.6498907 -0.873367E-08  0.377E-04    2.05      59.3  T
  12    -31.6498907 -0.471694E-09  0.256E-04    2.05      87.2  T
     SCC iter.                  ...        0 min,  0.010 sec
     gradient                   ...        0 min,  0.004 sec
 * total energy  :   -31.3748940 Eh     change       -0.5986442E-02 Eh
   gradient norm :     0.1335216 Eh/α   predicted    -0.5898078E-02 (  -1.48%)
   displ. norm   :     0.3399841 α      lambda       -0.1267630E-01
   maximum displ.:     0.1416475 α      in ANC's #11, #9, #24, ...

........................................................................
.............................. CYCLE   19 ..............................
........................................................................

 iter      E             dE          RMSdq      gap      omega  full diag
   1    -31.6714776 -0.316715E+02  0.343E-01    2.01       0.0  T
   2    -31.6714610  0.165636E-04  0.260E-01    1.96       1.0  T
   3    -31.6718609 -0.399899E-03  0.143E-01    2.01       1.0  T
   4    -31.6719520 -0.911579E-04  0.445E-02    2.00       1.0  T
   5    -31.6719613 -0.922533E-05  0.194E-02    2.00       1.2  T
   6    -31.6719626 -0.128960E-05  0.102E-02    2.00       2.2  T
   7    -31.6719630 -0.408926E-06  0.736E-03    2.00       3.0  T
   8    -31.6719634 -0.424778E-06  0.386E-03    2.00       5.8  T
   9    -31.6719635 -0.108069E-06  0.197E-03    2.00      11.3  T
  10    -31.6719635 -0.274002E-07  0.809E-04    2.00      27.6  T
  11    -31.6719635 -0.256665E-08  0.460E-04    2.00      48.6  T
     SCC iter.                  ...        0 min,  0.010 sec
     gradient                   ...        0 min,  0.003 sec
 * total energy  :   -31.3827414 Eh     change       -0.7847453E-02 Eh
   gradient norm :     0.1180260 Eh/α   predicted    -0.7070819E-02 (  -9.90%)
   displ. norm   :     0.3325718 α      lambda       -0.6055984E-02
   maximum displ.:     0.1087695 α      in ANC's #11, #7, #3, ...

........................................................................
.............................. CYCLE   20 ..............................
........................................................................

 iter      E             dE          RMSdq      gap      omega  full diag
   1    -31.6827902 -0.316828E+02  0.390E-01    1.92       0.0  T
   2    -31.6824505  0.339738E-03  0.337E-01    1.82       1.0  T
   3    -31.6837174 -0.126690E-02  0.111E-01    1.89       1.0  T
   4    -31.6837744 -0.570164E-04  0.286E-02    1.89       1.0  T
   5    -31.6837751 -0.678128E-06  0.128E-02    1.89       1.7  T
   6    -31.6837757 -0.591972E-06  0.749E-03    1.89       3.0  T
   7    -31.6837758 -0.164076E-06  0.353E-03    1.89       6.3  T
   8    -31.6837759 -0.608561E-07  0.202E-03    1.89      11.1  T
   9    -31.6837759 -0.232586E-07  0.115E-03    1.89      19.4  T
  10    -31.6837759 -0.743875E-08  0.589E-04    1.89      37.9  T
  11    -31.6837759 -0.209482E-08  0.345E-04    1.89      64.8  T
     SCC iter.                  ...        0 min,  0.010 sec
     gradient                   ...        0 min,  0.003 sec
 * total energy  :   -31.3874820 Eh     change       -0.4740559E-02 Eh
   gradient norm :     0.1150322 Eh/α   predicted    -0.3362936E-02 ( -29.06%)
   displ. norm   :     0.4010428 α      lambda       -0.7574432E-02
   maximum displ.:     0.1339667 α      in ANC's #2, #7, #11, ...
 * RMSD in coord.:     1.7841716 α      energy gain  -0.2206615E+02 Eh

generating ANC from exact Hessian ...
Using Lindh-Hessian (1995)
 Shifting diagonal of input Hessian by    1.0139849047301827E-002
 Lowest  eigenvalues of input Hessian
    0.010000    0.000000    0.000000    0.000000    0.000000    0.000000
    0.000000    0.010547    0.010570    0.011080    0.011812    0.011913
    0.011956    0.012287    0.013884    0.016037    0.017379    0.020840
 Highest eigenvalues
    1.205912    1.294197    1.300006    1.769467    1.885998    2.373867


........................................................................
.............................. CYCLE   21 ..............................
........................................................................

 iter      E             dE          RMSdq      gap      omega  full diag
   1    -31.6979480 -0.316979E+02  0.501E-01    1.81       0.0  T
   2    -31.6975204  0.427649E-03  0.414E-01    1.68       1.0  T
   3    -31.6992915 -0.177118E-02  0.143E-01    1.77       1.0  T
   4    -31.6993811 -0.895222E-04  0.412E-02    1.76       1.0  T
   5    -31.6993834 -0.235450E-05  0.187E-02    1.76       1.2  T
   6    -31.6993844 -0.965695E-06  0.111E-02    1.76       2.0  T
   7    -31.6993846 -0.262648E-06  0.512E-03    1.76       4.4  T
   8    -31.6993848 -0.145278E-06  0.252E-03    1.76       8.9  T
   9    -31.6993848 -0.372419E-07  0.126E-03    1.76      17.7  T
  10    -31.6993848 -0.951144E-08  0.646E-04    1.76      34.6  T
  11    -31.6993848 -0.245475E-08  0.341E-04    1.76      65.7  T
     SCC iter.                  ...        0 min,  0.010 sec
     gradient                   ...        0 min,  0.004 sec
 * total energy  :   -31.3933214 Eh     change       -0.5839430E-02 Eh
   gradient norm :     0.1091602 Eh/α   predicted     0.0000000E+00 (-100.00%)
   displ. norm   :     0.5920682 α      lambda       -0.3315009E-01
   maximum displ.:     0.5139722 α      in ANC's #15, #10, #9, ...

........................................................................
.............................. CYCLE   22 ..............................
........................................................................

 iter      E             dE          RMSdq      gap      omega  full diag
   1    -31.7100998 -0.317101E+02  0.122E+00    1.65       0.0  T
   2    -31.7091890  0.910735E-03  0.902E-01    1.33       1.0  T
   3    -31.7167119 -0.752288E-02  0.334E-01    1.55       1.0  T
   4    -31.7172196 -0.507636E-03  0.913E-02    1.51       1.0  T
   5    -31.7172444 -0.248225E-04  0.289E-02    1.51       1.0  T
   6    -31.7172460 -0.162861E-05  0.193E-02    1.52       1.2  T
   7    -31.7172476 -0.161490E-05  0.898E-03    1.51       2.5  T
   8    -31.7172480 -0.382927E-06  0.556E-03    1.51       4.0  T
   9    -31.7172482 -0.182930E-06  0.198E-03    1.51      11.3  T
  10    -31.7172482 -0.179475E-07  0.117E-03    1.51      19.1  T
  11    -31.7172482 -0.463073E-08  0.549E-04    1.51      40.7  T
  12    -31.7172482 -0.124233E-08  0.197E-04    1.51     113.6  T
     SCC iter.                  ...        0 min,  0.012 sec
     gradient                   ...        0 min,  0.004 sec
 * total energy  :   -31.4149479 Eh     change       -0.2162650E-01 Eh
   gradient norm :     0.0706112 Eh/α   predicted    -0.2238576E-01 (   3.51%)
   displ. norm   :     0.4492758 α      lambda       -0.1304905E-01
   maximum displ.:     0.2762911 α      in ANC's #9, #10, #15, ...

........................................................................
.............................. CYCLE   23 ..............................
........................................................................

 iter      E             dE          RMSdq      gap      omega  full diag
   1    -31.7298374 -0.317298E+02  0.425E-01    1.72       0.0  T
   2    -31.7299664 -0.129044E-03  0.262E-01    1.65       1.0  T
   3    -31.7302355 -0.269091E-03  0.160E-01    1.71       1.0  T
   4    -31.7303126 -0.770371E-04  0.342E-02    1.69       1.0  T
   5    -31.7303149 -0.233786E-05  0.130E-02    1.69       1.7  T
   6    -31.7303154 -0.500464E-06  0.801E-03    1.69       2.8  T
   7    -31.7303157 -0.333733E-06  0.500E-03    1.69       4.5  T
   8    -31.7303159 -0.169992E-06  0.317E-03    1.69       7.1  T
   9    -31.7303160 -0.855605E-07  0.145E-03    1.69      15.4  T
  10    -31.7303160 -0.125750E-07  0.804E-04    1.69      27.8  T
  11    -31.7303160 -0.376620E-08  0.301E-04    1.69      74.4  T
     SCC iter.                  ...        0 min,  0.012 sec
     gradient                   ...        0 min,  0.003 sec
 * total energy  :   -31.4229943 Eh     change       -0.8046440E-02 Eh
   gradient norm :     0.0244787 Eh/α   predicted    -0.7841689E-02 (  -2.54%)
   displ. norm   :     0.3088705 α      lambda       -0.2976021E-02
   maximum displ.:     0.1694242 α      in ANC's #9, #15, #10, ...

........................................................................
.............................. CYCLE   24 ..............................
........................................................................

 iter      E             dE          RMSdq      gap      omega  full diag
   1    -31.7328578 -0.317329E+02  0.217E-01    1.69       0.0  T
   2    -31.7328740 -0.161199E-04  0.114E-01    1.67       1.0  T
   3    -31.7328625  0.114689E-04  0.822E-02    1.70       1.0  T
   4    -31.7328957 -0.332418E-04  0.200E-02    1.69       1.1  T
   5    -31.7328971 -0.135722E-05  0.663E-03    1.69       3.4  T
   6    -31.7328972 -0.123365E-06  0.483E-03    1.69       4.6  T
   7    -31.7328973 -0.132052E-06  0.282E-03    1.69       7.9  T
   8    -31.7328974 -0.548381E-07  0.178E-03    1.69      12.6  T
   9    -31.7328974 -0.266343E-07  0.713E-04    1.69      31.4  T
  10    -31.7328974 -0.256622E-08  0.393E-04    1.69      56.8  T
     SCC iter.                  ...        0 min,  0.010 sec
     gradient                   ...        0 min,  0.003 sec
 * total energy  :   -31.4253196 Eh     change       -0.2325302E-02 Eh
   gradient norm :     0.0217676 Eh/α   predicted    -0.1629981E-02 ( -29.90%)
   displ. norm   :     0.5196364 α      lambda       -0.3531568E-02
   maximum displ.:     0.2917901 α      in ANC's #9, #15, #10, ...

........................................................................
.............................. CYCLE   25 ..............................
........................................................................

 iter      E             dE          RMSdq      gap      omega  full diag
   1    -31.7355967 -0.317356E+02  0.290E-01    1.65       0.0  T
   2    -31.7356257 -0.289668E-04  0.149E-01    1.62       1.0  T
   3    -31.7356033  0.224149E-04  0.102E-01    1.65       1.0  T
   4    -31.7356573 -0.539816E-04  0.316E-02    1.64       1.0  T
   5    -31.7356609 -0.357926E-05  0.105E-02    1.64       2.1  T
   6    -31.7356613 -0.395996E-06  0.783E-03    1.64       2.9  T
   7    -31.7356617 -0.463359E-06  0.430E-03    1.64       5.2  T
   8    -31.7356619 -0.147360E-06  0.200E-03    1.64      11.2  T
   9    -31.7356619 -0.272936E-07  0.110E-03    1.64      20.4  T
  10    -31.7356619 -0.554823E-08  0.506E-04    1.64      44.2  T
  11    -31.7356619 -0.136509E-08  0.298E-04    1.64      75.1  T
     SCC iter.                  ...        0 min,  0.010 sec
     gradient                   ...        0 min,  0.003 sec
 * total energy  :   -31.4280208 Eh     change       -0.2701208E-02 Eh
   gradient norm :     0.0123433 Eh/α   predicted    -0.2242601E-02 ( -16.98%)
   displ. norm   :     0.6016121 α      lambda       -0.2570680E-02
   maximum displ.:     0.3421365 α      in ANC's #9, #10, #15, ...

........................................................................
.............................. CYCLE   26 ..............................
........................................................................

 iter      E             dE          RMSdq      gap      omega  full diag
   1    -31.7355713 -0.317356E+02  0.369E-01    1.61       0.0  T
   2    -31.7356329 -0.615758E-04  0.164E-01    1.59       1.0  T
   3    -31.7356073  0.255590E-04  0.105E-01    1.62       1.0  T
   4    -31.7356679 -0.606243E-04  0.417E-02    1.60       1.0  T
   5    -31.7356734 -0.544245E-05  0.138E-02    1.60       1.6  T
   6    -31.7356741 -0.733669E-06  0.104E-02    1.60       2.2  T
   7    -31.7356750 -0.884648E-06  0.560E-03    1.60       4.0  T
   8    -31.7356752 -0.261484E-06  0.245E-03    1.60       9.1  T
   9    -31.7356753 -0.421729E-07  0.129E-03    1.60      17.4  T
  10    -31.7356753 -0.601424E-08  0.612E-04    1.60      36.6  T
  11    -31.7356753 -0.213278E-08  0.356E-04    1.60      62.8  T
     SCC iter.                  ...        0 min,  0.010 sec
     gradient                   ...        0 min,  0.003 sec
 * total energy  :   -31.4297973 Eh     change       -0.1776430E-02 Eh
   gradient norm :     0.0161270 Eh/α   predicted    -0.1750559E-02 (  -1.46%)
   displ. norm   :     0.4249213 α      lambda       -0.1344974E-02
   maximum displ.:     0.2189160 α      in ANC's #9, #12, #10, ...

........................................................................
.............................. CYCLE   27 ..............................
........................................................................

 iter      E             dE          RMSdq      gap      omega  full diag
   1    -31.7359402 -0.317359E+02  0.346E-01    1.60       0.0  T
   2    -31.7360035 -0.633042E-04  0.139E-01    1.57       1.0  T
   3    -31.7359874  0.161178E-04  0.841E-02    1.60       1.0  T
   4    -31.7360292 -0.418004E-04  0.349E-02    1.58       1.0  T
   5    -31.7360330 -0.376321E-05  0.776E-03    1.58       2.9  T
   6    -31.7360332 -0.187770E-06  0.562E-03    1.58       4.0  T
   7    -31.7360334 -0.196237E-06  0.344E-03    1.58       6.5  T
   8    -31.7360335 -0.102835E-06  0.139E-03    1.58      16.0  T
   9    -31.7360335 -0.168111E-07  0.689E-04    1.58      32.4  T
  10    -31.7360335 -0.190087E-08  0.365E-04    1.58      61.2  T
     SCC iter.                  ...        0 min,  0.009 sec
     gradient                   ...        0 min,  0.003 sec
 * total energy  :   -31.4310550 Eh     change       -0.1257756E-02 Eh
   gradient norm :     0.0157977 Eh/α   predicted    -0.7939106E-03 ( -36.88%)
   displ. norm   :     0.8976920 α      lambda       -0.3293693E-02
   maximum displ.:     0.4922197 α      in ANC's #12, #9, #10, ...

........................................................................
.............................. CYCLE   28 ..............................
........................................................................

 iter      E             dE          RMSdq      gap      omega  full diag
   1    -31.7350655 -0.317351E+02  0.817E-01    1.57       0.0  T
   2    -31.7354452 -0.379773E-03  0.322E-01    1.52       1.0  T
   3    -31.7353668  0.783933E-04  0.185E-01    1.57       1.0  T
   4    -31.7355620 -0.195145E-03  0.847E-02    1.52       1.0  T
   5    -31.7355892 -0.271971E-04  0.188E-02    1.53       1.2  T
   6    -31.7355906 -0.136431E-05  0.117E-02    1.53       1.9  T
   7    -31.7355912 -0.692502E-06  0.763E-03    1.53       2.9  T
   8    -31.7355917 -0.421486E-06  0.452E-03    1.53       4.9  T
   9    -31.7355919 -0.192745E-06  0.172E-03    1.53      13.0  T
  10    -31.7355919 -0.177802E-07  0.943E-04    1.53      23.7  T
  11    -31.7355919 -0.363032E-08  0.488E-04    1.53      45.8  T
     SCC iter.                  ...        0 min,  0.010 sec
     gradient                   ...        0 min,  0.003 sec
 * total energy  :   -31.4340142 Eh     change       -0.2959168E-02 Eh
   gradient norm :     0.0219721 Eh/α   predicted    -0.2973974E-02 (   0.50%)
   displ. norm   :     0.4949355 α      lambda       -0.1995312E-02
   maximum displ.:     0.2925367 α      in ANC's #12, #10, #9, ...

........................................................................
.............................. CYCLE   29 ..............................
........................................................................

 iter      E             dE          RMSdq      gap      omega  full diag
   1    -31.7400850 -0.317401E+02  0.548E-01    1.54       0.0  T
   2    -31.7403073 -0.222290E-03  0.214E-01    1.49       1.0  T
   3    -31.7402873  0.199901E-04  0.131E-01    1.53       1.0  T
   4    -31.7403785 -0.911539E-04  0.634E-02    1.49       1.0  T
   5    -31.7403964 -0.178994E-04  0.969E-03    1.50       2.3  T
   6    -31.7403966 -0.282489E-06  0.573E-03    1.50       3.9  T
   7    -31.7403968 -0.128176E-06  0.407E-03    1.50       5.5  T
   8    -31.7403969 -0.102802E-06  0.271E-03    1.50       8.3  T
   9    -31.7403969 -0.685995E-07  0.111E-03    1.50      20.2  T
  10    -31.7403970 -0.950466E-08  0.453E-04    1.50      49.3  T
  11    -31.7403970 -0.806114E-09  0.289E-04    1.50      77.5  T
     SCC iter.                  ...        0 min,  0.010 sec
     gradient                   ...        0 min,  0.003 sec
 * total energy  :   -31.4352948 Eh     change       -0.1280576E-02 Eh
   gradient norm :     0.0302126 Eh/α   predicted    -0.1242050E-02 (  -3.01%)
   displ. norm   :     0.7999926 α      lambda       -0.3011393E-02
   maximum displ.:     0.4333851 α      in ANC's #10, #12, #9, ...

........................................................................
.............................. CYCLE   30 ..............................
........................................................................

 iter      E             dE          RMSdq      gap      omega  full diag
   1    -31.7375623 -0.317376E+02  0.692E-01    1.54       0.0  T
   2    -31.7378785 -0.316163E-03  0.277E-01    1.48       1.0  T
   3    -31.7378335  0.449575E-04  0.162E-01    1.53       1.0  T
   4    -31.7379741 -0.140542E-03  0.753E-02    1.49       1.0  T
   5    -31.7379989 -0.248364E-04  0.225E-02    1.50       1.0  T
   6    -31.7380009 -0.200400E-05  0.156E-02    1.50       1.4  T
   7    -31.7380025 -0.156349E-05  0.101E-02    1.50       2.2  T
   8    -31.7380035 -0.982870E-06  0.483E-03    1.50       4.6  T
   9    -31.7380036 -0.182067E-06  0.226E-03    1.50       9.9  T
  10    -31.7380037 -0.265989E-07  0.114E-03    1.50      19.6  T
  11    -31.7380037 -0.468237E-08  0.618E-04    1.50      36.2  T
  12    -31.7380037 -0.182978E-08  0.315E-04    1.50      70.9  T
     SCC iter.                  ...        0 min,  0.014 sec
     gradient                   ...        0 min,  0.003 sec
 * total energy  :   -31.4381309 Eh     change       -0.2836151E-02 Eh
   gradient norm :     0.0373380 Eh/α   predicted    -0.2469329E-02 ( -12.93%)
   displ. norm   :     0.5519425 α      lambda       -0.6113175E-02
   maximum displ.:     0.3304119 α      in ANC's #10, #9, #7, ...

........................................................................
.............................. CYCLE   31 ..............................
........................................................................

 iter      E             dE          RMSdq      gap      omega  full diag
   1    -31.7451964 -0.317452E+02  0.384E-01    1.66       0.0  T
   2    -31.7452472 -0.508182E-04  0.218E-01    1.65       1.0  T
   3    -31.7452285  0.187077E-04  0.925E-02    1.67       1.0  T
   4    -31.7452787 -0.502133E-04  0.463E-02    1.65       1.0  T
   5    -31.7452871 -0.839964E-05  0.255E-02    1.66       1.0  T
   6    -31.7452899 -0.280420E-05  0.198E-02    1.66       1.1  T
   7    -31.7452936 -0.367043E-05  0.970E-03    1.66       2.3  T
   8    -31.7452943 -0.758700E-06  0.580E-03    1.66       3.9  T
   9    -31.7452946 -0.234021E-06  0.191E-03    1.66      11.7  T
  10    -31.7452946 -0.142472E-07  0.104E-03    1.66      21.4  T
  11    -31.7452946 -0.343499E-08  0.409E-04    1.66      54.7  T
  12    -31.7452946 -0.634266E-09  0.190E-04    1.66     118.0  T
     SCC iter.                  ...        0 min,  0.011 sec
     gradient                   ...        0 min,  0.003 sec
 * total energy  :   -31.4395587 Eh     change       -0.1427795E-02 Eh
   gradient norm :     0.0624571 Eh/α   predicted    -0.3987750E-02 ( 179.29%)
   displ. norm   :     0.5279163 α      lambda       -0.6816425E-02
   maximum displ.:     0.3135088 α      in ANC's #10, #9, #12, ...

........................................................................
.............................. CYCLE   32 ..............................
........................................................................

 iter      E             dE          RMSdq      gap      omega  full diag
   1    -31.7447433 -0.317447E+02  0.330E-01    1.58       0.0  T
   2    -31.7448625 -0.119199E-03  0.140E-01    1.57       1.0  T
   3    -31.7448675 -0.498061E-05  0.591E-02    1.57       1.0  T
   4    -31.7448663  0.117217E-05  0.311E-02    1.56       1.0  T
   5    -31.7448712 -0.489521E-05  0.122E-02    1.57       1.8  T
   6    -31.7448720 -0.766972E-06  0.655E-03    1.57       3.4  T
   7    -31.7448722 -0.186757E-06  0.479E-03    1.57       4.7  T
   8    -31.7448723 -0.164645E-06  0.306E-03    1.57       7.3  T
   9    -31.7448724 -0.910284E-07  0.137E-03    1.57      16.4  T
  10    -31.7448724 -0.130244E-07  0.546E-04    1.57      40.9  T
  11    -31.7448724 -0.120277E-08  0.305E-04    1.57      73.3  T
     SCC iter.                  ...        0 min,  0.010 sec
     gradient                   ...        0 min,  0.003 sec
 * total energy  :   -31.4450732 Eh     change       -0.5514500E-02 Eh
   gradient norm :     0.0264854 Eh/α   predicted    -0.4358070E-02 ( -20.97%)
   displ. norm   :     0.8348529 α      lambda       -0.6516794E-02
   maximum displ.:     0.4737453 α      in ANC's #10, #9, #12, ...

........................................................................
.............................. CYCLE   33 ..............................
........................................................................

 iter      E             dE          RMSdq      gap      omega  full diag
   1    -31.7526896 -0.317527E+02  0.509E-01    1.53       0.0  T
   2    -31.7529186 -0.228992E-03  0.208E-01    1.50       1.0  T
   3    -31.7529238 -0.519145E-05  0.804E-02    1.51       1.0  T
   4    -31.7529268 -0.296596E-05  0.469E-02    1.49       1.0  T
   5    -31.7529382 -0.113931E-04  0.173E-02    1.50       1.3  T
   6    -31.7529398 -0.162934E-05  0.861E-03    1.50       2.6  T
   7    -31.7529401 -0.280056E-06  0.633E-03    1.50       3.5  T
   8    -31.7529404 -0.262744E-06  0.378E-03    1.50       5.9  T
   9    -31.7529405 -0.120286E-06  0.181E-03    1.50      12.4  T
  10    -31.7529405 -0.218451E-07  0.778E-04    1.50      28.8  T
  11    -31.7529405 -0.277126E-08  0.465E-04    1.50      48.1  T
     SCC iter.                  ...        0 min,  0.010 sec
     gradient                   ...        0 min,  0.003 sec
 * total energy  :   -31.4506836 Eh     change       -0.5610400E-02 Eh
   gradient norm :     0.0341287 Eh/α   predicted    -0.5529442E-02 (  -1.44%)
   displ. norm   :     0.8011869 α      lambda       -0.6416162E-02
   maximum displ.:     0.4463308 α      in ANC's #10, #9, #15, ...

........................................................................
.............................. CYCLE   34 ..............................
........................................................................

 iter      E             dE          RMSdq      gap      omega  full diag
   1    -31.7623897 -0.317624E+02  0.370E-01    1.52       0.0  T
   2    -31.7624559 -0.662322E-04  0.167E-01    1.52       1.0  T
   3    -31.7624599 -0.391576E-05  0.547E-02    1.51       1.0  T
   4    -31.7624601 -0.240997E-06  0.345E-02    1.52       1.0  T
   5    -31.7624682 -0.812441E-05  0.139E-02    1.52       1.6  T
   6    -31.7624689 -0.667632E-06  0.103E-02    1.52       2.2  T
   7    -31.7624695 -0.597362E-06  0.684E-03    1.52       3.3  T
   8    -31.7624699 -0.420194E-06  0.330E-03    1.52       6.8  T
   9    -31.7624700 -0.755139E-07  0.193E-03    1.52      11.6  T
  10    -31.7624700 -0.231346E-07  0.788E-04    1.52      28.4  T
  11    -31.7624700 -0.288255E-08  0.430E-04    1.52      52.0  T
     SCC iter.                  ...        0 min,  0.010 sec
     gradient                   ...        0 min,  0.003 sec
 * total energy  :   -31.4551547 Eh     change       -0.4471124E-02 Eh
   gradient norm :     0.0421632 Eh/α   predicted    -0.5267358E-02 (  17.81%)
   displ. norm   :     0.4347767 α      lambda       -0.2804779E-02
   maximum displ.:     0.2366301 α      in ANC's #10, #12, #9, ...

........................................................................
.............................. CYCLE   35 ..............................
........................................................................

 iter      E             dE          RMSdq      gap      omega  full diag
   1    -31.7518811 -0.317519E+02  0.407E-01    1.54       0.0  T
   2    -31.7519920 -0.110861E-03  0.183E-01    1.51       1.0  T
   3    -31.7519681  0.238046E-04  0.104E-01    1.54       1.0  T
   4    -31.7520215 -0.533405E-04  0.376E-02    1.51       1.0  T
   5    -31.7520278 -0.627764E-05  0.139E-02    1.52       1.6  T
   6    -31.7520286 -0.822987E-06  0.658E-03    1.52       3.4  T
   7    -31.7520288 -0.233438E-06  0.443E-03    1.52       5.1  T
   8    -31.7520290 -0.179487E-06  0.239E-03    1.52       9.4  T
   9    -31.7520290 -0.460161E-07  0.120E-03    1.52      18.6  T
  10    -31.7520291 -0.106113E-07  0.411E-04    1.52      54.4  T
  11    -31.7520291 -0.582816E-09  0.224E-04    1.52      99.9  T
     SCC iter.                  ...        0 min,  0.010 sec
     gradient                   ...        0 min,  0.003 sec
 * total energy  :   -31.4556257 Eh     change       -0.4709619E-03 Eh
   gradient norm :     0.0371358 Eh/α   predicted    -0.1667487E-02 ( 254.06%)
   displ. norm   :     0.4327274 α      lambda       -0.4991098E-02
   maximum displ.:     0.1811823 α      in ANC's #4, #12, #9, ...

........................................................................
.............................. CYCLE   36 ..............................
........................................................................

 iter      E             dE          RMSdq      gap      omega  full diag
   1    -31.7736814 -0.317737E+02  0.424E-01    1.68       0.0  T
   2    -31.7740418 -0.360351E-03  0.231E-01    1.72       1.0  T
   3    -31.7740550 -0.132347E-04  0.126E-01    1.71       1.0  T
   4    -31.7740530  0.201759E-05  0.477E-02    1.73       1.0  T
   5    -31.7740728 -0.198065E-04  0.169E-02    1.72       1.3  T
   6    -31.7740737 -0.907864E-06  0.122E-02    1.72       1.8  T
   7    -31.7740745 -0.848203E-06  0.741E-03    1.72       3.0  T
   8    -31.7740749 -0.410995E-06  0.467E-03    1.72       4.8  T
   9    -31.7740751 -0.189088E-06  0.189E-03    1.72      11.8  T
  10    -31.7740751 -0.175987E-07  0.105E-03    1.72      21.3  T
  11    -31.7740752 -0.621349E-08  0.445E-04    1.72      50.3  T
  12    -31.7740752 -0.940148E-09  0.220E-04    1.72     101.5  T
     SCC iter.                  ...        0 min,  0.011 sec
     gradient                   ...        0 min,  0.003 sec
 * total energy  :   -31.4534360 Eh     change        0.2189721E-02 Eh
   gradient norm :     0.0684621 Eh/α   predicted    -0.2962849E-02 (-235.31%)
   displ. norm   :     0.2643066 α      lambda       -0.7725225E-02
   maximum displ.:     0.1065914 α      in ANC's #8, #17, #6, ...

........................................................................
.............................. CYCLE   37 ..............................
........................................................................

 iter      E             dE          RMSdq      gap      omega  full diag
   1    -31.7606019 -0.317606E+02  0.292E-01    1.63       0.0  T
   2    -31.7607781 -0.176236E-03  0.156E-01    1.59       1.0  T
   3    -31.7607848 -0.673647E-05  0.881E-02    1.61       1.0  T
   4    -31.7607844  0.393058E-06  0.398E-02    1.59       1.0  T
   5    -31.7607972 -0.127801E-04  0.134E-02    1.60       1.7  T
   6    -31.7607978 -0.571936E-06  0.884E-03    1.60       2.5  T
   7    -31.7607982 -0.421408E-06  0.565E-03    1.60       4.0  T
   8    -31.7607984 -0.238577E-06  0.347E-03    1.60       6.4  T
   9    -31.7607986 -0.110171E-06  0.150E-03    1.60      14.9  T
  10    -31.7607986 -0.117406E-07  0.753E-04    1.60      29.7  T
  11    -31.7607986 -0.316913E-08  0.367E-04    1.60      61.0  T
     SCC iter.                  ...        0 min,  0.012 sec
     gradient                   ...        0 min,  0.003 sec
 * total energy  :   -31.4571423 Eh     change       -0.3706307E-02 Eh
   gradient norm :     0.0119483 Eh/α   predicted    -0.4132449E-02 (  11.50%)
   displ. norm   :     0.1650216 α      lambda       -0.9520204E-03
   maximum displ.:     0.0964619 α      in ANC's #8, #14, #12, ...

........................................................................
.............................. CYCLE   38 ..............................
........................................................................

 iter      E             dE          RMSdq      gap      omega  full diag
   1    -31.7649713 -0.317650E+02  0.172E-01    1.58       0.0  T
   2    -31.7650070 -0.357455E-04  0.815E-02    1.57       1.0  T
   3    -31.7650070  0.278805E-07  0.394E-02    1.58       1.0  T
   4    -31.7650089 -0.196877E-05  0.173E-02    1.57       1.3  T
   5    -31.7650109 -0.193970E-05  0.606E-03    1.57       3.7  T
   6    -31.7650110 -0.162381E-06  0.218E-03    1.57      10.3  T
   7    -31.7650111 -0.144302E-07  0.139E-03    1.57      16.1  T
   8    -31.7650111 -0.718619E-08  0.837E-04    1.57      26.7  T
   9    -31.7650111 -0.396626E-08  0.422E-04    1.57      53.0  T
     SCC iter.                  ...        0 min,  0.009 sec
     gradient                   ...        0 min,  0.003 sec
 * total energy  :   -31.4573220 Eh     change       -0.1797342E-03 Eh
   gradient norm :     0.0192397 Eh/α   predicted    -0.4889785E-03 ( 172.06%)
   displ. norm   :     0.1449707 α      lambda       -0.7282717E-03
   maximum displ.:     0.0871170 α      in ANC's #8, #12, #10, ...

........................................................................
.............................. CYCLE   39 ..............................
........................................................................

 iter      E             dE          RMSdq      gap      omega  full diag
   1    -31.7615976 -0.317616E+02  0.104E-01    1.60       0.0  T
   2    -31.7616020 -0.446227E-05  0.537E-02    1.59       1.0  T
   3    -31.7616000  0.205610E-05  0.222E-02    1.60       1.0  T
   4    -31.7616030 -0.306472E-05  0.936E-03    1.60       2.4  T
   5    -31.7616033 -0.263126E-06  0.186E-03    1.60      12.0  T
   6    -31.7616033 -0.860144E-08  0.107E-03    1.60      21.0  T
   7    -31.7616033 -0.353664E-08  0.668E-04    1.60      33.5  T
   8    -31.7616033 -0.210631E-08  0.360E-04    1.60      62.1  T
     SCC iter.                  ...        0 min,  0.007 sec
     gradient                   ...        0 min,  0.004 sec
 * total energy  :   -31.4578644 Eh     change       -0.5423573E-03 Eh
   gradient norm :     0.0123896 Eh/α   predicted    -0.3717901E-03 ( -31.45%)
   displ. norm   :     0.2703146 α      lambda       -0.1030758E-02
   maximum displ.:     0.1067444 α      in ANC's #12, #10, #11, ...

........................................................................
.............................. CYCLE   40 ..............................
........................................................................

 iter      E             dE          RMSdq      gap      omega  full diag
   1    -31.7602306 -0.317602E+02  0.222E-01    1.63       0.0  T
   2    -31.7602443 -0.136799E-04  0.106E-01    1.62       1.0  T
   3    -31.7602420  0.229919E-05  0.350E-02    1.63       1.0  T
   4    -31.7602462 -0.415367E-05  0.178E-02    1.63       1.3  T
   5    -31.7602474 -0.121492E-05  0.313E-03    1.63       7.1  T
   6    -31.7602475 -0.619858E-07  0.193E-03    1.63      11.6  T
   7    -31.7602475 -0.139546E-07  0.142E-03    1.63      15.7  T
   8    -31.7602475 -0.159186E-07  0.844E-04    1.63      26.5  T
   9    -31.7602475 -0.670959E-08  0.407E-04    1.63      55.0  T
     SCC iter.                  ...        0 min,  0.008 sec
     gradient                   ...        0 min,  0.003 sec
 * total energy  :   -31.4586362 Eh     change       -0.7718212E-03 Eh
   gradient norm :     0.0109845 Eh/α   predicted    -0.5530411E-03 ( -28.35%)
   displ. norm   :     0.4997737 α      lambda       -0.1502742E-02
   maximum displ.:     0.2222689 α      in ANC's #11, #12, #7, ...

........................................................................
.............................. CYCLE   41 ..............................
........................................................................

 iter      E             dE          RMSdq      gap      omega  full diag
   1    -31.7576786 -0.317577E+02  0.445E-01    1.65       0.0  T
   2    -31.7577717 -0.930850E-04  0.211E-01    1.63       1.0  T
   3    -31.7577710  0.711851E-06  0.675E-02    1.64       1.0  T
   4    -31.7577776 -0.668100E-05  0.318E-02    1.63       1.0  T
   5    -31.7577815 -0.384346E-05  0.108E-02    1.64       2.1  T
   6    -31.7577823 -0.827062E-06  0.201E-03    1.64      11.1  T
   7    -31.7577823 -0.992537E-08  0.129E-03    1.64      17.4  T
   8    -31.7577823 -0.600731E-08  0.784E-04    1.64      28.5  T
   9    -31.7577823 -0.347756E-08  0.464E-04    1.64      48.2  T
     SCC iter.                  ...        0 min,  0.008 sec
     gradient                   ...        0 min,  0.003 sec
 * total energy  :   -31.4597303 Eh     change       -0.1094121E-02 Eh
   gradient norm :     0.0197819 Eh/α   predicted    -0.9390390E-03 ( -14.17%)
   displ. norm   :     0.5290098 α      lambda       -0.1915748E-02
   maximum displ.:     0.2404589 α      in ANC's #11, #12, #7, ...

........................................................................
.............................. CYCLE   42 ..............................
........................................................................

 iter      E             dE          RMSdq      gap      omega  full diag
   1    -31.7595619 -0.317596E+02  0.441E-01    1.65       0.0  T
   2    -31.7596545 -0.926827E-04  0.218E-01    1.63       1.0  T
   3    -31.7596578 -0.321487E-05  0.635E-02    1.64       1.0  T
   4    -31.7596603 -0.253909E-05  0.279E-02    1.63       1.0  T
   5    -31.7596624 -0.209949E-05  0.118E-02    1.64       1.9  T
   6    -31.7596635 -0.113844E-05  0.294E-03    1.64       7.6  T
   7    -31.7596636 -0.256006E-07  0.201E-03    1.64      11.1  T
   8    -31.7596636 -0.221131E-07  0.119E-03    1.64      18.7  T
   9    -31.7596636 -0.984657E-08  0.706E-04    1.64      31.7  T
  10    -31.7596636 -0.345948E-08  0.301E-04    1.64      74.3  T
     SCC iter.                  ...        0 min,  0.009 sec
     gradient                   ...        0 min,  0.003 sec
 * total energy  :   -31.4608656 Eh     change       -0.1135255E-02 Eh
   gradient norm :     0.0217100 Eh/α   predicted    -0.1225932E-02 (   7.99%)
   displ. norm   :     0.2696436 α      lambda       -0.1456288E-02
   maximum displ.:     0.1399244 α      in ANC's #10, #11, #7, ...
 * RMSD in coord.:     1.7726357 α      energy gain  -0.7338362E-01 Eh

generating ANC from exact Hessian ...
Using Lindh-Hessian (1995)
 Shifting diagonal of input Hessian by    1.0114918086454762E-002
 Lowest  eigenvalues of input Hessian
    0.010000    0.010057    0.000000    0.000000    0.000000    0.000000
    0.000000    0.000000    0.010297    0.010317    0.010382    0.010996
    0.011731    0.012054    0.012345    0.013353    0.014941    0.017682
 Highest eigenvalues
    1.196255    1.258171    1.477963    1.861161    2.044504    2.318493


........................................................................
.............................. CYCLE   43 ..............................
........................................................................

 iter      E             dE          RMSdq      gap      omega  full diag
   1    -31.7724272 -0.317724E+02  0.186E-01    1.71       0.0  T
   2    -31.7724471 -0.199006E-04  0.106E-01    1.71       1.0  T
   3    -31.7724469  0.156980E-06  0.251E-02    1.71       1.0  T
   4    -31.7724479 -0.957430E-06  0.114E-02    1.71       2.0  T
   5    -31.7724488 -0.901611E-06  0.417E-03    1.71       5.4  T
   6    -31.7724488 -0.436636E-07  0.173E-03    1.71      13.0  T
   7    -31.7724488 -0.608917E-08  0.945E-04    1.71      23.7  T
   8    -31.7724488 -0.269131E-08  0.497E-04    1.71      45.0  T
     SCC iter.                  ...        0 min,  0.007 sec
     gradient                   ...        0 min,  0.003 sec
 * total energy  :   -31.4615633 Eh     change       -0.6977259E-03 Eh
   gradient norm :     0.0138217 Eh/α   predicted     0.0000000E+00 (-100.00%)
   displ. norm   :     0.1643975 α      lambda       -0.9393811E-03
   maximum displ.:     0.0889013 α      in ANC's #11, #10, #13, ...

........................................................................
.............................. CYCLE   44 ..............................
........................................................................

 iter      E             dE          RMSdq      gap      omega  full diag
   1    -31.7697495 -0.317697E+02  0.157E-01    1.71       0.0  T
   2    -31.7697543 -0.474757E-05  0.863E-02    1.71       1.0  T
   3    -31.7697544 -0.110521E-06  0.171E-02    1.71       1.3  T
   4    -31.7697546 -0.191530E-06  0.984E-03    1.71       2.3  T
   5    -31.7697552 -0.664101E-06  0.211E-03    1.71      10.6  T
   6    -31.7697553 -0.128274E-07  0.152E-03    1.71      14.7  T
   7    -31.7697553 -0.933225E-08  0.107E-03    1.71      20.9  T
   8    -31.7697553 -0.858023E-08  0.640E-04    1.71      34.9  T
   9    -31.7697553 -0.361796E-08  0.299E-04    1.71      74.7  T
     SCC iter.                  ...        0 min,  0.008 sec
     gradient                   ...        0 min,  0.003 sec
 * total energy  :   -31.4621552 Eh     change       -0.5918733E-03 Eh
   gradient norm :     0.0053542 Eh/α   predicted    -0.4823875E-03 ( -18.50%)
   displ. norm   :     0.2450400 α      lambda       -0.5770565E-03
   maximum displ.:     0.1777971 α      in ANC's #11, #10, #9, ...

........................................................................
.............................. CYCLE   45 ..............................
........................................................................

 iter      E             dE          RMSdq      gap      omega  full diag
   1    -31.7670179 -0.317670E+02  0.128E-01    1.71       0.0  T
   2    -31.7670208 -0.291871E-05  0.726E-02    1.71       1.0  T
   3    -31.7670204  0.416850E-06  0.142E-02    1.71       1.6  T
   4    -31.7670214 -0.935452E-06  0.804E-03    1.71       2.8  T
   5    -31.7670217 -0.340255E-06  0.300E-03    1.71       7.5  T
   6    -31.7670217 -0.270181E-07  0.226E-03    1.71       9.9  T
   7    -31.7670217 -0.316537E-07  0.118E-03    1.71      19.0  T
   8    -31.7670218 -0.107405E-07  0.611E-04    1.71      36.6  T
   9    -31.7670218 -0.217606E-08  0.322E-04    1.71      69.5  T
     SCC iter.                  ...        0 min,  0.009 sec
     gradient                   ...        0 min,  0.003 sec
 * total energy  :   -31.4625892 Eh     change       -0.4340017E-03 Eh
   gradient norm :     0.0061976 Eh/α   predicted    -0.3058681E-03 ( -29.52%)
   displ. norm   :     0.3305335 α      lambda       -0.5355430E-03
   maximum displ.:     0.2527415 α      in ANC's #11, #10, #9, ...

........................................................................
.............................. CYCLE   46 ..............................
........................................................................

 iter      E             dE          RMSdq      gap      omega  full diag
   1    -31.7648036 -0.317648E+02  0.160E-01    1.70       0.0  T
   2    -31.7648083 -0.461614E-05  0.920E-02    1.70       1.0  T
   3    -31.7648075  0.739131E-06  0.161E-02    1.70       1.4  T
   4    -31.7648091 -0.161907E-05  0.869E-03    1.70       2.6  T
   5    -31.7648095 -0.357770E-06  0.414E-03    1.70       5.4  T
   6    -31.7648096 -0.541341E-07  0.294E-03    1.70       7.6  T
   7    -31.7648096 -0.456507E-07  0.149E-03    1.70      15.0  T
   8    -31.7648096 -0.153137E-07  0.703E-04    1.70      31.8  T
   9    -31.7648096 -0.231252E-08  0.347E-04    1.70      64.5  T
     SCC iter.                  ...        0 min,  0.009 sec
     gradient                   ...        0 min,  0.003 sec
 * total energy  :   -31.4629647 Eh     change       -0.3754904E-03 Eh
   gradient norm :     0.0099187 Eh/α   predicted    -0.2970272E-03 ( -20.90%)
   displ. norm   :     0.2128344 α      lambda       -0.3258361E-03
   maximum displ.:     0.1586010 α      in ANC's #11, #10, #9, ...

........................................................................
.............................. CYCLE   47 ..............................
........................................................................

 iter      E             dE          RMSdq      gap      omega  full diag
   1    -31.7663459 -0.317663E+02  0.959E-02    1.70       0.0  T
   2    -31.7663486 -0.264440E-05  0.556E-02    1.70       1.0  T
   3    -31.7663488 -0.254498E-06  0.770E-03    1.70       2.9  T
   4    -31.7663490 -0.197362E-06  0.365E-03    1.70       6.1  T
   5    -31.7663491 -0.406319E-07  0.270E-03    1.70       8.3  T
   6    -31.7663491 -0.277902E-07  0.181E-03    1.70      12.4  T
   7    -31.7663491 -0.186696E-07  0.102E-03    1.70      21.9  T
   8    -31.7663491 -0.593267E-08  0.524E-04    1.70      42.7  T
   9    -31.7663491 -0.136365E-08  0.177E-04    1.70     126.3  T
     SCC iter.                  ...        0 min,  0.008 sec
     gradient                   ...        0 min,  0.003 sec
 * total energy  :   -31.4632224 Eh     change       -0.2576830E-03 Eh
   gradient norm :     0.0086307 Eh/α   predicted    -0.1703291E-03 ( -33.90%)
   displ. norm   :     0.2812965 α      lambda       -0.3701925E-03
   maximum displ.:     0.1967684 α      in ANC's #11, #10, #9, ...

........................................................................
.............................. CYCLE   48 ..............................
........................................................................

 iter      E             dE          RMSdq      gap      omega  full diag
   1    -31.7693179 -0.317693E+02  0.131E-01    1.71       0.0  T
   2    -31.7693230 -0.510675E-05  0.757E-02    1.71       1.0  T
   3    -31.7693235 -0.562684E-06  0.115E-02    1.71       1.9  T
   4    -31.7693238 -0.287913E-06  0.553E-03    1.71       4.0  T
   5    -31.7693240 -0.148540E-06  0.398E-03    1.71       5.6  T
   6    -31.7693240 -0.556572E-07  0.276E-03    1.71       8.1  T
   7    -31.7693241 -0.436072E-07  0.150E-03    1.71      14.9  T
   8    -31.7693241 -0.131984E-07  0.659E-04    1.71      33.9  T
   9    -31.7693241 -0.218845E-08  0.282E-04    1.71      79.2  T
     SCC iter.                  ...        0 min,  0.008 sec
     gradient                   ...        0 min,  0.003 sec
 * total energy  :   -31.4634600 Eh     change       -0.2375998E-03 Eh
   gradient norm :     0.0052671 Eh/α   predicted    -0.1997430E-03 ( -15.93%)
   displ. norm   :     0.1739674 α      lambda       -0.1040661E-03
   maximum displ.:     0.0960360 α      in ANC's #11, #10, #9, ...

........................................................................
.............................. CYCLE   49 ..............................
........................................................................

 iter      E             dE          RMSdq      gap      omega  full diag
   1    -31.7700063 -0.317700E+02  0.769E-02    1.71       0.0  T
   2    -31.7700070 -0.718953E-06  0.450E-02    1.71       1.0  T
   3    -31.7700071 -0.141702E-06  0.523E-03    1.71       4.3  T
   4    -31.7700072 -0.105162E-06  0.350E-03    1.71       6.4  T
   5    -31.7700073 -0.559644E-07  0.218E-03    1.71      10.2  T
   6    -31.7700073 -0.230566E-07  0.126E-03    1.71      17.7  T
   7    -31.7700073 -0.884361E-08  0.704E-04    1.71      31.7  T
   8    -31.7700073 -0.285939E-08  0.252E-04    1.71      88.7  T
     SCC iter.                  ...        0 min,  0.007 sec
     gradient                   ...        0 min,  0.004 sec
 * total energy  :   -31.4635336 Eh     change       -0.7367147E-04 Eh
   gradient norm :     0.0034651 Eh/α   predicted    -0.5360858E-04 ( -27.23%)
   displ. norm   :     0.1514052 α      lambda       -0.7203998E-04
   maximum displ.:     0.0783719 α      in ANC's #10, #9, #11, ...

........................................................................
.............................. CYCLE   50 ..............................
........................................................................

 iter      E             dE          RMSdq      gap      omega  full diag
   1    -31.7706393 -0.317706E+02  0.720E-02    1.72       0.0  T
   2    -31.7706399 -0.584381E-06  0.420E-02    1.72       1.0  T
   3    -31.7706398  0.860643E-07  0.679E-03    1.72       3.3  T
   4    -31.7706401 -0.304288E-06  0.359E-03    1.72       6.2  T
   5    -31.7706402 -0.653207E-07  0.196E-03    1.72      11.4  T
   6    -31.7706402 -0.175831E-07  0.122E-03    1.72      18.3  T
   7    -31.7706402 -0.869768E-08  0.619E-04    1.72      36.1  T
   8    -31.7706402 -0.197814E-08  0.268E-04    1.72      83.3  T
     SCC iter.                  ...        0 min,  0.007 sec
     gradient                   ...        0 min,  0.004 sec
 * total energy  :   -31.4635840 Eh     change       -0.5035274E-04 Eh
   gradient norm :     0.0022723 Eh/α   predicted    -0.3684949E-04 ( -26.82%)
   displ. norm   :     0.1691248 α      lambda       -0.5592474E-04
   maximum displ.:     0.1041590 α      in ANC's #10, #9, #12, ...

........................................................................
.............................. CYCLE   51 ..............................
........................................................................

 iter      E             dE          RMSdq      gap      omega  full diag
   1    -31.7699632 -0.317700E+02  0.853E-02    1.72       0.0  T
   2    -31.7699638 -0.567002E-06  0.497E-02    1.72       1.0  T
   3    -31.7699638 -0.491464E-07  0.664E-03    1.72       3.4  T
   4    -31.7699641 -0.250807E-06  0.372E-03    1.72       6.0  T
   5    -31.7699641 -0.571705E-07  0.200E-03    1.72      11.2  T
   6    -31.7699641 -0.168205E-07  0.135E-03    1.72      16.6  T
   7    -31.7699641 -0.117913E-07  0.639E-04    1.72      35.0  T
   8    -31.7699641 -0.214385E-08  0.293E-04    1.72      76.2  T
     SCC iter.                  ...        0 min,  0.007 sec
     gradient                   ...        0 min,  0.003 sec
 * total energy  :   -31.4636237 Eh     change       -0.3966907E-04 Eh
   gradient norm :     0.0026992 Eh/α   predicted    -0.2876835E-04 ( -27.48%)
   displ. norm   :     0.1715390 α      lambda       -0.6316179E-04
   maximum displ.:     0.0971985 α      in ANC's #10, #12, #9, ...

........................................................................
.............................. CYCLE   52 ..............................
........................................................................

 iter      E             dE          RMSdq      gap      omega  full diag
   1    -31.7708356 -0.317708E+02  0.101E-01    1.73       0.0  T
   2    -31.7708366 -0.101204E-05  0.586E-02    1.73       1.0  T
   3    -31.7708369 -0.287163E-06  0.697E-03    1.73       3.2  T
   4    -31.7708370 -0.129120E-06  0.426E-03    1.73       5.2  T
   5    -31.7708371 -0.765703E-07  0.262E-03    1.73       8.5  T
   6    -31.7708371 -0.268956E-07  0.196E-03    1.73      11.4  T
   7    -31.7708371 -0.270394E-07  0.105E-03    1.73      21.4  T
   8    -31.7708371 -0.809435E-08  0.574E-04    1.73      38.9  T
   9    -31.7708371 -0.189080E-08  0.260E-04    1.73      86.1  T
     SCC iter.                  ...        0 min,  0.008 sec
     gradient                   ...        0 min,  0.004 sec
 * total energy  :   -31.4636626 Eh     change       -0.3895730E-04 Eh
   gradient norm :     0.0035894 Eh/α   predicted    -0.3251493E-04 ( -16.54%)
   displ. norm   :     0.1354844 α      lambda       -0.3801099E-04
   maximum displ.:     0.0688798 α      in ANC's #10, #9, #12, ...

........................................................................
.............................. CYCLE   53 ..............................
........................................................................

 iter      E             dE          RMSdq      gap      omega  full diag
   1    -31.7696049 -0.317696E+02  0.832E-02    1.72       0.0  T
   2    -31.7696056 -0.727810E-06  0.473E-02    1.72       1.0  T
   3    -31.7696058 -0.198421E-06  0.661E-03    1.72       3.4  T
   4    -31.7696059 -0.470814E-07  0.335E-03    1.72       6.7  T
   5    -31.7696059 -0.613419E-07  0.187E-03    1.72      11.9  T
   6    -31.7696060 -0.119086E-07  0.145E-03    1.72      15.4  T
   7    -31.7696060 -0.145923E-07  0.766E-04    1.72      29.2  T
   8    -31.7696060 -0.444014E-08  0.415E-04    1.72      53.9  T
     SCC iter.                  ...        0 min,  0.009 sec
     gradient                   ...        0 min,  0.004 sec
 * total energy  :   -31.4636837 Eh     change       -0.2112038E-04 Eh
   gradient norm :     0.0035473 Eh/α   predicted    -0.1935517E-04 (  -8.36%)
   displ. norm   :     0.0799267 α      lambda       -0.3939699E-04
   maximum displ.:     0.0603191 α      in ANC's #11, #12, #4, ...

........................................................................
.............................. CYCLE   54 ..............................
........................................................................

 iter      E             dE          RMSdq      gap      omega  full diag
   1    -31.7705100 -0.317705E+02  0.520E-02    1.73       0.0  T
   2    -31.7705111 -0.111549E-05  0.273E-02    1.73       1.0  T
   3    -31.7705111 -0.299963E-07  0.694E-03    1.73       3.2  T
   4    -31.7705112 -0.521134E-07  0.316E-03    1.72       7.1  T
   5    -31.7705112 -0.474858E-07  0.110E-03    1.73      20.2  T
   6    -31.7705112 -0.537633E-08  0.573E-04    1.73      39.0  T
   7    -31.7705112 -0.132788E-08  0.405E-04    1.73      55.2  T
     SCC iter.                  ...        0 min,  0.007 sec
     gradient                   ...        0 min,  0.003 sec
 * total energy  :   -31.4637064 Eh     change       -0.2267652E-04 Eh
   gradient norm :     0.0021087 Eh/α   predicted    -0.1982668E-04 ( -12.57%)
   displ. norm   :     0.0483979 α      lambda       -0.1684565E-04
   maximum displ.:     0.0323479 α      in ANC's #11, #4, #10, ...

........................................................................
.............................. CYCLE   55 ..............................
........................................................................

 iter      E             dE          RMSdq      gap      omega  full diag
   1    -31.7705706 -0.317706E+02  0.214E-02    1.72       0.0  T
   2    -31.7705707 -0.118534E-06  0.112E-02    1.72       2.0  T
   3    -31.7705707  0.231010E-08  0.321E-03    1.72       7.0  T
   4    -31.7705707 -0.319019E-07  0.187E-03    1.72      12.0  T
   5    -31.7705708 -0.148005E-07  0.796E-04    1.72      28.1  T
   6    -31.7705708 -0.269758E-08  0.601E-04    1.72      37.2  T
     SCC iter.                  ...        0 min,  0.006 sec
     gradient                   ...        0 min,  0.003 sec
 * total energy  :   -31.4637174 Eh     change       -0.1096989E-04 Eh
   gradient norm :     0.0014615 Eh/α   predicted    -0.8449070E-05 ( -22.98%)
   displ. norm   :     0.0639976 α      lambda       -0.1062972E-04
   maximum displ.:     0.0372383 α      in ANC's #4, #13, #11, ...

........................................................................
.............................. CYCLE   56 ..............................
........................................................................

 iter      E             dE          RMSdq      gap      omega  full diag
   1    -31.7701431 -0.317701E+02  0.390E-02    1.72       0.0  T
   2    -31.7701437 -0.540976E-06  0.191E-02    1.72       1.2  T
   3    -31.7701437 -0.625282E-07  0.477E-03    1.72       4.7  T
   4    -31.7701438 -0.152805E-07  0.215E-03    1.72      10.4  T
   5    -31.7701438 -0.213808E-07  0.987E-04    1.72      22.7  T
   6    -31.7701438 -0.361257E-08  0.792E-04    1.72      28.2  T
     SCC iter.                  ...        0 min,  0.005 sec
     gradient                   ...        0 min,  0.003 sec
 * total energy  :   -31.4637264 Eh     change       -0.8979025E-05 Eh
   gradient norm :     0.0016227 Eh/α   predicted    -0.5326165E-05 ( -40.68%)
   displ. norm   :     0.0581421 α      lambda       -0.8344728E-05
   maximum displ.:     0.0340316 α      in ANC's #4, #13, #9, ...

........................................................................
.............................. CYCLE   57 ..............................
........................................................................

 iter      E             dE          RMSdq      gap      omega  full diag
   1    -31.7699370 -0.317699E+02  0.334E-02    1.72       0.0  T
   2    -31.7699372 -0.261904E-06  0.167E-02    1.72       1.3  T
   3    -31.7699373 -0.392281E-07  0.379E-03    1.72       5.9  T
   4    -31.7699373  0.140042E-08  0.145E-03    1.72      15.4  T
   5    -31.7699373 -0.176147E-07  0.619E-04    1.72      36.1  T
   6    -31.7699373 -0.105274E-08  0.498E-04    1.72      44.9  T
     SCC iter.                  ...        0 min,  0.005 sec
     gradient                   ...        0 min,  0.003 sec
 * total energy  :   -31.4637350 Eh     change       -0.8636763E-05 Eh
   gradient norm :     0.0018343 Eh/α   predicted    -0.4181234E-05 ( -51.59%)
   displ. norm   :     0.1015814 α      lambda       -0.1459180E-04
   maximum displ.:     0.0666390 α      in ANC's #4, #13, #3, ...

........................................................................
.............................. CYCLE   58 ..............................
........................................................................

 iter      E             dE          RMSdq      gap      omega  full diag
   1    -31.7702297 -0.317702E+02  0.526E-02    1.72       0.0  T
   2    -31.7702307 -0.975671E-06  0.261E-02    1.72       1.0  T
   3    -31.7702307 -0.668593E-07  0.643E-03    1.72       3.5  T
   4    -31.7702307 -0.209388E-08  0.312E-03    1.72       7.2  T
   5    -31.7702308 -0.500006E-07  0.987E-04    1.72      22.6  T
   6    -31.7702308 -0.503767E-08  0.510E-04    1.72      43.9  T
     SCC iter.                  ...        0 min,  0.005 sec
     gradient                   ...        0 min,  0.003 sec
 * total energy  :   -31.4637482 Eh     change       -0.1316817E-04 Eh
   gradient norm :     0.0019509 Eh/α   predicted    -0.7331468E-05 ( -44.32%)
   displ. norm   :     0.1167866 α      lambda       -0.1064207E-04
   maximum displ.:     0.0700700 α      in ANC's #4, #13, #3, ...

........................................................................
.............................. CYCLE   59 ..............................
........................................................................

 iter      E             dE          RMSdq      gap      omega  full diag
   1    -31.7700559 -0.317701E+02  0.652E-02    1.72       0.0  T
   2    -31.7700568 -0.844748E-06  0.336E-02    1.72       1.0  T
   3    -31.7700569 -0.166244E-06  0.745E-03    1.72       3.0  T
   4    -31.7700569  0.671996E-08  0.314E-03    1.72       7.1  T
   5    -31.7700570 -0.678178E-07  0.154E-03    1.72      14.5  T
   6    -31.7700570 -0.770421E-08  0.122E-03    1.72      18.3  T
   7    -31.7700570 -0.108032E-07  0.641E-04    1.72      34.9  T
   8    -31.7700570 -0.300349E-08  0.336E-04    1.72      66.6  T
     SCC iter.                  ...        0 min,  0.007 sec
     gradient                   ...        0 min,  0.003 sec
 * total energy  :   -31.4637591 Eh     change       -0.1096152E-04 Eh
   gradient norm :     0.0015027 Eh/α   predicted    -0.5357063E-05 ( -51.13%)
   displ. norm   :     0.0763214 α      lambda       -0.9559256E-05
   maximum displ.:     0.0601497 α      in ANC's #4, #13, #3, ...

........................................................................
.............................. CYCLE   60 ..............................
........................................................................

 iter      E             dE          RMSdq      gap      omega  full diag
   1    -31.7707160 -0.317707E+02  0.267E-02    1.73       0.0  T
   2    -31.7707162 -0.235376E-06  0.140E-02    1.73       1.6  T
   3    -31.7707162 -0.143242E-07  0.308E-03    1.73       7.3  T
   4    -31.7707162 -0.806320E-08  0.149E-03    1.73      15.0  T
   5    -31.7707162 -0.768410E-08  0.603E-04    1.73      37.1  T
   6    -31.7707162 -0.150326E-08  0.294E-04    1.73      76.1  T
     SCC iter.                  ...        0 min,  0.006 sec
     gradient                   ...        0 min,  0.003 sec
 * total energy  :   -31.4637698 Eh     change       -0.1072792E-04 Eh
   gradient norm :     0.0011496 Eh/α   predicted    -0.4794369E-05 ( -55.31%)
   displ. norm   :     0.0945853 α      lambda       -0.1008508E-04
   maximum displ.:     0.0685573 α      in ANC's #4, #7, #13, ...

........................................................................
.............................. CYCLE   61 ..............................
........................................................................

 iter      E             dE          RMSdq      gap      omega  full diag
   1    -31.7706625 -0.317707E+02  0.335E-02    1.73       0.0  T
   2    -31.7706627 -0.155018E-06  0.191E-02    1.73       1.2  T
   3    -31.7706627 -0.377561E-07  0.343E-03    1.73       6.5  T
   4    -31.7706628 -0.213304E-07  0.216E-03    1.73      10.4  T
   5    -31.7706628 -0.246871E-07  0.128E-03    1.73      17.5  T
   6    -31.7706628 -0.687392E-08  0.945E-04    1.73      23.7  T
   7    -31.7706628 -0.735621E-08  0.455E-04    1.73      49.1  T
     SCC iter.                  ...        0 min,  0.007 sec
     gradient                   ...        0 min,  0.003 sec
 * total energy  :   -31.4637819 Eh     change       -0.1201478E-04 Eh
   gradient norm :     0.0018185 Eh/α   predicted    -0.5064163E-05 ( -57.85%)
   displ. norm   :     0.1043857 α      lambda       -0.1324356E-04
   maximum displ.:     0.0817972 α      in ANC's #4, #7, #13, ...

........................................................................
.............................. CYCLE   62 ..............................
........................................................................

 iter      E             dE          RMSdq      gap      omega  full diag
   1    -31.7707344 -0.317707E+02  0.330E-02    1.73       0.0  T
   2    -31.7707346 -0.202132E-06  0.181E-02    1.73       1.2  T
   3    -31.7707346 -0.944934E-08  0.355E-03    1.73       6.3  T
   4    -31.7707347 -0.184574E-07  0.187E-03    1.73      12.0  T
   5    -31.7707347 -0.193678E-07  0.683E-04    1.73      32.7  T
   6    -31.7707347 -0.145291E-08  0.460E-04    1.73      48.6  T
     SCC iter.                  ...        0 min,  0.008 sec
     gradient                   ...        0 min,  0.003 sec
 * total energy  :   -31.4637991 Eh     change       -0.1718968E-04 Eh
   gradient norm :     0.0020764 Eh/α   predicted    -0.6658347E-05 ( -61.27%)
   displ. norm   :     0.1284115 α      lambda       -0.2461057E-04
   maximum displ.:     0.0989321 α      in ANC's #4, #7, #14, ...

........................................................................
.............................. CYCLE   63 ..............................
........................................................................

 iter      E             dE          RMSdq      gap      omega  full diag
   1    -31.7705415 -0.317705E+02  0.428E-02    1.73       0.0  T
   2    -31.7705418 -0.313691E-06  0.234E-02    1.73       1.0  T
   3    -31.7705418 -0.208928E-07  0.491E-03    1.73       4.6  T
   4    -31.7705418 -0.392665E-07  0.270E-03    1.73       8.3  T
   5    -31.7705419 -0.393368E-07  0.997E-04    1.73      22.4  T
   6    -31.7705419 -0.323141E-08  0.760E-04    1.73      29.4  T
     SCC iter.                  ...        0 min,  0.006 sec
     gradient                   ...        0 min,  0.004 sec
 * total energy  :   -31.4638227 Eh     change       -0.2365809E-04 Eh
   gradient norm :     0.0022531 Eh/α   predicted    -0.1250900E-04 ( -47.13%)
   displ. norm   :     0.2695458 α      lambda       -0.5410007E-04
   maximum displ.:     0.2067171 α      in ANC's #4, #7, #14, ...

........................................................................
.............................. CYCLE   64 ..............................
........................................................................

 iter      E             dE          RMSdq      gap      omega  full diag
   1    -31.7694721 -0.317695E+02  0.926E-02    1.73       0.0  T
   2    -31.7694736 -0.154741E-05  0.502E-02    1.72       1.0  T
   3    -31.7694738 -0.211372E-06  0.103E-02    1.73       2.2  T
   4    -31.7694739 -0.754193E-07  0.551E-03    1.72       4.1  T
   5    -31.7694741 -0.174356E-06  0.220E-03    1.72      10.2  T
   6    -31.7694741 -0.164208E-07  0.168E-03    1.72      13.3  T
   7    -31.7694741 -0.191472E-07  0.975E-04    1.72      22.9  T
   8    -31.7694741 -0.764369E-08  0.476E-04    1.72      46.9  T
     SCC iter.                  ...        0 min,  0.007 sec
     gradient                   ...        0 min,  0.003 sec
 * total energy  :   -31.4638703 Eh     change       -0.4757920E-04 Eh
   gradient norm :     0.0026682 Eh/α   predicted    -0.2901962E-04 ( -39.01%)
   displ. norm   :     0.3195637 α      lambda       -0.6167164E-04
   maximum displ.:     0.2503429 α      in ANC's #4, #7, #14, ...

........................................................................
.............................. CYCLE   65 ..............................
........................................................................

 iter      E             dE          RMSdq      gap      omega  full diag
   1    -31.7679413 -0.317679E+02  0.115E-01    1.72       0.0  T
   2    -31.7679438 -0.254942E-05  0.622E-02    1.72       1.0  T
   3    -31.7679442 -0.429331E-06  0.127E-02    1.72       1.8  T
   4    -31.7679443 -0.776197E-07  0.661E-03    1.72       3.4  T
   5    -31.7679446 -0.240048E-06  0.298E-03    1.72       7.5  T
   6    -31.7679446 -0.317240E-07  0.229E-03    1.72       9.8  T
   7    -31.7679446 -0.380781E-07  0.124E-03    1.72      18.1  T
   8    -31.7679446 -0.119739E-07  0.644E-04    1.72      34.7  T
   9    -31.7679446 -0.332150E-08  0.248E-04    1.72      90.2  T
     SCC iter.                  ...        0 min,  0.008 sec
     gradient                   ...        0 min,  0.003 sec
 * total energy  :   -31.4639133 Eh     change       -0.4302417E-04 Eh
   gradient norm :     0.0042470 Eh/α   predicted    -0.3398743E-04 ( -21.00%)
   displ. norm   :     0.1549456 α      lambda       -0.4593925E-04
   maximum displ.:     0.1279791 α      in ANC's #4, #14, #7, ...

........................................................................
.............................. CYCLE   66 ..............................
........................................................................

 iter      E             dE          RMSdq      gap      omega  full diag
   1    -31.7684328 -0.317684E+02  0.623E-02    1.72       0.0  T
   2    -31.7684339 -0.109771E-05  0.333E-02    1.72       1.0  T
   3    -31.7684340 -0.890119E-07  0.748E-03    1.72       3.0  T
   4    -31.7684341 -0.771957E-07  0.385E-03    1.72       5.8  T
   5    -31.7684341 -0.552426E-07  0.168E-03    1.72      13.3  T
   6    -31.7684341 -0.121941E-07  0.121E-03    1.72      18.5  T
   7    -31.7684342 -0.792301E-08  0.766E-04    1.72      29.2  T
   8    -31.7684342 -0.503981E-08  0.377E-04    1.72      59.3  T
     SCC iter.                  ...        0 min,  0.007 sec
     gradient                   ...        0 min,  0.003 sec
 * total energy  :   -31.4639496 Eh     change       -0.3629193E-04 Eh
   gradient norm :     0.0036502 Eh/α   predicted    -0.2352575E-04 ( -35.18%)
   displ. norm   :     0.2082879 α      lambda       -0.6709437E-04
   maximum displ.:     0.1708997 α      in ANC's #4, #7, #3, ...
 * RMSD in coord.:     0.5465292 α      energy gain  -0.3084023E-02 Eh

generating ANC from exact Hessian ...
Using Lindh-Hessian (1995)
 Shifting diagonal of input Hessian by    1.0097211788058431E-002
 Lowest  eigenvalues of input Hessian
    0.010000    0.000000    0.000000    0.000000    0.000000    0.000000
    0.000000    0.010120    0.010281    0.010323    0.010372    0.010848
    0.011687    0.011967    0.012138    0.013511    0.015005    0.015620
 Highest eigenvalues
    1.175200    1.239280    1.451118    1.867254    2.022607    2.326050


........................................................................
.............................. CYCLE   67 ..............................
........................................................................

 iter      E             dE          RMSdq      gap      omega  full diag
   1    -31.7693327 -0.317693E+02  0.732E-02    1.71       0.0  T
   2    -31.7693345 -0.173182E-05  0.399E-02    1.71       1.0  T
   3    -31.7693346 -0.902872E-07  0.818E-03    1.71       2.7  T
   4    -31.7693347 -0.108887E-06  0.386E-03    1.71       5.8  T
   5    -31.7693347 -0.330246E-07  0.172E-03    1.71      13.0  T
   6    -31.7693347 -0.156988E-07  0.951E-04    1.71      23.5  T
   7    -31.7693347 -0.295142E-08  0.683E-04    1.71      32.8  T
     SCC iter.                  ...        0 min,  0.006 sec
     gradient                   ...        0 min,  0.003 sec
 * total energy  :   -31.4639920 Eh     change       -0.4243816E-04 Eh
   gradient norm :     0.0028463 Eh/α   predicted     0.0000000E+00 (-100.00%)
   displ. norm   :     0.0335295 α      lambda       -0.7923016E-05
   maximum displ.:     0.0205972 α      in ANC's #2, #9, #11, ...

........................................................................
.............................. CYCLE   68 ..............................
........................................................................

 iter      E             dE          RMSdq      gap      omega  full diag
   1    -31.7704462 -0.317704E+02  0.175E-02    1.72       0.0  T
   2    -31.7704463 -0.116577E-06  0.906E-03    1.72       2.5  T
   3    -31.7704463 -0.118923E-07  0.216E-03    1.72      10.3  T
   4    -31.7704463 -0.470584E-08  0.121E-03    1.72      18.5  T
   5    -31.7704463 -0.606107E-08  0.589E-04    1.72      38.0  T
   6    -31.7704463 -0.147166E-08  0.408E-04    1.72      54.8  T
     SCC iter.                  ...        0 min,  0.006 sec
     gradient                   ...        0 min,  0.003 sec
 * total energy  :   -31.4640130 Eh     change       -0.2097580E-04 Eh
   gradient norm :     0.0013186 Eh/α   predicted    -0.1508346E-04 ( -28.09%)
   displ. norm   :     0.0653041 α      lambda       -0.1850074E-04
   maximum displ.:     0.0453183 α      in ANC's #9, #13, #5, ...

........................................................................
.............................. CYCLE   69 ..............................
........................................................................

 iter      E             dE          RMSdq      gap      omega  full diag
   1    -31.7717125 -0.317717E+02  0.411E-02    1.72       0.0  T
   2    -31.7717129 -0.430320E-06  0.208E-02    1.72       1.1  T
   3    -31.7717130 -0.839497E-07  0.500E-03    1.72       4.5  T
   4    -31.7717130 -0.505253E-09  0.207E-03    1.72      10.8  T
   5    -31.7717130 -0.287463E-07  0.116E-03    1.72      19.2  T
   6    -31.7717130 -0.637733E-08  0.874E-04    1.72      25.6  T
   7    -31.7717130 -0.750606E-08  0.366E-04    1.72      61.1  T
     SCC iter.                  ...        0 min,  0.006 sec
     gradient                   ...        0 min,  0.003 sec
 * total energy  :   -31.4640261 Eh     change       -0.1307335E-04 Eh
   gradient norm :     0.0014129 Eh/α   predicted    -0.9271297E-05 ( -29.08%)
   displ. norm   :     0.0388551 α      lambda       -0.7556037E-05
   maximum displ.:     0.0287395 α      in ANC's #9, #5, #13, ...

........................................................................
.............................. CYCLE   70 ..............................
........................................................................

 iter      E             dE          RMSdq      gap      omega  full diag
   1    -31.7712451 -0.317712E+02  0.190E-02    1.72       0.0  T
   2    -31.7712452 -0.115049E-06  0.956E-03    1.72       2.3  T
   3    -31.7712452  0.152156E-09  0.279E-03    1.72       8.0  T
   4    -31.7712452 -0.155928E-07  0.147E-03    1.72      15.2  T
   5    -31.7712452 -0.759598E-08  0.404E-04    1.72      55.3  T
   6    -31.7712452 -0.882981E-09  0.278E-04    1.72      80.5  T
     SCC iter.                  ...        0 min,  0.006 sec
     gradient                   ...        0 min,  0.003 sec
 * total energy  :   -31.4640347 Eh     change       -0.8558578E-05 Eh
   gradient norm :     0.0009385 Eh/α   predicted    -0.3782132E-05 ( -55.81%)
   displ. norm   :     0.0600992 α      lambda       -0.8832452E-05
   maximum displ.:     0.0406158 α      in ANC's #9, #5, #13, ...

........................................................................
.............................. CYCLE   71 ..............................
........................................................................

 iter      E             dE          RMSdq      gap      omega  full diag
   1    -31.7705025 -0.317705E+02  0.290E-02    1.72       0.0  T
   2    -31.7705027 -0.212675E-06  0.151E-02    1.72       1.5  T
   3    -31.7705027 -0.159419E-07  0.370E-03    1.72       6.0  T
   4    -31.7705027 -0.624698E-08  0.188E-03    1.72      11.9  T
   5    -31.7705027 -0.177009E-07  0.484E-04    1.72      46.2  T
   6    -31.7705027 -0.115635E-08  0.299E-04    1.72      74.7  T
     SCC iter.                  ...        0 min,  0.007 sec
     gradient                   ...        0 min,  0.003 sec
 * total energy  :   -31.4640433 Eh     change       -0.8660722E-05 Eh
   gradient norm :     0.0008878 Eh/α   predicted    -0.4426393E-05 ( -48.89%)
   displ. norm   :     0.0546998 α      lambda       -0.4770985E-05
   maximum displ.:     0.0357142 α      in ANC's #9, #5, #3, ...

........................................................................
.............................. CYCLE   72 ..............................
........................................................................

 iter      E             dE          RMSdq      gap      omega  full diag
   1    -31.7704294 -0.317704E+02  0.218E-02    1.72       0.0  T
   2    -31.7704294 -0.699098E-07  0.118E-02    1.72       1.9  T
   3    -31.7704294 -0.157382E-07  0.234E-03    1.72       9.6  T
   4    -31.7704294 -0.990291E-09  0.591E-04    1.72      37.8  T
   5    -31.7704294 -0.244174E-08  0.374E-04    1.72      59.7  T
     SCC iter.                  ...        0 min,  0.005 sec
     gradient                   ...        0 min,  0.004 sec
 * total energy  :   -31.4640493 Eh     change       -0.5953281E-05 Eh
   gradient norm :     0.0008597 Eh/α   predicted    -0.2389216E-05 ( -59.87%)
   displ. norm   :     0.0874564 α      lambda       -0.7080197E-05
   maximum displ.:     0.0559029 α      in ANC's #5, #9, #3, ...

........................................................................
.............................. CYCLE   73 ..............................
........................................................................

 iter      E             dE          RMSdq      gap      omega  full diag
   1    -31.7705344 -0.317705E+02  0.321E-02    1.72       0.0  T
   2    -31.7705345 -0.119313E-06  0.182E-02    1.72       1.2  T
   3    -31.7705345 -0.115267E-07  0.319E-03    1.72       7.0  T
   4    -31.7705345 -0.101091E-07  0.165E-03    1.72      13.6  T
   5    -31.7705345 -0.140264E-07  0.606E-04    1.72      36.9  T
   6    -31.7705345 -0.133435E-08  0.424E-04    1.72      52.7  T
     SCC iter.                  ...        0 min,  0.005 sec
     gradient                   ...        0 min,  0.003 sec
 * total energy  :   -31.4640577 Eh     change       -0.8393259E-05 Eh
   gradient norm :     0.0007164 Eh/α   predicted    -0.3552689E-05 ( -57.67%)
   displ. norm   :     0.1098953 α      lambda       -0.7840750E-05
   maximum displ.:     0.0729007 α      in ANC's #5, #9, #3, ...

........................................................................
.............................. CYCLE   74 ..............................
........................................................................

 iter      E             dE          RMSdq      gap      omega  full diag
   1    -31.7706770 -0.317707E+02  0.396E-02    1.72       0.0  T
   2    -31.7706771 -0.978315E-07  0.232E-02    1.72       1.0  T
   3    -31.7706771 -0.160396E-07  0.248E-03    1.72       9.0  T
   4    -31.7706771 -0.221915E-07  0.153E-03    1.72      14.6  T
   5    -31.7706772 -0.941896E-08  0.770E-04    1.72      29.0  T
   6    -31.7706772 -0.229722E-08  0.504E-04    1.72      44.4  T
     SCC iter.                  ...        0 min,  0.006 sec
     gradient                   ...        0 min,  0.003 sec
 * total energy  :   -31.4640658 Eh     change       -0.8097495E-05 Eh
   gradient norm :     0.0008651 Eh/α   predicted    -0.3946144E-05 ( -51.27%)
   displ. norm   :     0.0861822 α      lambda       -0.5642219E-05
   maximum displ.:     0.0608926 α      in ANC's #5, #9, #3, ...

........................................................................
.............................. CYCLE   75 ..............................
........................................................................

 iter      E             dE          RMSdq      gap      omega  full diag
   1    -31.7708434 -0.317708E+02  0.315E-02    1.72       0.0  T
   2    -31.7708435 -0.555718E-07  0.185E-02    1.72       1.2  T
   3    -31.7708435 -0.460249E-08  0.177E-03    1.72      12.6  T
   4    -31.7708435 -0.188762E-07  0.104E-03    1.72      21.5  T
   5    -31.7708435 -0.447254E-08  0.598E-04    1.72      37.4  T
   6    -31.7708435 -0.146987E-08  0.349E-04    1.72      64.0  T
     SCC iter.                  ...        0 min,  0.005 sec
     gradient                   ...        0 min,  0.003 sec
 * total energy  :   -31.4640723 Eh     change       -0.6532994E-05 Eh
   gradient norm :     0.0006879 Eh/α   predicted    -0.2832646E-05 ( -56.64%)
   displ. norm   :     0.0718069 α      lambda       -0.4372404E-05
   maximum displ.:     0.0519220 α      in ANC's #5, #3, #9, ...

........................................................................
.............................. CYCLE   76 ..............................
........................................................................

 iter      E             dE          RMSdq      gap      omega  full diag
   1    -31.7709732 -0.317710E+02  0.305E-02    1.72       0.0  T
   2    -31.7709733 -0.743841E-07  0.174E-02    1.72       1.3  T
   3    -31.7709733 -0.183121E-07  0.227E-03    1.72       9.8  T
   4    -31.7709733 -0.281727E-09  0.125E-03    1.72      17.9  T
   5    -31.7709733 -0.117366E-07  0.567E-04    1.72      39.4  T
   6    -31.7709733 -0.143054E-08  0.361E-04    1.72      62.0  T
     SCC iter.                  ...        0 min,  0.005 sec
     gradient                   ...        0 min,  0.003 sec
 * total energy  :   -31.4640781 Eh     change       -0.5841163E-05 Eh
   gradient norm :     0.0005532 Eh/α   predicted    -0.2193510E-05 ( -62.45%)
   displ. norm   :     0.0953037 α      lambda       -0.6103488E-05
   maximum displ.:     0.0673853 α      in ANC's #5, #3, #7, ...

........................................................................
.............................. CYCLE   77 ..............................
........................................................................

 iter      E             dE          RMSdq      gap      omega  full diag
   1    -31.7709883 -0.317710E+02  0.407E-02    1.72       0.0  T
   2    -31.7709885 -0.166984E-06  0.228E-02    1.72       1.0  T
   3    -31.7709885 -0.465616E-07  0.331E-03    1.72       6.8  T
   4    -31.7709885 -0.829191E-08  0.936E-04    1.72      23.9  T
   5    -31.7709885 -0.258201E-08  0.719E-04    1.72      31.1  T
     SCC iter.                  ...        0 min,  0.005 sec
     gradient                   ...        0 min,  0.004 sec
 * total energy  :   -31.4640862 Eh     change       -0.8020306E-05 Eh
   gradient norm :     0.0005057 Eh/α   predicted    -0.3065958E-05 ( -61.77%)
   displ. norm   :     0.1236955 α      lambda       -0.7389305E-05
   maximum displ.:     0.0858086 α      in ANC's #5, #3, #7, ...

........................................................................
.............................. CYCLE   78 ..............................
........................................................................

 iter      E             dE          RMSdq      gap      omega  full diag
   1    -31.7708236 -0.317708E+02  0.551E-02    1.72       0.0  T
   2    -31.7708239 -0.324744E-06  0.305E-02    1.72       1.0  T
   3    -31.7708240 -0.863054E-07  0.488E-03    1.72       4.6  T
   4    -31.7708240 -0.140643E-07  0.153E-03    1.72      14.6  T
   5    -31.7708240 -0.974093E-08  0.110E-03    1.72      20.4  T
   6    -31.7708240 -0.448141E-08  0.820E-04    1.72      27.3  T
   7    -31.7708240 -0.512804E-08  0.380E-04    1.72      58.9  T
     SCC iter.                  ...        0 min,  0.006 sec
     gradient                   ...        0 min,  0.003 sec
 * total energy  :   -31.4640956 Eh     change       -0.9474518E-05 Eh
   gradient norm :     0.0006126 Eh/α   predicted    -0.3721598E-05 ( -60.72%)
   displ. norm   :     0.1363075 α      lambda       -0.7634824E-05
   maximum displ.:     0.0940792 α      in ANC's #5, #3, #7, ...

........................................................................
.............................. CYCLE   79 ..............................
........................................................................

 iter      E             dE          RMSdq      gap      omega  full diag
   1    -31.7707320 -0.317707E+02  0.549E-02    1.72       0.0  T
   2    -31.7707323 -0.257136E-06  0.309E-02    1.72       1.0  T
   3    -31.7707323 -0.732856E-07  0.438E-03    1.72       5.1  T
   4    -31.7707324 -0.734968E-08  0.182E-03    1.72      12.3  T
   5    -31.7707324 -0.179188E-07  0.108E-03    1.72      20.8  T
   6    -31.7707324 -0.417685E-08  0.816E-04    1.72      27.4  T
   7    -31.7707324 -0.513462E-08  0.334E-04    1.72      66.9  T
     SCC iter.                  ...        0 min,  0.006 sec
     gradient                   ...        0 min,  0.003 sec
 * total energy  :   -31.4641056 Eh     change       -0.9951779E-05 Eh
   gradient norm :     0.0007496 Eh/α   predicted    -0.3850600E-05 ( -61.31%)
   displ. norm   :     0.1519954 α      lambda       -0.8793942E-05
   maximum displ.:     0.1041908 α      in ANC's #5, #3, #7, ...

........................................................................
.............................. CYCLE   80 ..............................
........................................................................

 iter      E             dE          RMSdq      gap      omega  full diag
   1    -31.7706212 -0.317706E+02  0.565E-02    1.72       0.0  T
   2    -31.7706214 -0.209604E-06  0.322E-02    1.72       1.0  T
   3    -31.7706215 -0.879434E-07  0.388E-03    1.72       5.8  T
   4    -31.7706215 -0.153707E-07  0.153E-03    1.72      14.6  T
   5    -31.7706215 -0.727552E-08  0.116E-03    1.72      19.2  T
   6    -31.7706216 -0.591837E-08  0.826E-04    1.72      27.1  T
   7    -31.7706216 -0.562390E-08  0.377E-04    1.72      59.3  T
     SCC iter.                  ...        0 min,  0.006 sec
     gradient                   ...        0 min,  0.003 sec
 * total energy  :   -31.4641174 Eh     change       -0.1184479E-04 Eh
   gradient norm :     0.0007765 Eh/α   predicted    -0.4444685E-05 ( -62.48%)
   displ. norm   :     0.2107950 α      lambda       -0.1354749E-04
   maximum displ.:     0.1433709 α      in ANC's #5, #3, #4, ...

........................................................................
.............................. CYCLE   81 ..............................
........................................................................

 iter      E             dE          RMSdq      gap      omega  full diag
   1    -31.7704108 -0.317704E+02  0.740E-02    1.72       0.0  T
   2    -31.7704112 -0.309193E-06  0.428E-02    1.72       1.0  T
   3    -31.7704113 -0.126687E-06  0.462E-03    1.72       4.8  T
   4    -31.7704113 -0.276433E-07  0.256E-03    1.72       8.7  T
   5    -31.7704113 -0.260072E-07  0.159E-03    1.72      14.0  T
   6    -31.7704113 -0.976094E-08  0.120E-03    1.72      18.6  T
   7    -31.7704114 -0.103090E-07  0.569E-04    1.72      39.3  T
   8    -31.7704114 -0.277917E-08  0.306E-04    1.72      73.0  T
     SCC iter.                  ...        0 min,  0.008 sec
     gradient                   ...        0 min,  0.004 sec
 * total energy  :   -31.4641366 Eh     change       -0.1914326E-04 Eh
   gradient norm :     0.0009617 Eh/α   predicted    -0.6908205E-05 ( -63.91%)
   displ. norm   :     0.5065609 α      lambda       -0.3460557E-04
   maximum displ.:     0.3428688 α      in ANC's #5, #3, #4, ...

........................................................................
.............................. CYCLE   82 ..............................
........................................................................

 iter      E             dE          RMSdq      gap      omega  full diag
   1    -31.7687577 -0.317688E+02  0.174E-01    1.71       0.0  T
   2    -31.7687597 -0.199050E-05  0.101E-01    1.71       1.0  T
   3    -31.7687600 -0.220750E-06  0.134E-02    1.71       1.7  T
   4    -31.7687606 -0.685570E-06  0.707E-03    1.71       3.2  T
   5    -31.7687608 -0.166462E-06  0.384E-03    1.71       5.8  T
   6    -31.7687609 -0.578201E-07  0.287E-03    1.71       7.8  T
   7    -31.7687609 -0.508795E-07  0.155E-03    1.71      14.5  T
   8    -31.7687609 -0.217408E-07  0.724E-04    1.71      30.9  T
   9    -31.7687609 -0.284015E-08  0.331E-04    1.71      67.6  T
     SCC iter.                  ...        0 min,  0.009 sec
     gradient                   ...        0 min,  0.003 sec
 * total energy  :   -31.4641706 Eh     change       -0.3406604E-04 Eh
   gradient norm :     0.0034702 Eh/α   predicted    -0.1927651E-04 ( -43.41%)
   displ. norm   :     0.1671579 α      lambda       -0.3218369E-04
   maximum displ.:     0.1081209 α      in ANC's #5, #3, #4, ...

........................................................................
.............................. CYCLE   83 ..............................
........................................................................

 iter      E             dE          RMSdq      gap      omega  full diag
   1    -31.7693987 -0.317694E+02  0.528E-02    1.71       0.0  T
   2    -31.7693990 -0.273902E-06  0.303E-02    1.71       1.0  T
   3    -31.7693990 -0.816440E-07  0.384E-03    1.71       5.8  T
   4    -31.7693990 -0.161578E-07  0.174E-03    1.71      12.8  T
   5    -31.7693991 -0.933035E-08  0.113E-03    1.71      19.8  T
   6    -31.7693991 -0.424616E-08  0.893E-04    1.71      25.0  T
   7    -31.7693991 -0.621247E-08  0.442E-04    1.71      50.6  T
     SCC iter.                  ...        0 min,  0.007 sec
     gradient                   ...        0 min,  0.003 sec
 * total energy  :   -31.4641979 Eh     change       -0.2730953E-04 Eh
   gradient norm :     0.0027969 Eh/α   predicted    -0.1654267E-04 ( -39.43%)
   displ. norm   :     0.4629967 α      lambda       -0.7806665E-04
   maximum displ.:     0.2971962 α      in ANC's #5, #3, #4, ...

........................................................................
.............................. CYCLE   84 ..............................
........................................................................

 iter      E             dE          RMSdq      gap      omega  full diag
   1    -31.7693633 -0.317694E+02  0.149E-01    1.71       0.0  T
   2    -31.7693651 -0.179616E-05  0.856E-02    1.71       1.0  T
   3    -31.7693657 -0.639659E-06  0.112E-02    1.71       2.0  T
   4    -31.7693658 -0.828002E-07  0.550E-03    1.71       4.1  T
   5    -31.7693659 -0.147248E-06  0.340E-03    1.71       6.6  T
   6    -31.7693660 -0.439584E-07  0.258E-03    1.71       8.7  T
   7    -31.7693660 -0.500911E-07  0.122E-03    1.71      18.3  T
   8    -31.7693661 -0.108761E-07  0.693E-04    1.71      32.3  T
   9    -31.7693661 -0.301555E-08  0.323E-04    1.71      69.3  T
     SCC iter.                  ...        0 min,  0.008 sec
     gradient                   ...        0 min,  0.003 sec
 * total energy  :   -31.4642657 Eh     change       -0.6773441E-04 Eh
   gradient norm :     0.0033710 Eh/α   predicted    -0.4740508E-04 ( -30.01%)
   displ. norm   :     0.5794488 α      lambda       -0.1356665E-03
   maximum displ.:     0.3491107 α      in ANC's #5, #3, #4, ...

........................................................................
.............................. CYCLE   85 ..............................
........................................................................

 iter      E             dE          RMSdq      gap      omega  full diag
   1    -31.7698805 -0.317699E+02  0.189E-01    1.71       0.0  T
   2    -31.7698839 -0.342497E-05  0.107E-01    1.71       1.0  T
   3    -31.7698850 -0.114181E-05  0.158E-02    1.71       1.4  T
   4    -31.7698852 -0.136453E-06  0.615E-03    1.71       3.6  T
   5    -31.7698853 -0.178731E-06  0.418E-03    1.71       5.4  T
   6    -31.7698854 -0.687427E-07  0.306E-03    1.71       7.3  T
   7    -31.7698855 -0.695718E-07  0.155E-03    1.71      14.5  T
   8    -31.7698855 -0.159782E-07  0.841E-04    1.71      26.6  T
   9    -31.7698855 -0.480162E-08  0.415E-04    1.71      53.8  T
     SCC iter.                  ...        0 min,  0.008 sec
     gradient                   ...        0 min,  0.003 sec
 * total energy  :   -31.4643426 Eh     change       -0.7696322E-04 Eh
   gradient norm :     0.0043350 Eh/α   predicted    -0.9060993E-04 (  17.73%)
   displ. norm   :     0.2914143 α      lambda       -0.1986730E-03
   maximum displ.:     0.1442132 α      in ANC's #5, #7, #12, ...

........................................................................
.............................. CYCLE   86 ..............................
........................................................................

 iter      E             dE          RMSdq      gap      omega  full diag
   1    -31.7812181 -0.317812E+02  0.166E-01    1.76       0.0  T
   2    -31.7812386 -0.205489E-04  0.897E-02    1.74       1.0  T
   3    -31.7812355  0.318384E-05  0.396E-02    1.75       1.0  T
   4    -31.7812425 -0.704200E-05  0.125E-02    1.75       1.8  T
   5    -31.7812432 -0.651216E-06  0.392E-03    1.75       5.7  T
   6    -31.7812432 -0.545763E-07  0.190E-03    1.75      11.8  T
   7    -31.7812432 -0.128395E-07  0.125E-03    1.75      17.9  T
   8    -31.7812432 -0.676024E-08  0.636E-04    1.75      35.2  T
   9    -31.7812432 -0.256736E-08  0.399E-04    1.75      56.0  T
     SCC iter.                  ...        0 min,  0.008 sec
     gradient                   ...        0 min,  0.003 sec
 * total energy  :   -31.4639358 Eh     change        0.4067912E-03 Eh
   gradient norm :     0.0171995 Eh/α   predicted    -0.1077735E-03 (-126.49%)
   displ. norm   :     0.1940115 α      lambda       -0.8026446E-03
   maximum displ.:     0.0840499 α      in ANC's #5, #7, #12, ...

........................................................................
.............................. CYCLE   87 ..............................
........................................................................

 iter      E             dE          RMSdq      gap      omega  full diag
   1    -31.7721203 -0.317721E+02  0.134E-01    1.71       0.0  T
   2    -31.7721323 -0.119664E-04  0.712E-02    1.72       1.0  T
   3    -31.7721298  0.254834E-05  0.320E-02    1.71       1.0  T
   4    -31.7721350 -0.523979E-05  0.103E-02    1.72       2.2  T
   5    -31.7721354 -0.363574E-06  0.295E-03    1.72       7.6  T
   6    -31.7721354 -0.432178E-07  0.126E-03    1.72      17.7  T
   7    -31.7721354 -0.591222E-08  0.749E-04    1.72      29.8  T
   8    -31.7721354 -0.125528E-08  0.317E-04    1.72      70.6  T
     SCC iter.                  ...        0 min,  0.007 sec
     gradient                   ...        0 min,  0.004 sec
 * total energy  :   -31.4643863 Eh     change       -0.4504358E-03 Eh
   gradient norm :     0.0033696 Eh/α   predicted    -0.4164261E-03 (  -7.55%)
   displ. norm   :     0.1968309 α      lambda       -0.5185549E-04
   maximum displ.:     0.1184619 α      in ANC's #5, #3, #4, ...

........................................................................
.............................. CYCLE   88 ..............................
........................................................................

 iter      E             dE          RMSdq      gap      omega  full diag
   1    -31.7706031 -0.317706E+02  0.685E-02    1.71       0.0  T
   2    -31.7706038 -0.697597E-06  0.393E-02    1.71       1.0  T
   3    -31.7706036  0.150597E-06  0.788E-03    1.71       2.8  T
   4    -31.7706040 -0.341925E-06  0.334E-03    1.71       6.7  T
   5    -31.7706040 -0.348446E-07  0.179E-03    1.71      12.5  T
   6    -31.7706040 -0.131288E-07  0.119E-03    1.71      18.7  T
   7    -31.7706040 -0.639943E-08  0.789E-04    1.71      28.3  T
   8    -31.7706040 -0.493964E-08  0.329E-04    1.71      68.1  T
     SCC iter.                  ...        0 min,  0.008 sec
     gradient                   ...        0 min,  0.004 sec
 * total energy  :   -31.4644113 Eh     change       -0.2499767E-04 Eh
   gradient norm :     0.0026074 Eh/α   predicted    -0.2693458E-04 (   7.75%)
   displ. norm   :     0.0501234 α      lambda       -0.2658128E-04
   maximum displ.:     0.0304120 α      in ANC's #6, #3, #4, ...

........................................................................
.............................. CYCLE   89 ..............................
........................................................................

 iter      E             dE          RMSdq      gap      omega  full diag
   1    -31.7707561 -0.317708E+02  0.208E-02    1.71       0.0  T
   2    -31.7707561 -0.395690E-07  0.121E-02    1.71       1.8  T
   3    -31.7707561 -0.930482E-08  0.116E-03    1.71      19.3  T
   4    -31.7707561 -0.205986E-08  0.633E-04    1.71      35.3  T
   5    -31.7707561 -0.218084E-08  0.407E-04    1.71      54.9  T
     SCC iter.                  ...        0 min,  0.007 sec
     gradient                   ...        0 min,  0.003 sec
 * total energy  :   -31.4644350 Eh     change       -0.2368925E-04 Eh
   gradient norm :     0.0022469 Eh/α   predicted    -0.1332544E-04 ( -43.75%)
   displ. norm   :     0.1959206 α      lambda       -0.8268531E-04
   maximum displ.:     0.1190749 α      in ANC's #6, #12, #3, ...

........................................................................
.............................. CYCLE   90 ..............................
........................................................................

 iter      E             dE          RMSdq      gap      omega  full diag
   1    -31.7712371 -0.317712E+02  0.807E-02    1.72       0.0  T
   2    -31.7712377 -0.515722E-06  0.467E-02    1.72       1.0  T
   3    -31.7712378 -0.168951E-06  0.459E-03    1.72       4.9  T
   4    -31.7712379 -0.213377E-07  0.200E-03    1.72      11.2  T
   5    -31.7712379 -0.143765E-07  0.127E-03    1.72      17.7  T
   6    -31.7712379 -0.554326E-08  0.896E-04    1.72      24.9  T
   7    -31.7712379 -0.442499E-08  0.536E-04    1.72      41.7  T
     SCC iter.                  ...        0 min,  0.007 sec
     gradient                   ...        0 min,  0.003 sec
 * total energy  :   -31.4644859 Eh     change       -0.5096574E-04 Eh
   gradient norm :     0.0015291 Eh/α   predicted    -0.4292516E-04 ( -15.78%)
   displ. norm   :     0.2016942 α      lambda       -0.1818268E-04
   maximum displ.:     0.1164154 α      in ANC's #3, #6, #4, ...

........................................................................
.............................. CYCLE   91 ..............................
........................................................................

 iter      E             dE          RMSdq      gap      omega  full diag
   1    -31.7705323 -0.317705E+02  0.834E-02    1.71       0.0  T
   2    -31.7705331 -0.742400E-06  0.481E-02    1.72       1.0  T
   3    -31.7705324  0.735280E-06  0.116E-02    1.71       1.9  T
   4    -31.7705334 -0.108522E-05  0.387E-03    1.72       5.8  T
   5    -31.7705335 -0.326517E-07  0.165E-03    1.72      13.5  T
   6    -31.7705335 -0.935308E-08  0.118E-03    1.72      19.0  T
   7    -31.7705335 -0.657339E-08  0.687E-04    1.72      32.6  T
   8    -31.7705335 -0.301892E-08  0.361E-04    1.72      62.0  T
     SCC iter.                  ...        0 min,  0.007 sec
     gradient                   ...        0 min,  0.003 sec
 * total energy  :   -31.4644927 Eh     change       -0.6735834E-05 Eh
   gradient norm :     0.0021503 Eh/α   predicted    -0.9255937E-05 (  37.41%)
   displ. norm   :     0.0588020 α      lambda       -0.1477601E-04
   maximum displ.:     0.0357729 α      in ANC's #5, #4, #6, ...

........................................................................
.............................. CYCLE   92 ..............................
........................................................................

 iter      E             dE          RMSdq      gap      omega  full diag
   1    -31.7712276 -0.317712E+02  0.208E-02    1.72       0.0  T
   2    -31.7712277 -0.111926E-06  0.121E-02    1.72       1.8  T
   3    -31.7712276  0.124588E-06  0.421E-03    1.72       5.3  T
   4    -31.7712277 -0.165059E-06  0.103E-03    1.72      21.8  T
   5    -31.7712277 -0.118763E-08  0.439E-04    1.72      50.9  T
   6    -31.7712277 -0.547622E-09  0.234E-04    1.72      95.7  T
     SCC iter.                  ...        0 min,  0.006 sec
     gradient                   ...        0 min,  0.003 sec
 * total energy  :   -31.4645023 Eh     change       -0.9639383E-05 Eh
   gradient norm :     0.0014225 Eh/α   predicted    -0.7414605E-05 ( -23.08%)
   displ. norm   :     0.0564437 α      lambda       -0.1019868E-04
   maximum displ.:     0.0306063 α      in ANC's #4, #5, #6, ...
 * RMSD in coord.:     0.5261520 α      energy gain  -0.5527052E-03 Eh

generating ANC from exact Hessian ...
Using Lindh-Hessian (1995)
 Shifting diagonal of input Hessian by    1.0098580070438389E-002
 Lowest  eigenvalues of input Hessian
    0.010000    0.000000    0.000000    0.000000    0.000000    0.000000
    0.000000    0.010128    0.010287    0.010323    0.010376    0.010747
    0.011704    0.011931    0.012157    0.013550    0.015164    0.015646
 Highest eigenvalues
    1.176745    1.244207    1.455128    1.871150    2.031949    2.332030


........................................................................
.............................. CYCLE   93 ..............................
........................................................................

 iter      E             dE          RMSdq      gap      omega  full diag
   1    -31.7715534 -0.317716E+02  0.183E-02    1.73       0.0  T
   2    -31.7715535 -0.767306E-07  0.106E-02    1.72       2.1  T
   3    -31.7715534  0.110821E-06  0.424E-03    1.73       5.3  T
   4    -31.7715536 -0.160217E-06  0.121E-03    1.72      18.5  T
   5    -31.7715536 -0.335804E-08  0.634E-04    1.72      35.2  T
   6    -31.7715536 -0.167567E-08  0.496E-04    1.72      45.1  T
     SCC iter.                  ...        0 min,  0.006 sec
     gradient                   ...        0 min,  0.003 sec
 * total energy  :   -31.4645115 Eh     change       -0.9225911E-05 Eh
   gradient norm :     0.0015557 Eh/α   predicted     0.0000000E+00 (-100.00%)
   displ. norm   :     0.0257699 α      lambda       -0.5791640E-05
   maximum displ.:     0.0187654 α      in ANC's #10, #6, #7, ...

........................................................................
.............................. CYCLE   94 ..............................
........................................................................

 iter      E             dE          RMSdq      gap      omega  full diag
   1    -31.7711389 -0.317711E+02  0.117E-02    1.72       0.0  T
   2    -31.7711389 -0.585471E-07  0.698E-03    1.72       3.2  T
   3    -31.7711389  0.487432E-07  0.289E-03    1.72       7.7  T
   4    -31.7711389 -0.716769E-07  0.620E-04    1.72      36.1  T
   5    -31.7711389 -0.134263E-08  0.343E-04    1.72      65.2  T
     SCC iter.                  ...        0 min,  0.005 sec
     gradient                   ...        0 min,  0.003 sec
 * total energy  :   -31.4645176 Eh     change       -0.6047840E-05 Eh
   gradient norm :     0.0005198 Eh/α   predicted    -0.3329267E-05 ( -44.95%)
   displ. norm   :     0.0352158 α      lambda       -0.4175959E-05
   maximum displ.:     0.0216995 α      in ANC's #10, #6, #7, ...

........................................................................
.............................. CYCLE   95 ..............................
........................................................................

 iter      E             dE          RMSdq      gap      omega  full diag
   1    -31.7709496 -0.317709E+02  0.151E-02    1.72       0.0  T
   2    -31.7709496 -0.280061E-07  0.892E-03    1.72       2.5  T
   3    -31.7709496  0.245914E-07  0.191E-03    1.72      11.7  T
   4    -31.7709496 -0.386337E-07  0.774E-04    1.72      28.9  T
   5    -31.7709496 -0.176516E-08  0.508E-04    1.72      44.0  T
     SCC iter.                  ...        0 min,  0.005 sec
     gradient                   ...        0 min,  0.003 sec
 * total energy  :   -31.4645209 Eh     change       -0.3306744E-05 Eh
   gradient norm :     0.0007857 Eh/α   predicted    -0.2094315E-05 ( -36.67%)
   displ. norm   :     0.0329501 α      lambda       -0.2724944E-05
   maximum displ.:     0.0191761 α      in ANC's #7, #6, #10, ...

........................................................................
.............................. CYCLE   96 ..............................
........................................................................

 iter      E             dE          RMSdq      gap      omega  full diag
   1    -31.7710566 -0.317711E+02  0.123E-02    1.72       0.0  T
   2    -31.7710566 -0.378536E-07  0.680E-03    1.72       3.3  T
   3    -31.7710566  0.805601E-08  0.195E-03    1.72      11.5  T
   4    -31.7710567 -0.161051E-07  0.869E-04    1.72      25.7  T
   5    -31.7710567 -0.358290E-08  0.393E-04    1.72      56.8  T
     SCC iter.                  ...        0 min,  0.005 sec
     gradient                   ...        0 min,  0.003 sec
 * total energy  :   -31.4645235 Eh     change       -0.2558808E-05 Eh
   gradient norm :     0.0006686 Eh/α   predicted    -0.1364518E-05 ( -46.67%)
   displ. norm   :     0.0361080 α      lambda       -0.2808177E-05
   maximum displ.:     0.0228673 α      in ANC's #7, #6, #2, ...

........................................................................
.............................. CYCLE   97 ..............................
........................................................................

 iter      E             dE          RMSdq      gap      omega  full diag
   1    -31.7712598 -0.317713E+02  0.120E-02    1.72       0.0  T
   2    -31.7712598 -0.332818E-07  0.657E-03    1.72       3.4  T
   3    -31.7712598  0.149283E-07  0.217E-03    1.72      10.3  T
   4    -31.7712598 -0.259237E-07  0.965E-04    1.72      23.2  T
   5    -31.7712598 -0.351142E-08  0.348E-04    1.72      64.3  T
     SCC iter.                  ...        0 min,  0.006 sec
     gradient                   ...        0 min,  0.003 sec
 * total energy  :   -31.4645252 Eh     change       -0.1748680E-05 Eh
   gradient norm :     0.0005886 Eh/α   predicted    -0.1406339E-05 ( -19.58%)
   displ. norm   :     0.0293070 α      lambda       -0.2766555E-05
   maximum displ.:     0.0201216 α      in ANC's #7, #6, #2, ...

........................................................................
.............................. CYCLE   98 ..............................
........................................................................

 iter      E             dE          RMSdq      gap      omega  full diag
   1    -31.7713178 -0.317713E+02  0.748E-03    1.72       0.0  T
   2    -31.7713178 -0.134430E-07  0.427E-03    1.72       5.2  T
   3    -31.7713178  0.827725E-09  0.949E-04    1.72      23.6  T
   4    -31.7713178 -0.208786E-08  0.535E-04    1.72      41.8  T
     SCC iter.                  ...        0 min,  0.005 sec
     gradient                   ...        0 min,  0.004 sec
 * total energy  :   -31.4645282 Eh     change       -0.3005724E-05 Eh
   gradient norm :     0.0005454 Eh/α   predicted    -0.1384498E-05 ( -53.94%)
   displ. norm   :     0.0414026 α      lambda       -0.2600633E-05
   maximum displ.:     0.0289043 α      in ANC's #7, #6, #3, ...

........................................................................
.............................. CYCLE   99 ..............................
........................................................................

 iter      E             dE          RMSdq      gap      omega  full diag
   1    -31.7712230 -0.317712E+02  0.123E-02    1.72       0.0  T
   2    -31.7712230 -0.324821E-07  0.680E-03    1.72       3.3  T
   3    -31.7712230  0.828915E-08  0.186E-03    1.72      12.0  T
   4    -31.7712230 -0.127810E-07  0.795E-04    1.72      28.1  T
   5    -31.7712230 -0.265362E-08  0.216E-04    1.72     103.4  T
     SCC iter.                  ...        0 min,  0.005 sec
     gradient                   ...        0 min,  0.003 sec
 * total energy  :   -31.4645311 Eh     change       -0.2897743E-05 Eh
   gradient norm :     0.0004811 Eh/α   predicted    -0.1302883E-05 ( -55.04%)
   displ. norm   :     0.0494931 α      lambda       -0.2261008E-05
   maximum displ.:     0.0347214 α      in ANC's #7, #6, #3, ...

........................................................................
.............................. CYCLE  100 ..............................
........................................................................

 iter      E             dE          RMSdq      gap      omega  full diag
   1    -31.7711357 -0.317711E+02  0.123E-02    1.72       0.0  T
   2    -31.7711357 -0.119566E-07  0.724E-03    1.72       3.1  T
   3    -31.7711357  0.206163E-07  0.172E-03    1.72      13.0  T
   4    -31.7711357 -0.264169E-07  0.439E-04    1.72      51.0  T
   5    -31.7711357 -0.402864E-09  0.135E-04    1.72     166.0  T
     SCC iter.                  ...        0 min,  0.005 sec
     gradient                   ...        0 min,  0.003 sec
 * total energy  :   -31.4645338 Eh     change       -0.2651917E-05 Eh
   gradient norm :     0.0004061 Eh/α   predicted    -0.1135148E-05 ( -57.20%)
   displ. norm   :     0.0505799 α      lambda       -0.1937257E-05
   maximum displ.:     0.0357182 α      in ANC's #7, #6, #3, ...

........................................................................
.............................. CYCLE  101 ..............................
........................................................................

 iter      E             dE          RMSdq      gap      omega  full diag
   1    -31.7710961 -0.317711E+02  0.116E-02    1.72       0.0  T
   2    -31.7710961 -0.775033E-08  0.684E-03    1.72       3.3  T
   3    -31.7710961  0.783511E-08  0.113E-03    1.72      19.8  T
   4    -31.7710961 -0.110153E-07  0.362E-04    1.72      61.8  T
   5    -31.7710961 -0.319964E-09  0.111E-04    1.72     201.3  T
     SCC iter.                  ...        0 min,  0.005 sec
     gradient                   ...        0 min,  0.004 sec
 * total energy  :   -31.4645361 Eh     change       -0.2338959E-05 Eh
   gradient norm :     0.0003418 Eh/α   predicted    -0.9704552E-06 ( -58.51%)
   displ. norm   :     0.0485705 α      lambda       -0.1684485E-05
   maximum displ.:     0.0348373 α      in ANC's #7, #6, #3, ...

........................................................................
.............................. CYCLE  102 ..............................
........................................................................

 iter      E             dE          RMSdq      gap      omega  full diag
   1    -31.7711294 -0.317711E+02  0.108E-02    1.72       0.0  T
   2    -31.7711294 -0.861711E-08  0.635E-03    1.72       3.5  T
   3    -31.7711294 -0.175454E-08  0.618E-04    1.72      36.2  T
   4    -31.7711294 -0.320593E-09  0.266E-04    1.72      83.9  T
     SCC iter.                  ...        0 min,  0.004 sec
     gradient                   ...        0 min,  0.003 sec
 * total energy  :   -31.4645382 Eh     change       -0.2056591E-05 Eh
   gradient norm :     0.0002937 Eh/α   predicted    -0.8438902E-06 ( -58.97%)
   displ. norm   :     0.0513809 α      lambda       -0.1755310E-05
   maximum displ.:     0.0373960 α      in ANC's #7, #6, #3, ...

........................................................................
.............................. CYCLE  103 ..............................
........................................................................

 iter      E             dE          RMSdq      gap      omega  full diag
   1    -31.7711510 -0.317712E+02  0.123E-02    1.72       0.0  T
   2    -31.7711510 -0.116322E-07  0.722E-03    1.72       3.1  T
   3    -31.7711510 -0.234224E-08  0.748E-04    1.72      29.9  T
   4    -31.7711510 -0.228333E-09  0.256E-04    1.72      87.3  T
     SCC iter.                  ...        0 min,  0.004 sec
     gradient                   ...        0 min,  0.003 sec
 * total energy  :   -31.4645402 Eh     change       -0.1999958E-05 Eh
   gradient norm :     0.0003025 Eh/α   predicted    -0.8801787E-06 ( -55.99%)
   displ. norm   :     0.0458429 α      lambda       -0.1379665E-05
   maximum displ.:     0.0338932 α      in ANC's #7, #6, #3, ...

........................................................................
.............................. CYCLE  104 ..............................
........................................................................

 iter      E             dE          RMSdq      gap      omega  full diag
   1    -31.7711812 -0.317712E+02  0.119E-02    1.72       0.0  T
   2    -31.7711812 -0.887060E-08  0.693E-03    1.72       3.2  T
   3    -31.7711812 -0.234362E-08  0.749E-04    1.72      29.9  T
   4    -31.7711812  0.669012E-10  0.421E-04    1.72      53.1  T
     SCC iter.                  ...        0 min,  0.004 sec
     gradient                   ...        0 min,  0.003 sec
 * total energy  :   -31.4645418 Eh     change       -0.1625459E-05 Eh
   gradient norm :     0.0002233 Eh/α   predicted    -0.6934642E-06 ( -57.34%)
   displ. norm   :     0.0394217 α      lambda       -0.1022280E-05
   maximum displ.:     0.0297180 α      in ANC's #7, #3, #4, ...

........................................................................
.............................. CYCLE  105 ..............................
........................................................................

 iter      E             dE          RMSdq      gap      omega  full diag
   1    -31.7712121 -0.317712E+02  0.111E-02    1.72       0.0  T
   2    -31.7712121 -0.898177E-08  0.648E-03    1.72       3.4  T
   3    -31.7712121 -0.247266E-08  0.684E-04    1.72      32.7  T
   4    -31.7712121 -0.378598E-09  0.285E-04    1.72      78.5  T
     SCC iter.                  ...        0 min,  0.004 sec
     gradient                   ...        0 min,  0.003 sec
 * total energy  :   -31.4645431 Eh     change       -0.1298541E-05 Eh
   gradient norm :     0.0001619 Eh/α   predicted    -0.5129534E-06 ( -60.50%)
   displ. norm   :     0.0402265 α      lambda       -0.1081744E-05
   maximum displ.:     0.0301634 α      in ANC's #7, #3, #8, ...

........................................................................
.............................. CYCLE  106 ..............................
........................................................................

 iter      E             dE          RMSdq      gap      omega  full diag
   1    -31.7712267 -0.317712E+02  0.135E-02    1.72       0.0  T
   2    -31.7712267 -0.207499E-07  0.748E-03    1.72       3.0  T
   3    -31.7712267 -0.440804E-08  0.137E-03    1.72      16.3  T
   4    -31.7712267 -0.210399E-09  0.418E-04    1.72      53.5  T
   5    -31.7712267 -0.100262E-08  0.210E-04    1.72     106.3  T
     SCC iter.                  ...        0 min,  0.005 sec
     gradient                   ...        0 min,  0.003 sec
 * total energy  :   -31.4645445 Eh     change       -0.1438166E-05 Eh
   gradient norm :     0.0001737 Eh/α   predicted    -0.5460935E-06 ( -62.03%)
   displ. norm   :     0.0583596 α      lambda       -0.1602565E-05
   maximum displ.:     0.0430228 α      in ANC's #7, #8, #3, ...

........................................................................
.............................. CYCLE  107 ..............................
........................................................................

 iter      E             dE          RMSdq      gap      omega  full diag
   1    -31.7711943 -0.317712E+02  0.230E-02    1.72       0.0  T
   2    -31.7711943 -0.809371E-07  0.121E-02    1.72       1.8  T
   3    -31.7711944 -0.146801E-07  0.259E-03    1.72       8.6  T
   4    -31.7711944 -0.479851E-09  0.584E-04    1.72      38.3  T
   5    -31.7711944 -0.207296E-08  0.301E-04    1.72      74.4  T
     SCC iter.                  ...        0 min,  0.005 sec
     gradient                   ...        0 min,  0.004 sec
 * total energy  :   -31.4645466 Eh     change       -0.2061876E-05 Eh
   gradient norm :     0.0002434 Eh/α   predicted    -0.8035775E-06 ( -61.03%)
   displ. norm   :     0.1106661 α      lambda       -0.2651522E-05
   maximum displ.:     0.0809233 α      in ANC's #7, #8, #3, ...

........................................................................
.............................. CYCLE  108 ..............................
........................................................................

 iter      E             dE          RMSdq      gap      omega  full diag
   1    -31.7710380 -0.317710E+02  0.467E-02    1.72       0.0  T
   2    -31.7710383 -0.353780E-06  0.242E-02    1.72       1.0  T
   3    -31.7710384 -0.632336E-07  0.532E-03    1.72       4.2  T
   4    -31.7710384 -0.424281E-08  0.693E-04    1.72      32.3  T
   5    -31.7710384 -0.234012E-08  0.451E-04    1.72      49.6  T
     SCC iter.                  ...        0 min,  0.005 sec
     gradient                   ...        0 min,  0.004 sec
 * total energy  :   -31.4645491 Eh     change       -0.2540142E-05 Eh
   gradient norm :     0.0005843 Eh/α   predicted    -0.1334362E-05 ( -47.47%)
   displ. norm   :     0.0487637 α      lambda       -0.1487647E-05
   maximum displ.:     0.0320790 α      in ANC's #7, #8, #3, ...

........................................................................
.............................. CYCLE  109 ..............................
........................................................................

 iter      E             dE          RMSdq      gap      omega  full diag
   1    -31.7712348 -0.317712E+02  0.246E-02    1.72       0.0  T
   2    -31.7712350 -0.122208E-06  0.123E-02    1.72       1.8  T
   3    -31.7712350 -0.201201E-07  0.285E-03    1.72       7.9  T
   4    -31.7712350 -0.711992E-09  0.443E-04    1.72      50.5  T
   5    -31.7712350 -0.123979E-08  0.267E-04    1.72      83.8  T
     SCC iter.                  ...        0 min,  0.006 sec
     gradient                   ...        0 min,  0.004 sec
 * total energy  :   -31.4645506 Eh     change       -0.1486143E-05 Eh
   gradient norm :     0.0002116 Eh/α   predicted    -0.7450555E-06 ( -49.87%)
   displ. norm   :     0.0713615 α      lambda       -0.1119252E-05
   maximum displ.:     0.0498492 α      in ANC's #7, #8, #3, ...

........................................................................
.............................. CYCLE  110 ..............................
........................................................................

 iter      E             dE          RMSdq      gap      omega  full diag
   1    -31.7711444 -0.317711E+02  0.332E-02    1.72       0.0  T
   2    -31.7711446 -0.205990E-06  0.168E-02    1.72       1.3  T
   3    -31.7711446 -0.338898E-07  0.383E-03    1.72       5.8  T
   4    -31.7711446 -0.130491E-10  0.536E-04    1.72      41.7  T
   5    -31.7711446 -0.246911E-08  0.221E-04    1.72     101.4  T
     SCC iter.                  ...        0 min,  0.006 sec
     gradient                   ...        0 min,  0.003 sec
 * total energy  :   -31.4645518 Eh     change       -0.1178844E-05 Eh
   gradient norm :     0.0003269 Eh/α   predicted    -0.5621582E-06 ( -52.31%)
   displ. norm   :     0.0718848 α      lambda       -0.1687833E-05
   maximum displ.:     0.0426285 α      in ANC's #7, #1, #8, ...

........................................................................
.............................. CYCLE  111 ..............................
........................................................................

 iter      E             dE          RMSdq      gap      omega  full diag
   1    -31.7712443 -0.317712E+02  0.333E-02    1.72       0.0  T
   2    -31.7712445 -0.226163E-06  0.167E-02    1.72       1.3  T
   3    -31.7712445 -0.339899E-07  0.389E-03    1.72       5.7  T
   4    -31.7712445  0.547701E-08  0.102E-03    1.72      21.9  T
   5    -31.7712445 -0.956716E-08  0.206E-04    1.72     108.6  T
   6    -31.7712445 -0.167713E-09  0.126E-04    1.72     177.2  T
     SCC iter.                  ...        0 min,  0.006 sec
     gradient                   ...        0 min,  0.003 sec
 * total energy  :   -31.4645536 Eh     change       -0.1864145E-05 Eh
   gradient norm :     0.0002108 Eh/α   predicted    -0.8506957E-06 ( -54.37%)
   displ. norm   :     0.0578682 α      lambda       -0.1190916E-05
   maximum displ.:     0.0331190 α      in ANC's #7, #1, #3, ...

........................................................................
.............................. CYCLE  112 ..............................
........................................................................

 iter      E             dE          RMSdq      gap      omega  full diag
   1    -31.7712076 -0.317712E+02  0.206E-02    1.72       0.0  T
   2    -31.7712077 -0.706128E-07  0.109E-02    1.72       2.1  T
   3    -31.7712077 -0.118966E-07  0.234E-03    1.72       9.6  T
   4    -31.7712077  0.803571E-09  0.505E-04    1.72      44.3  T
   5    -31.7712077 -0.235899E-08  0.173E-04    1.72     129.3  T
     SCC iter.                  ...        0 min,  0.005 sec
     gradient                   ...        0 min,  0.003 sec
 * total energy  :   -31.4645552 Eh     change       -0.1508344E-05 Eh
   gradient norm :     0.0002481 Eh/α   predicted    -0.5988940E-06 ( -60.29%)
   displ. norm   :     0.0585648 α      lambda       -0.1941471E-05
   maximum displ.:     0.0283771 α      in ANC's #1, #9, #4, ...

........................................................................
.............................. CYCLE  113 ..............................
........................................................................

 iter      E             dE          RMSdq      gap      omega  full diag
   1    -31.7713668 -0.317714E+02  0.158E-02    1.72       0.0  T
   2    -31.7713668 -0.219686E-07  0.924E-03    1.72       2.4  T
   3    -31.7713668 -0.458423E-08  0.112E-03    1.72      20.0  T
   4    -31.7713668 -0.201442E-08  0.612E-04    1.72      36.5  T
   5    -31.7713668 -0.169332E-08  0.320E-04    1.72      69.9  T
     SCC iter.                  ...        0 min,  0.005 sec
     gradient                   ...        0 min,  0.003 sec
 * total energy  :   -31.4645573 Eh     change       -0.2148764E-05 Eh
   gradient norm :     0.0003624 Eh/α   predicted    -0.9742099E-06 ( -54.66%)
   displ. norm   :     0.1362018 α      lambda       -0.2641061E-05
   maximum displ.:     0.0777574 α      in ANC's #7, #1, #3, ...

........................................................................
.............................. CYCLE  114 ..............................
........................................................................

 iter      E             dE          RMSdq      gap      omega  full diag
   1    -31.7708655 -0.317709E+02  0.387E-02    1.72       0.0  T
   2    -31.7708657 -0.151778E-06  0.223E-02    1.72       1.0  T
   3    -31.7708657 -0.288918E-07  0.297E-03    1.72       7.5  T
   4    -31.7708657  0.671179E-09  0.111E-03    1.72      20.1  T
   5    -31.7708657 -0.951827E-08  0.489E-04    1.72      45.7  T
   6    -31.7708657 -0.775941E-09  0.312E-04    1.72      71.7  T
     SCC iter.                  ...        0 min,  0.005 sec
     gradient                   ...        0 min,  0.003 sec
 * total energy  :   -31.4645578 Eh     change       -0.5423066E-06 Eh
   gradient norm :     0.0010250 Eh/α   predicted    -0.1333861E-05 ( 145.96%)
   displ. norm   :     0.0541987 α      lambda       -0.2646188E-05
   maximum displ.:     0.0381551 α      in ANC's #7, #8, #3, ...

........................................................................
.............................. CYCLE  115 ..............................
........................................................................

 iter      E             dE          RMSdq      gap      omega  full diag
   1    -31.7713020 -0.317713E+02  0.244E-02    1.72       0.0  T
   2    -31.7713022 -0.133129E-06  0.125E-02    1.72       1.8  T
   3    -31.7713022 -0.189660E-07  0.284E-03    1.72       7.9  T
   4    -31.7713022 -0.106677E-08  0.300E-04    1.72      74.6  T
   5    -31.7713022 -0.138581E-09  0.164E-04    1.72     136.8  T
     SCC iter.                  ...        0 min,  0.005 sec
     gradient                   ...        0 min,  0.003 sec
 * total energy  :   -31.4645595 Eh     change       -0.1643676E-05 Eh
   gradient norm :     0.0001500 Eh/α   predicted    -0.1325728E-05 ( -19.34%)
   displ. norm   :     0.0146782 α      lambda       -0.2192079E-06
   maximum displ.:     0.0086094 α      in ANC's #1, #7, #3, ...

........................................................................
.............................. CYCLE  116 ..............................
........................................................................

 iter      E             dE          RMSdq      gap      omega  full diag
   1    -31.7712638 -0.317713E+02  0.481E-03    1.72       0.0  T
   2    -31.7712638 -0.999204E-09  0.282E-03    1.72       7.9  T
   3    -31.7712638 -0.116529E-09  0.226E-04    1.72      98.8  T
   4    -31.7712638 -0.206150E-09  0.121E-04    1.72     184.9  T
     SCC iter.                  ...        0 min,  0.004 sec
     gradient                   ...        0 min,  0.003 sec
 * total energy  :   -31.4645598 Eh     change       -0.2924706E-06 Eh
   gradient norm :     0.0000688 Eh/α   predicted    -0.1139533E-06 ( -61.04%)
   displ. norm   :     0.0230883 α      lambda       -0.3885536E-06
   maximum displ.:     0.0140022 α      in ANC's #1, #7, #3, ...

   *** GEOMETRY OPTIMIZATION CONVERGED AFTER 116 ITERATIONS ***

------------------------------------------------------------------------
 total energy gain   :       -22.1432277 Eh   -13895.0852 kcal/mol
 total RMSD          :         3.0388962 a0        1.6081 Å
 total power (kW/mol):      -501.1813482 (step)********** (real)
------------------------------------------------------------------------

 ANCopt (total)                0 d,  0 h,  0 min,  1.654 sec
 optimizer setup                ...        0 min,  0.000 sec (  0.019%)
 model hessian                  ...        0 min,  0.022 sec (  1.345%)
 ANC generation                 ...        0 min,  0.002 sec (  0.106%)
 coordinate transformation      ...        0 min,  0.001 sec (  0.063%)
 single point calculation       ...        0 min,  1.573 sec ( 95.103%)
 optimization log               ...        0 min,  0.021 sec (  1.260%)
 hessian update                 ...        0 min,  0.012 sec (  0.732%)
 rational function              ...        0 min,  0.016 sec (  0.985%)

================
 final structure:
================
20
 xtb: 6.7.1 (edcfbbe)
C           -0.52051930383318        0.37012276031710        0.93556893519053
N           -0.24374556892858       -0.42990683941185       -0.11365465756105
C           -1.32767956850188       -1.32299569728658       -0.52424789619137
C            0.93433216413984       -0.50390018535732       -0.85229303535124
O            1.01718830178705       -1.26375799081530       -1.79083247640762
C            2.06957953001117        0.38914079278550       -0.41822354398348
Cl           3.49593478370778        0.10864989830390       -1.44668623757115
H           -1.51992819437802        0.20999568546693        1.32782421840172
H            5.15237257260580        3.69479937319127        1.80354111974233
H           -4.01726611405910        1.52525371905331        1.23733114437911
H           -0.97729673924318       -1.92200077077751       -1.36074168131888
H           -1.59823397339941       -1.97394502612680        0.30335611872234
H           -2.18924339618498       -0.73589703539470       -0.83316958645730
H            2.36548955102973        0.18413577115889        0.61138992688881
H            1.80530119188337        1.44355712782763       -0.50972559259253
S            0.38736431235712        1.51835445784897        1.67682901129608
C           -3.83887084526479        1.48944059159813        2.30391956562321
H           -2.85752361324155        1.89380925516175        2.52068852898569
H           -4.58703063125609        2.08404772437275        2.81119119920790
H           -3.89836345923362        0.46711338808074        2.65324993900111

 Bond Distances (Angstroems)
 ---------------------------
C1-N2=1.3482         C1-H8=1.0855         C1-S16=1.6408        N2-C1=1.3482         N2-C3=1.4633         N2-C4=1.3925         
C3-N2=1.4633         C3-H11=1.0869        C3-H12=1.0871        C3-H13=1.0874        C4-N2=1.3925         C4-O5=1.2104         
C4-C6=1.5082         O5-C4=1.2104         C6-C4=1.5082         C6-Cl7=1.7807        C6-H14=1.0907        C6-H15=1.0909        
Cl7-C6=1.7807        H8-C1=1.0855         H10-C17=1.0820       H11-C3=1.0869        H12-C3=1.0871        H13-C3=1.0874        
H14-C6=1.0907        H15-C6=1.0909        S16-C1=1.6408        C17-H10=1.0820       C17-H18=1.0833       C17-H19=1.0820       
C17-H20=1.0820       H18-C17=1.0833       H19-C17=1.0820       H20-C17=1.0820       
 C  H  Rav=1.0858 sigma=0.0032  Rmin=1.0820  Rmax=1.0909    10
 C  C  Rav=1.5082 sigma=0.0000  Rmin=1.5082  Rmax=1.5082     1
 N  C  Rav=1.4013 sigma=0.0474  Rmin=1.3482  Rmax=1.4633     3
 O  C  Rav=1.2104 sigma=0.0000  Rmin=1.2104  Rmax=1.2104     1
 S  C  Rav=1.6408 sigma=0.0000  Rmin=1.6408  Rmax=1.6408     1
 Cl C  Rav=1.7807 sigma=0.0000  Rmin=1.7807  Rmax=1.7807     1

 selected bond angles (degree)
 --------------------
H8-C1-N2=112.50                S16-C1-N2=130.79               S16-C1-H8=116.71               C3-N2-C1=115.37                
C4-N2-C1=128.17                C4-N2-C3=116.45                H11-C3-N2=108.27               H12-C3-N2=109.65               
H12-C3-H11=109.64              H13-C3-N2=109.70               H13-C3-H11=109.53              H13-C3-H12=110.02              
O5-C4-N2=120.17                C6-C4-N2=116.92                C6-C4-O5=122.91                Cl7-C6-C4=110.09               
H14-C6-C4=111.38               H14-C6-Cl7=107.35              H15-C6-C4=111.46               H15-C6-Cl7=107.33              
H15-C6-H14=109.06              

 selected dihedral angles (degree)
 ---------------------------------
C3-N2-C1-H8=  0.94            C3-N2-C1-S16=181.50           C4-N2-C1-H8=180.54            C4-N2-C1-S16=  1.10           
H11-C3-N2-C1=180.95           H11-C3-N2-C4=  1.30           H12-C3-N2-C1=300.53           H12-C3-N2-C4=120.88           
H13-C3-N2-C1= 61.46           H13-C3-N2-C4=241.81           O5-C4-N2-C1=181.44            O5-C4-N2-C3=  1.04            
C6-C4-N2-C1=  1.78            C6-C4-N2-C3=181.38            Cl7-C6-C4-N2=178.07           Cl7-C6-C4-O5=358.42           
H14-C6-C4-N2= 59.11           H14-C6-C4-O5=239.46           H15-C6-C4-N2=297.05           H15-C6-C4-O5=117.40           
           -------------------------------------------------
          |                Final Singlepoint                |
           -------------------------------------------------

          ...................................................
          :                      SETUP                      :
          :.................................................:
          :  # basis functions                  59          :
          :  # atomic orbitals                  57          :
          :  # shells                           31          :
          :  # electrons                        56          :
          :  max. iterations                   250          :
          :  Hamiltonian                  GFN2-xTB          :
          :  restarted?                      false          :
          :  GBSA solvation                   true          :
          :  PC potential                    false          :
          :  electronic temp.          300.0000000     K    :
          :  accuracy                    1.0000000          :
          :  -> integral cutoff          0.2500000E+02      :
          :  -> integral neglect         0.1000000E-07      :
          :  -> SCF convergence          0.1000000E-05 Eh   :
          :  -> wf. convergence          0.1000000E-03 e    :
          :  Broyden damping             0.4000000          :
          :  net charge                         -1          :
          :  unpaired electrons                  0          :
          ...................................................

 iter      E             dE          RMSdq      gap      omega  full diag
   1    -31.7712638 -0.317713E+02  0.500E-05    1.72       0.0  T
   2    -31.7712638 -0.498446E-11  0.364E-05    1.72     613.9  T
   3    -31.7712638 -0.260059E-11  0.283E-05    1.72     788.8  T

   *** convergence criteria satisfied after 3 iterations ***

         #    Occupation            Energy/Eh            Energy/eV
      -------------------------------------------------------------
         1        2.0000           -1.0670114             -29.0349
       ...           ...                  ...                  ...
        22        2.0000           -0.4637061             -12.6181
        23        2.0000           -0.4624448             -12.5838
        24        2.0000           -0.4435497             -12.0696
        25        2.0000           -0.4278625             -11.6427
        26        2.0000           -0.4245443             -11.5524
        27        2.0000           -0.4158413             -11.3156
        28        2.0000           -0.3748312             -10.1997 (HOMO)
        29                         -0.3116063              -8.4792 (LUMO)
        30                         -0.2357438              -6.4149
        31                         -0.1743274              -4.7437
        32                         -0.1538215              -4.1857
        33                         -0.0330069              -0.8982
       ...                                ...                  ...
        57                          0.6217802              16.9195
      -------------------------------------------------------------
                  HL-Gap            0.0632249 Eh            1.7204 eV
             Fermi-level           -0.3432188 Eh           -9.3395 eV

 SCC (total)                   0 d,  0 h,  0 min,  0.009 sec
 SCC setup                      ...        0 min,  0.000 sec (  4.472%)
 Dispersion                     ...        0 min,  0.000 sec (  4.590%)
 classical contributions        ...        0 min,  0.000 sec (  1.223%)
 integral evaluation            ...        0 min,  0.001 sec ( 15.535%)
 iterations                     ...        0 min,  0.003 sec ( 36.956%)
 molecular gradient             ...        0 min,  0.003 sec ( 34.508%)
 printout                       ...        0 min,  0.000 sec (  2.499%)

         :::::::::::::::::::::::::::::::::::::::::::::::::::::
         ::                     SUMMARY                     ::
         :::::::::::::::::::::::::::::::::::::::::::::::::::::
         :: total energy             -31.464559779139 Eh    ::
         :: total w/o Gsasa/hb       -31.360327012714 Eh    ::
         :: gradient norm              0.000252850493 Eh/a0 ::
         :: HOMO-LUMO gap              1.720437513038 eV    ::
         ::.................................................::
         :: SCC energy               -31.771249586469 Eh    ::
         :: -> isotropic ES            0.242847296099 Eh    ::
         :: -> anisotropic ES         -0.005553924546 Eh    ::
         :: -> anisotropic XC          0.012020407079 Eh    ::
         :: -> dispersion             -0.017204918634 Eh    ::
         :: -> Gsolv                  -0.288082041701 Eh    ::
         ::    -> Gelec               -0.183849275275 Eh    ::
         ::    -> Gsasa                0.002023762009 Eh    ::
         ::    -> Ghb                 -0.107337288133 Eh    ::
         ::    -> Gshift               0.001080759698 Eh    ::
         :: repulsion energy           0.306689807330 Eh    ::
         :: add. restraining           0.000000000000 Eh    ::
         :: total charge              -1.000000000000 e     ::
         :::::::::::::::::::::::::::::::::::::::::::::::::::::

           -------------------------------------------------
          |                Property Printout                |
           -------------------------------------------------

    * Orbital Energies and Occupations

         #    Occupation            Energy/Eh            Energy/eV
      -------------------------------------------------------------
         1        2.0000           -1.0670114             -29.0349
       ...           ...                  ...                  ...
        16        2.0000           -0.5148949             -14.0110
        17        2.0000           -0.5139964             -13.9866
        18        2.0000           -0.4953687             -13.4797
        19        2.0000           -0.4793085             -13.0426
        20        2.0000           -0.4761841             -12.9576
        21        2.0000           -0.4638029             -12.6207
        22        2.0000           -0.4637061             -12.6181
        23        2.0000           -0.4624448             -12.5838
        24        2.0000           -0.4435497             -12.0696
        25        2.0000           -0.4278625             -11.6427
        26        2.0000           -0.4245443             -11.5524
        27        2.0000           -0.4158413             -11.3156
        28        2.0000           -0.3748312             -10.1997 (HOMO)
        29                         -0.3116063              -8.4792 (LUMO)
        30                         -0.2357438              -6.4149
        31                         -0.1743274              -4.7437
        32                         -0.1538215              -4.1857
        33                         -0.0330069              -0.8982
        34                         -0.0189413              -0.5154
        35                         -0.0122709              -0.3339
        36                         -0.0017337              -0.0472
        37                          0.0106753               0.2905
        38                          0.0143258               0.3898
        39                          0.0144142               0.3922
       ...                                ...                  ...
        57                          0.6217802              16.9195
      -------------------------------------------------------------
                  HL-Gap            0.0632249 Eh            1.7204 eV
             Fermi-level           -0.3432188 Eh           -9.3395 eV

     #   Z          covCN         q      C6AA      α(0)
     1   6 C        2.840     0.104    25.694     8.307
     2   7 N        2.756    -0.005    21.350     6.863
     3   6 C        3.715    -0.099    22.526     6.781
     4   6 C        2.796     0.289    22.105     7.702
     5   8 O        0.859    -0.399    21.662     6.240
     6   6 C        3.722     0.011    20.507     6.467
     7  17 Cl       0.925    -0.209   105.722    15.730
     8   1 H        0.926     0.129     1.543     1.942
     9   1 H        0.000    -1.000  3074.319   101.384
    10   1 H        0.925     0.045     2.380     2.413
    11   1 H        0.925     0.120     1.612     1.986
    12   1 H        0.925     0.112     1.679     2.026
    13   1 H        0.925     0.110     1.696     2.037
    14   1 H        0.925     0.107     1.726     2.055
    15   1 H        0.925     0.108     1.712     2.046
    16  16 S        1.009    -0.380   155.739    21.107
    17   6 C        3.702    -0.172    24.017     7.008
    18   1 H        0.925     0.037     2.483     2.464
    19   1 H        0.925     0.043     2.411     2.428
    20   1 H        0.925     0.048     2.342     2.393

 Mol. C6AA /au·bohr⁶  :      15538.169461
 Mol. C8AA /au·bohr⁸  :     317346.511307
 Mol. α(0) /au        :        209.378669


Wiberg/Mayer (AO) data.
largest (>0.10) Wiberg bond orders for each atom

 ---------------------------------------------------------------------------
     #   Z sym  total        # sym  WBO       # sym  WBO       # sym  WBO
 ---------------------------------------------------------------------------
     1   6 C    3.944 --    16 S    1.656     2 N    1.289     8 H    0.939
     2   7 N    3.650 --     1 C    1.289     4 C    1.122     3 C    0.955
                            16 S    0.134     5 O    0.121
     3   6 C    3.913 --    13 H    0.968    12 H    0.968    11 H    0.967
                             2 N    0.955
     4   6 C    3.953 --     5 O    1.732     2 N    1.122     6 C    0.994
     5   8 O    2.050 --     4 C    1.732     2 N    0.121
     6   6 C    3.933 --     4 C    0.994     7 Cl   0.949    14 H    0.948
                            15 H    0.947
     7  17 Cl   0.999 --     6 C    0.949
     8   1 H    0.983 --     1 C    0.939
     9   1 H    0.000
    10   1 H    0.998 --    17 C    0.998
    11   1 H    0.986 --     3 C    0.967
    12   1 H    0.987 --     3 C    0.968
    13   1 H    0.988 --     3 C    0.968
    14   1 H    0.989 --     6 C    0.948
    15   1 H    0.988 --     6 C    0.947
    16  16 S    1.966 --     1 C    1.656     2 N    0.134
    17   6 C    3.992 --    10 H    0.998    19 H    0.997    20 H    0.997
                            18 H    0.997
    18   1 H    0.999 --    17 C    0.997
    19   1 H    0.998 --    17 C    0.997
    20   1 H    0.998 --    17 C    0.997
 ---------------------------------------------------------------------------

Topologies differ in total number of bonds
Writing topology from bond orders to xtbtopo.mol

molecular dipole:
                 x           y           z       tot (Debye)
 q only:      -12.028      -7.737      -2.952
   full:      -11.584      -7.341      -2.733      35.544
molecular quadrupole (traceless):
                xx          xy          yy          xz          yz          zz
 q only:      -62.654     -96.964       7.386     -43.094     -43.624      55.268
  q+dip:      -60.760     -95.650       7.266     -41.495     -45.981      53.494
   full:      -60.799     -95.780       7.403     -41.268     -46.343      53.395

           -------------------------------------------------
          |                Geometry Summary                 |
           -------------------------------------------------

      molecular mass/u    :      168.6648609
   center of mass at/Å    :        0.6200224       0.2270086       0.0013917
  moments of inertia/u·Å² :        0.3084677E+03   0.9832906E+03   0.1267594E+04
rotational constants/cm⁻¹ :        0.5464958E-01   0.1714410E-01   0.1329892E-01

 * 16 selected distances

     #   Z          #   Z                                           value/Å
     1   6 C        2   7 N                                       1.3481549
     2   7 N        3   6 C                                       1.4632525
     2   7 N        4   6 C                                       1.3924544
     4   6 C        5   8 O                                       1.2104155
     6   6 C        7  17 Cl                                      1.7807023 (max)
     1   6 C        8   1 H                                       1.0855060
     3   6 C       11   1 H                                       1.0868750
     3   6 C       12   1 H                                       1.0871354
     3   6 C       13   1 H                                       1.0873867
     6   6 C       14   1 H                                       1.0907309
     6   6 C       15   1 H                                       1.0908757
     1   6 C       16  16 S                                       1.6407790
    10   1 H       17   6 C                                       1.0819975
    17   6 C       18   1 H                                       1.0833030
    17   6 C       19   1 H                                       1.0819545 (min)
    17   6 C       20   1 H                                       1.0820001

 * 5 distinct bonds (by element types)

   Z      Z             #   av. dist./Å        max./Å        min./Å
   1 H    6 C          10     1.0857765     1.0908757     1.0819545
   6 C    7 N           3     1.4012872     1.4632525     1.3481549
   6 C    8 O           1     1.2104155     1.2104155     1.2104155
   6 C   16 S           1     1.6407790     1.6407790     1.6407790
   6 C   17 Cl          1     1.7807023     1.7807023     1.7807023


optimized geometry written to: xtbopt.xyz


           -------------------------------------------------
          | TOTAL ENERGY              -31.464559779139 Eh   |
          | GRADIENT NORM               0.000252850493 Eh/α |
          | HOMO-LUMO GAP               1.720437513038 eV   |
           -------------------------------------------------
########################################################################
[WARNING] Runtime exception occurred
-2- restart_readRestart: Dimension missmatch in restart file.
-1- restart_readRestart: Number of electron missmatch in restart file.
########################################################################

------------------------------------------------------------------------
 * finished run on 2026/08/28 at 18:17:50.263     
------------------------------------------------------------------------
 total:
 * wall-time:     0 d,  0 h,  0 min,  1.737 sec
 *  cpu-time:     0 d,  0 h,  0 min, 10.453 sec
 * ratio c/w:     6.016 speedup
 SCF:
 * wall-time:     0 d,  0 h,  0 min,  0.032 sec
 *  cpu-time:     0 d,  0 h,  0 min,  0.109 sec
 * ratio c/w:     3.409 speedup
 ANC optimizer:
 * wall-time:     0 d,  0 h,  0 min,  1.666 sec
 *  cpu-time:     0 d,  0 h,  0 min, 10.312 sec
 * ratio c/w:     6.189 speedup

