      -----------------------------------------------------------      
     |                   =====================                   |     
     |                           x T B                           |     
     |                   =====================                   |     
     |                         S. Grimme                         |     
     |          Mulliken Center for Theoretical Chemistry        |     
     |                    University of Bonn                     |     
      -----------------------------------------------------------      

   * xtb version 6.7.1 (edcfbbe) compiled by 'VssAdministrator@runnervm171ch' on 2026-06-10

   xtb is free software: you can redistribute it and/or modify it under
   the terms of the GNU Lesser General Public License as published by
   the Free Software Foundation, either version 3 of the License, or
   (at your option) any later version.
   
   xtb is distributed in the hope that it will be useful,
   but WITHOUT ANY WARRANTY; without even the implied warranty of
   MERCHANTABILITY or FITNESS FOR A PARTICULAR PURPOSE.  See the
   GNU Lesser General Public License for more details.
   
   Cite this work as:
   * C. Bannwarth, E. Caldeweyher, S. Ehlert, A. Hansen, P. Pracht,
     J. Seibert, S. Spicher, S. Grimme, WIREs Comput. Mol. Sci., 2020, 11,
     e01493. DOI: 10.1002/wcms.1493
   
   for GFN2-xTB:
   * C. Bannwarth, S. Ehlert and S. Grimme., J. Chem. Theory Comput., 2019,
     15, 1652-1671. DOI: 10.1021/acs.jctc.8b01176
   for GFN1-xTB:
   * S. Grimme, C. Bannwarth, P. Shushkov, J. Chem. Theory Comput., 2017,
     13, 1989-2009. DOI: 10.1021/acs.jctc.7b00118
   for GFN0-xTB:
   * P. Pracht, E. Caldeweyher, S. Ehlert, S. Grimme, ChemRxiv, 2019, preprint.
     DOI: 10.26434/chemrxiv.8326202.v1
   for GFN-FF:
   * S. Spicher and S. Grimme, Angew. Chem. Int. Ed., 2020, 59, 15665-15673.
     DOI: 10.1002/anie.202004239
   
   for ALPB and GBSA implicit solvation:
   * S. Ehlert, M. Stahn, S. Spicher, S. Grimme, J. Chem. Theory Comput.,
     2021, 17, 4250-4261. DOI: 10.1021/acs.jctc.1c00471
   
   for ddCOSMO and CPCM-X implicit solvation:
   * M. Stahn, S. Ehlert, S. Grimme, J. Phys. Chem. A,
     2023, XX, XXXX-XXXX. DOI: 10.1021/acs.jpca.3c04382
   
   for DFT-D4:
   * E. Caldeweyher, C. Bannwarth and S. Grimme, J. Chem. Phys., 2017,
     147, 034112. DOI: 10.1063/1.4993215
   * E. Caldeweyher, S. Ehlert, A. Hansen, H. Neugebauer, S. Spicher,
     C. Bannwarth and S. Grimme, J. Chem. Phys., 2019, 150, 154122.
     DOI: 10.1063/1.5090222
   * E. Caldeweyher, J.-M. Mewes, S. Ehlert and S. Grimme, Phys. Chem. Chem. Phys.
     2020, 22, 8499-8512. DOI: 10.1039/D0CP00502A
   
   for sTDA-xTB:
   * S. Grimme and C. Bannwarth, J. Chem. Phys., 2016, 145, 054103.
     DOI: 10.1063/1.4959605
   
   in the mass-spec context:
   * V. Asgeirsson, C. Bauer and S. Grimme, Chem. Sci., 2017, 8, 4879.
     DOI: 10.1039/c7sc00601b
   * J. Koopman and S. Grimme, ACS Omega 2019, 4, 12, 15120-15133.
     DOI: 10.1021/acsomega.9b02011
   
   for metadynamics refer to:
   * S. Grimme, J. Chem. Theory Comput., 2019, 155, 2847-2862
     DOI: 10.1021/acs.jctc.9b00143
   
   for SPH calculations refer to:
   * S. Spicher and S. Grimme, J. Chem. Theory Comput., 2021, 17, 1701-1714
     DOI: 10.1021/acs.jctc.0c01306
   
   for ONIOM refer to:
   * C. Plett, A. Katbashev, S. Ehlert, S. Grimme, M. Bursch,
     Phys. Chem. Chem. Phys., 2023, 25, 17860-17868. DOI: 10.1039/D3CP02178E
   
   for DIPRO refer to:
   * J. Kohn, N. Gildemeister, S. Grimme, D. Fazzi, A. Hansen,
     J. Chem. Phys., 2023, just accepted.
   
   for PTB refer to:
   * S. Grimme, M. Mueller, A. Hansen, J. Chem. Phys., 2023, 158, 124111.
     DOI: 10.1063/5.0137838
   
   with help from (in alphabetical order)
   P. Atkinson, C. Bannwarth, F. Bohle, G. Brandenburg, E. Caldeweyher
   M. Checinski, S. Dohm, S. Ehlert, S. Ehrlich, I. Gerasimov, C. Hölzer
   A. Katbashev, J. Kohn, J. Koopman, C. Lavigne, S. Lehtola, F. März, M. Müller,
   F. Musil, H. Neugebauer, J. Pisarek, C. Plett, P. Pracht, F. Pultar,
   J. Seibert, P. Shushkov, S. Spicher, M. Stahn, M. Steiner, T. Strunk,
   J. Stückrath, T. Rose, and J. Unsleber
   
 * started run on 2026/08/28 at 18:17:47.881     
   ID    Z sym.   atoms
    1    6 C      1, 3, 4, 6, 17
    2    7 N      2
    3    8 O      5
    4   17 Cl     7
    5    1 H      8-15, 18-20
    6   34 Se     16

           -------------------------------------------------
          |                Calculation Setup                |
           -------------------------------------------------

          program call               : C:\Users\Christian\Miniconda3\Library\bin\xtb.exe complex_Se.xyz --gfn 2 --chrg -1 --alpb water --opt tight
          coordinate file            : complex_Se.xyz
          omp threads                :                    12


           -------------------------------------------------
          |                 G F N 2 - x T B                 |
           -------------------------------------------------

        Reference                      10.1021/acs.jctc.8b01176
      * Hamiltonian:
        H0-scaling (s, p, d)           1.850000    2.230000    2.230000
        zeta-weighting                 0.500000
      * Dispersion:
        s8                             2.700000
        a1                             0.520000
        a2                             5.000000
        s9                             5.000000
      * Repulsion:
        kExp                           1.500000    1.000000
        rExp                           1.000000
      * Coulomb:
        alpha                          2.000000
        third order                    shell-resolved
        anisotropic                    true
        a3                             3.000000
        a5                             4.000000
        cn-shift                       1.200000
        cn-exp                         4.000000
        max-rad                        5.000000

      * Solvation model:               ALPB
        Solvent                        water
        Parameter file                 internal GFN2-xTB/ALPB
        Dielectric constant                8.0200E+01
        Reference state                gsolv [1 M gas/solution]
        Free energy shift                  1.0808E-03 Eh       6.7819E-01 kcal/mol
        Temperature                        2.9815E+02 K
        Density                            1.0000E+00 kg/L
        Solvent mass                       1.8000E+01 g/mol
        Interaction kernel             P16
        Born radius scaling (c1)           1.4744E+00
        Born radii integrator          GBOBC
        Born offset                        0.0000E+00 a0       0.0000E+00 AA
        H-bond correction              true
        Ion screening                  false
        Surface tension                    1.0000E-05 Eh       1.5569E+01 dyn/cm
        Grid points                               230 per atom

          ...................................................
          :                      SETUP                      :
          :.................................................:
          :  # basis functions                  59          :
          :  # atomic orbitals                  57          :
          :  # shells                           31          :
          :  # electrons                        56          :
          :  max. iterations                   250          :
          :  Hamiltonian                  GFN2-xTB          :
          :  restarted?                      false          :
          :  GBSA solvation                   true          :
          :  PC potential                    false          :
          :  electronic temp.          300.0000000     K    :
          :  accuracy                    1.0000000          :
          :  -> integral cutoff          0.2500000E+02      :
          :  -> integral neglect         0.1000000E-07      :
          :  -> SCF convergence          0.1000000E-05 Eh   :
          :  -> wf. convergence          0.1000000E-03 e    :
          :  Broyden damping             0.4000000          :
          :  net charge                         -1          :
          :  unpaired electrons                  0          :
          ...................................................

 iter      E             dE          RMSdq      gap      omega  full diag
   1    -30.0747699 -0.300748E+02  0.119E+01    1.14       0.0  T
   2    -30.5077437 -0.432974E+00  0.113E+01    2.17       1.0  T
   3    -31.0146513 -0.506908E+00  0.869E+00    1.77       1.0  T
   4    -32.5356589 -0.152101E+01  0.901E+00    2.40       1.0  T
   5    -32.8345383 -0.298879E+00  0.879E+00    2.38       1.0  T
   6    -30.3888969  0.244564E+01  0.986E+00    0.53       1.0  T
   7    -30.2190269  0.169870E+00  0.101E+01    0.60       1.0  T
   8    -30.2189645  0.623509E-04  0.101E+01    0.62       1.0  T
   9    -30.2479078 -0.289433E-01  0.998E+00    0.60       1.0  T
  10    -30.4971751 -0.249267E+00  0.754E+00    0.69       1.0  T
  11    -32.4402964 -0.194312E+01  0.153E+01    1.92       1.0  T
  12    -36.1273692 -0.368707E+01  0.175E+01    0.47       1.0  T
  13    -35.1945319  0.932837E+00  0.174E+01    0.59       1.0  T
  14    -34.5926581  0.601874E+00  0.171E+01    0.80       1.0  T
  15    -34.8980143 -0.305356E+00  0.174E+01    0.74       1.0  T
  16    -34.7379381  0.160076E+00  0.169E+01    0.72       1.0  T
  17    -32.1195465  0.261839E+01  0.119E+01    1.52       1.0  T
  18    -31.6123132  0.507233E+00  0.102E+01    1.66       1.0  T
  19    -31.3389668  0.273346E+00  0.982E+00    1.79       1.0  T
  20    -30.5058555  0.833111E+00  0.784E+00    1.00       1.0  T
  21    -30.1420647  0.363791E+00  0.972E+00    0.79       1.0  T
  22    -30.1010071  0.410576E-01  0.986E+00    0.80       1.0  T
  23    -30.3950283 -0.294021E+00  0.880E+00    0.83       1.0  T
  24    -30.3858319  0.919635E-02  0.945E+00    0.77       1.0  T
  25    -30.5402560 -0.154424E+00  0.954E+00    0.78       1.0  T
  26    -30.7759261 -0.235670E+00  0.100E+01    0.94       1.0  T
  27    -30.7950270 -0.191009E-01  0.988E+00    0.99       1.0  T
  28    -30.5240085  0.271019E+00  0.836E+00    0.80       1.0  T
  29    -30.5419876 -0.179791E-01  0.794E+00    0.85       1.0  T
  30    -30.5202217  0.217660E-01  0.775E+00    0.83       1.0  T
  31    -30.5460934 -0.258718E-01  0.784E+00    0.86       1.0  T
  32    -30.5184173  0.276761E-01  0.772E+00    0.83       1.0  T
  33    -30.4455090  0.729083E-01  0.727E+00    0.71       1.0  T
  34    -30.4307605  0.147485E-01  0.670E+00    0.69       1.0  T
  35    -30.3902758  0.404847E-01  0.672E+00    0.66       1.0  T
  36    -30.5353382 -0.145062E+00  0.638E+00    0.84       1.0  T
  37    -30.5178969  0.174413E-01  0.637E+00    0.82       1.0  T
  38    -30.4658873  0.520095E-01  0.635E+00    0.75       1.0  T
  39    -30.3336578  0.132230E+00  0.642E+00    0.65       1.0  T
  40    -30.3451557 -0.114979E-01  0.637E+00    0.66       1.0  T
  41    -30.3547229 -0.956718E-02  0.634E+00    0.67       1.0  T
  42    -30.5179262 -0.163203E+00  0.614E+00    0.88       1.0  T
  43    -30.8766521 -0.358726E+00  0.761E+00    1.59       1.0  T
  44    -31.3380924 -0.461440E+00  0.106E+01    2.04       1.0  T
  45    -32.1452658 -0.807173E+00  0.146E+01    1.93       1.0  T
  46    -32.7040436 -0.558778E+00  0.162E+01    1.59       1.0  T
  47    -32.3313768  0.372667E+00  0.150E+01    1.83       1.0  T
  48    -31.5436581  0.787719E+00  0.115E+01    2.14       1.0  T
  49    -31.2916301  0.252028E+00  0.101E+01    2.01       1.0  T
  50    -31.6772174 -0.385587E+00  0.130E+01    2.04       1.0  T
  51    -31.7396107 -0.623933E-01  0.136E+01    2.01       1.0  T
  52    -31.0878423  0.651768E+00  0.982E+00    1.74       1.0  T
  53    -30.9642894  0.123553E+00  0.942E+00    1.47       1.0  T
  54    -31.0536732 -0.893838E-01  0.106E+01    1.58       1.0  T
  55    -30.7330669  0.320606E+00  0.952E+00    0.96       1.0  T
  56    -30.8064820 -0.734151E-01  0.102E+01    1.06       1.0  T
  57    -30.7344921  0.719899E-01  0.102E+01    0.91       1.0  T
  58    -30.4159931  0.318499E+00  0.103E+01    0.54       1.0  T
  59    -30.2283839  0.187609E+00  0.993E+00    0.50       1.0  T
  60    -30.1000149  0.128369E+00  0.995E+00    0.52       1.0  T
  61    -30.0305301  0.694848E-01  0.103E+01    0.53       1.0  T
  62    -30.0708502 -0.403201E-01  0.101E+01    0.52       1.0  T
  63    -30.0689387  0.191147E-02  0.991E+00    0.53       1.0  T
  64    -30.2318172 -0.162878E+00  0.923E+00    0.51       1.0  T
  65    -30.1904123  0.414048E-01  0.890E+00    0.55       1.0  T
  66    -30.2207626 -0.303502E-01  0.858E+00    0.57       1.0  T
  67    -30.2971808 -0.764183E-01  0.801E+00    0.61       1.0  T
  68    -30.2849868  0.121940E-01  0.757E+00    0.66       1.0  T
  69    -30.3907574 -0.105771E+00  0.695E+00    0.75       1.0  T
  70    -30.3905422  0.215278E-03  0.663E+00    0.80       1.0  T
  71    -30.4673469 -0.768047E-01  0.623E+00    0.95       1.0  T
  72    -30.4823240 -0.149771E-01  0.612E+00    1.00       1.0  T
  73    -30.4907889 -0.846493E-02  0.610E+00    1.02       1.0  T
  74    -30.4886692  0.211970E-02  0.613E+00    1.01       1.0  T
  75    -30.4548755  0.337937E-01  0.619E+00    0.94       1.0  T
  76    -30.4152021  0.396735E-01  0.634E+00    0.85       1.0  T
  77    -30.3728390  0.423631E-01  0.651E+00    0.80       1.0  T
  78    -30.3295911  0.432479E-01  0.671E+00    0.75       1.0  T
  79    -30.3051130  0.244781E-01  0.684E+00    0.74       1.0  T
  80    -30.3002928  0.482016E-02  0.687E+00    0.73       1.0  T
  81    -30.3376415 -0.373487E-01  0.666E+00    0.77       1.0  T
  82    -30.4140808 -0.764393E-01  0.631E+00    0.89       1.0  T
  83    -30.5071605 -0.930798E-01  0.617E+00    1.09       1.0  T
  84    -30.5841065 -0.769460E-01  0.627E+00    1.26       1.0  T
  85    -30.6260983 -0.419918E-01  0.637E+00    1.36       1.0  T
  86    -30.6330789 -0.698053E-02  0.638E+00    1.37       1.0  T
  87    -30.6202788  0.128000E-01  0.635E+00    1.34       1.0  T
  88    -30.6170862  0.319266E-02  0.638E+00    1.31       1.0  T
  89    -30.6750175 -0.579313E-01  0.659E+00    1.39       1.0  T
  90    -30.6893212 -0.143037E-01  0.660E+00    1.42       1.0  T
  91    -30.6707030  0.186182E-01  0.650E+00    1.39       1.0  T
  92    -30.6048886  0.658144E-01  0.625E+00    1.24       1.0  T
  93    -30.5288081  0.760805E-01  0.606E+00    1.07       1.0  T
  94    -30.4508757  0.779324E-01  0.600E+00    0.90       1.0  T
  95    -30.3464852  0.104391E+00  0.623E+00    0.76       1.0  T
  96    -30.3441327  0.235245E-02  0.624E+00    0.76       1.0  T
  97    -30.3990731 -0.549404E-01  0.603E+00    0.83       1.0  T
  98    -30.5232610 -0.124188E+00  0.601E+00    1.07       1.0  T
  99    -30.6449853 -0.121724E+00  0.639E+00    1.31       1.0  T
 100    -30.7468918 -0.101907E+00  0.685E+00    1.52       1.0  T
 101    -30.8281911 -0.812993E-01  0.723E+00    1.68       1.0  T
 102    -30.8621503 -0.339592E-01  0.739E+00    1.75       1.0  T
 103    -30.8280045  0.341458E-01  0.724E+00    1.68       1.0  T
 104    -30.7739933  0.540112E-01  0.704E+00    1.55       1.0  T
 105    -30.8241085 -0.501152E-01  0.744E+00    1.58       1.0  T
 106    -30.8522675 -0.281590E-01  0.765E+00    1.59       1.0  T
 107    -30.7168736  0.135394E+00  0.685E+00    1.28       1.0  T
 108    -30.5760440  0.140830E+00  0.627E+00    0.95       1.0  T
 109    -30.5056767  0.703673E-01  0.617E+00    0.81       1.0  T
 110    -30.4732563  0.324204E-01  0.617E+00    0.76       1.0  T
 111    -30.4731457  0.110616E-03  0.618E+00    0.77       1.0  T
 112    -30.3262376  0.146908E+00  0.659E+00    0.62       1.0  T
 113    -30.2740741  0.521635E-01  0.688E+00    0.60       1.0  T
 114    -30.3009740 -0.268999E-01  0.671E+00    0.61       1.0  T
 115    -30.3870242 -0.860502E-01  0.623E+00    0.70       1.0  T
 116    -30.4179488 -0.309246E-01  0.606E+00    0.79       1.0  T
 117    -30.4485502 -0.306014E-01  0.602E+00    0.87       1.0  T
 118    -30.4786743 -0.301241E-01  0.605E+00    0.94       1.0  T
 119    -30.4799518 -0.127751E-02  0.605E+00    0.94       1.0  T
 120    -30.4362806  0.436712E-01  0.604E+00    0.85       1.0  T
 121    -30.3845867  0.516939E-01  0.614E+00    0.78       1.0  T
 122    -30.3610633  0.235234E-01  0.622E+00    0.75       1.0  T
 123    -30.3784816 -0.174182E-01  0.616E+00    0.77       1.0  T
 124    -30.4711596 -0.926780E-01  0.606E+00    0.90       1.0  T
 125    -30.5470669 -0.759073E-01  0.621E+00    1.03       1.0  T
 126    -30.5780366 -0.309698E-01  0.631E+00    1.09       1.0  T
 127    -30.5611110  0.169257E-01  0.625E+00    1.06       1.0  T
 128    -30.5081908  0.529202E-01  0.613E+00    0.96       1.0  T
 129    -30.4003168  0.107874E+00  0.617E+00    0.80       1.0  T
 130    -30.2682707  0.132046E+00  0.680E+00    0.73       1.0  T
 131    -30.1406550  0.127616E+00  0.777E+00    0.74       1.0  T
 132    -29.9277859  0.212869E+00  0.958E+00    0.83       1.0  T
 133    -29.7511320  0.176654E+00  0.109E+01    0.97       1.0  T
 134    -29.7599291 -0.879718E-02  0.109E+01    0.95       1.0  T
 135    -29.6948236  0.651055E-01  0.113E+01    0.98       1.0  T
 136    -29.6218460  0.729776E-01  0.120E+01    1.05       1.0  T
 137    -29.6333853 -0.115393E-01  0.119E+01    1.04       1.0  T
 138    -29.6639182 -0.305328E-01  0.117E+01    0.98       1.0  T
 139    -29.5958757  0.680424E-01  0.122E+01    1.01       1.0  T
 140    -29.6012421 -0.536635E-02  0.122E+01    0.99       1.0  T
 141    -29.5204510  0.807911E-01  0.127E+01    0.99       1.0  T
 142    -29.5670123 -0.465613E-01  0.123E+01    0.94       1.0  T
 143    -29.5300599  0.369525E-01  0.126E+01    0.94       1.0  T
 144    -29.5435083 -0.134484E-01  0.125E+01    0.93       1.0  T
 145    -29.5452242 -0.171588E-02  0.124E+01    0.91       1.0  T
 146    -29.6298760 -0.846519E-01  0.116E+01    0.77       1.0  T
 147    -29.6521355 -0.222595E-01  0.112E+01    0.73       1.0  T
 148    -29.6617226 -0.958708E-02  0.112E+01    0.73       1.0  T
 149    -29.6336526  0.280701E-01  0.115E+01    0.75       1.0  T
 150    -29.5753383  0.583143E-01  0.120E+01    0.80       1.0  T
 151    -29.5990052 -0.236669E-01  0.119E+01    0.77       1.0  T
 152    -29.6274326 -0.284274E-01  0.116E+01    0.75       1.0  T
 153    -29.6404281 -0.129955E-01  0.115E+01    0.75       1.0  T
 154    -29.7321207 -0.916926E-01  0.107E+01    0.70       1.0  T
 155    -29.8174129 -0.852922E-01  0.991E+00    0.66       1.0  T
 156    -29.9489006 -0.131488E+00  0.864E+00    0.61       1.0  T
 157    -30.0474411 -0.985405E-01  0.766E+00    0.58       1.0  T
 158    -30.1268169 -0.793758E-01  0.692E+00    0.58       1.0  T
 159    -30.1700514 -0.432345E-01  0.657E+00    0.58       1.0  T
 160    -30.2032983 -0.332469E-01  0.634E+00    0.58       1.0  T
 161    -30.2101446 -0.684621E-02  0.629E+00    0.58       1.0  T
 162    -30.2291575 -0.190130E-01  0.618E+00    0.59       1.0  T
 163    -30.2271559  0.200159E-02  0.619E+00    0.59       1.0  T
 164    -30.2775328 -0.503768E-01  0.595E+00    0.60       1.0  T
 165    -30.2835130 -0.598022E-02  0.596E+00    0.61       1.0  T
 166    -30.5415553 -0.258042E+00  0.598E+00    1.04       1.0  T
 167    -30.5798941 -0.383388E-01  0.646E+00    1.43       1.0  T
 168    -30.7054295 -0.125535E+00  0.668E+00    1.78       1.0  T
 169    -30.5122135  0.193216E+00  0.607E+00    1.38       1.0  T
 170    -30.4989641  0.132493E-01  0.591E+00    1.25       1.0  T
 171    -30.4861572  0.128069E-01  0.589E+00    1.22       1.0  T
 172    -30.5565842 -0.704270E-01  0.592E+00    1.38       1.0  T
 173    -30.7209370 -0.164353E+00  0.628E+00    1.75       1.0  T
 174    -30.8486272 -0.127690E+00  0.662E+00    2.05       1.0  T
 175    -30.9336550 -0.850278E-01  0.686E+00    2.20       1.0  T
 176    -30.9528577 -0.192027E-01  0.692E+00    2.23       1.0  T
 177    -30.9808126 -0.279549E-01  0.696E+00    2.22       1.0  T
 178    -31.0122463 -0.314337E-01  0.704E+00    2.23       1.0  T
 179    -31.0113587  0.887657E-03  0.705E+00    2.22       1.0  T
 180    -30.9880117  0.233470E-01  0.700E+00    2.18       1.0  T
 181    -30.9354419  0.525697E-01  0.688E+00    2.02       1.0  T
 182    -30.8921427  0.432992E-01  0.678E+00    1.87       1.0  T
 183    -30.7863585  0.105784E+00  0.640E+00    1.60       1.0  T
 184    -30.6049312  0.181427E+00  0.569E+00    1.15       1.0  T
 185    -30.4686987  0.136232E+00  0.541E+00    0.84       1.0  T
 186    -30.3919209  0.767778E-01  0.553E+00    0.73       1.0  T
 187    -30.3324616  0.594593E-01  0.576E+00    0.68       1.0  T
 188    -30.3144850  0.179766E-01  0.586E+00    0.67       1.0  T
 189    -30.3096552  0.482977E-02  0.589E+00    0.67       1.0  T
 190    -30.3222056 -0.125504E-01  0.581E+00    0.67       1.0  T
 191    -30.3478664 -0.256608E-01  0.568E+00    0.69       1.0  T
 192    -30.3815282 -0.336618E-01  0.555E+00    0.72       1.0  T
 193    -30.4217318 -0.402037E-01  0.546E+00    0.78       1.0  T
 194    -30.4644871 -0.427552E-01  0.543E+00    0.86       1.0  T
 195    -30.5131371 -0.486500E-01  0.547E+00    0.95       1.0  T
 196    -30.5699834 -0.568463E-01  0.560E+00    1.06       1.0  T
 197    -30.6283839 -0.584005E-01  0.579E+00    1.18       1.0  T
 198    -30.6892272 -0.608433E-01  0.604E+00    1.30       1.0  T
 199    -30.7675867 -0.783596E-01  0.638E+00    1.45       1.0  T
 200    -30.8958180 -0.128231E+00  0.695E+00    1.70       1.0  T
 201    -31.1726706 -0.276853E+00  0.818E+00    2.12       1.0  T
 202    -31.9870519 -0.814381E+00  0.113E+01    2.32       1.0  T
 203    -34.2636477 -0.227660E+01  0.156E+01    1.16       1.0  T
 204    -37.5726734 -0.330903E+01  0.176E+01    0.58       1.0  T
 205    -38.2957261 -0.723053E+00  0.174E+01    0.56       1.0  T
 206    -38.2900803  0.564583E-02  0.174E+01    0.56       1.0  T
 207    -38.4861865 -0.196106E+00  0.172E+01    0.57       1.0  T
 208    -38.6315442 -0.145358E+00  0.171E+01    0.57       1.0  T
 209    -38.6235216  0.802260E-02  0.170E+01    0.57       1.0  T
 210    -38.6576941 -0.341725E-01  0.170E+01    0.57       1.0  T
 211    -38.3978618  0.259832E+00  0.169E+01    0.56       1.0  T
 212    -38.5035225 -0.105661E+00  0.169E+01    0.56       1.0  T
 213    -38.4522624  0.512602E-01  0.169E+01    0.57       1.0  T
 214    -38.4346436  0.176188E-01  0.168E+01    0.57       1.0  T
 215    -38.3445426  0.901010E-01  0.169E+01    0.57       1.0  T
 216    -38.4296784 -0.851358E-01  0.169E+01    0.58       1.0  T
 217    -38.6300740 -0.200396E+00  0.167E+01    0.55       1.0  T
 218    -38.6859626 -0.558886E-01  0.166E+01    0.52       1.0  T
 219    -38.7039654 -0.180028E-01  0.166E+01    0.52       1.0  T
 220    -38.7144290 -0.104637E-01  0.166E+01    0.53       1.0  T
 221    -39.0730047 -0.358576E+00  0.164E+01    0.54       1.0  T
 222    -39.0779271 -0.492244E-02  0.164E+01    0.55       1.0  T
 223    -39.0746608  0.326632E-02  0.164E+01    0.55       1.0  T
 224    -38.9604641  0.114197E+00  0.166E+01    0.55       1.0  T
 225    -39.0380950 -0.776308E-01  0.164E+01    0.52       1.0  T
 226    -39.0286046  0.949043E-02  0.163E+01    0.52       1.0  T
 227    -39.0756780 -0.470734E-01  0.163E+01    0.53       1.0  T
 228    -39.0714262  0.425171E-02  0.163E+01    0.53       1.0  T
 229    -39.0539433  0.174829E-01  0.164E+01    0.53       1.0  T
 230    -39.0630198 -0.907647E-02  0.164E+01    0.53       1.0  T
 231    -39.0372032  0.258166E-01  0.164E+01    0.53       1.0  T
 232    -39.0362905  0.912696E-03  0.164E+01    0.53       1.0  T
 233    -39.0348808  0.140969E-02  0.164E+01    0.53       1.0  T
 234    -39.0320062  0.287459E-02  0.164E+01    0.54       1.0  T
 235    -39.0131567  0.188496E-01  0.165E+01    0.55       1.0  T
 236    -39.0072893  0.586732E-02  0.165E+01    0.55       1.0  T
 237    -38.9246438  0.826455E-01  0.167E+01    0.55       1.0  T
 238    -38.9861118 -0.614680E-01  0.166E+01    0.55       1.0  T
 239    -38.9945331 -0.842125E-02  0.166E+01    0.54       1.0  T
 240    -39.0027819 -0.824885E-02  0.166E+01    0.54       1.0  T
 241    -39.0123155 -0.953353E-02  0.165E+01    0.54       1.0  T
 242    -39.0137241 -0.140860E-02  0.165E+01    0.53       1.0  T
 243    -39.0643642 -0.506401E-01  0.164E+01    0.53       1.0  T
 244    -39.0491888  0.151754E-01  0.163E+01    0.51       1.0  T
 245    -39.0490974  0.914177E-04  0.163E+01    0.51       1.0  T
 246    -39.0364011  0.126963E-01  0.163E+01    0.51       1.0  T
 247    -39.0344388  0.196232E-02  0.163E+01    0.51       1.0  T
 248    -38.9839633  0.504755E-01  0.164E+01    0.49       1.0  T
 249    -38.9549896  0.289736E-01  0.163E+01    0.48       1.0  T
 250    -38.9412144  0.137752E-01  0.164E+01    0.47       1.0  T

   *** convergence criteria cannot be satisfied within 250 iterations ***

         #    Occupation            Energy/Eh            Energy/eV
      -------------------------------------------------------------
         1        2.0000           -2.9729279             -80.8975
       ...           ...                  ...                  ...
        22        2.0000           -0.6739457             -18.3390
        23        2.0000           -0.6477175             -17.6253
        24        2.0000           -0.6344922             -17.2654
        25        2.0000           -0.6293534             -17.1256
        26        2.0000           -0.6261793             -17.0392
        27        2.0000           -0.6058120             -16.4850
        28        1.9998           -0.5924222             -16.1206 (HOMO)
        29        0.0002           -0.5751640             -15.6510 (LUMO)
        30                         -0.5198137             -14.1449
        31                         -0.4114560             -11.1963
        32                         -0.3671774              -9.9914
        33                         -0.3092156              -8.4142
       ...                                ...                  ...
        57                          8.0900812             220.1423
      -------------------------------------------------------------
                  HL-Gap            0.0172582 Eh            0.4696 eV
             Fermi-level           -0.5837931 Eh          -15.8858 eV

 SCC (total)                   0 d,  0 h,  0 min,  0.407 sec
 SCC setup                      ...        0 min,  0.001 sec (  0.149%)
 Dispersion                     ...        0 min,  0.000 sec (  0.094%)
 classical contributions        ...        0 min,  0.000 sec (  0.027%)
 integral evaluation            ...        0 min,  0.004 sec (  1.063%)
 iterations                     ...        0 min,  0.397 sec ( 97.626%)
 molecular gradient             ...        0 min,  0.004 sec (  0.940%)
 printout                       ...        0 min,  0.000 sec (  0.094%)

########################################################################
[ERROR] Program stopped due to fatal error
-5- Single point calculation terminated
-4- xtb_calculator_singlepoint: Electronic structure method terminated
-3- scf: Self consistent charge iterator did not converge
-2- restart_readRestart: Dimension missmatch in restart file.
-1- restart_readRestart: Number of electron missmatch in restart file.
########################################################################
