20
 energy: -31.464559779139 gnorm: 0.000252850493 xtb: 6.7.1 (edcfbbe)
C           -0.52051930383318        0.37012276031710        0.93556893519053
N           -0.24374556892858       -0.42990683941185       -0.11365465756105
C           -1.32767956850188       -1.32299569728658       -0.52424789619137
C            0.93433216413984       -0.50390018535732       -0.85229303535124
O            1.01718830178705       -1.26375799081530       -1.79083247640762
C            2.06957953001117        0.38914079278550       -0.41822354398348
Cl           3.49593478370778        0.10864989830390       -1.44668623757115
H           -1.51992819437802        0.20999568546693        1.32782421840172
H            5.15237257260580        3.69479937319127        1.80354111974233
H           -4.01726611405910        1.52525371905331        1.23733114437911
H           -0.97729673924318       -1.92200077077751       -1.36074168131888
H           -1.59823397339941       -1.97394502612680        0.30335611872234
H           -2.18924339618498       -0.73589703539470       -0.83316958645730
H            2.36548955102973        0.18413577115889        0.61138992688881
H            1.80530119188337        1.44355712782763       -0.50972559259253
S            0.38736431235712        1.51835445784897        1.67682901129608
C           -3.83887084526479        1.48944059159813        2.30391956562321
H           -2.85752361324155        1.89380925516175        2.52068852898569
H           -4.58703063125609        2.08404772437275        2.81119119920790
H           -3.89836345923362        0.46711338808074        2.65324993900111
