      -----------------------------------------------------------      
     |                   =====================                   |     
     |                           x T B                           |     
     |                   =====================                   |     
     |                         S. Grimme                         |     
     |          Mulliken Center for Theoretical Chemistry        |     
     |                    University of Bonn                     |     
      -----------------------------------------------------------      

   * xtb version 6.7.1 (edcfbbe) compiled by 'VssAdministrator@runnervm171ch' on 2026-06-10

   xtb is free software: you can redistribute it and/or modify it under
   the terms of the GNU Lesser General Public License as published by
   the Free Software Foundation, either version 3 of the License, or
   (at your option) any later version.
   
   xtb is distributed in the hope that it will be useful,
   but WITHOUT ANY WARRANTY; without even the implied warranty of
   MERCHANTABILITY or FITNESS FOR A PARTICULAR PURPOSE.  See the
   GNU Lesser General Public License for more details.
   
   Cite this work as:
   * C. Bannwarth, E. Caldeweyher, S. Ehlert, A. Hansen, P. Pracht,
     J. Seibert, S. Spicher, S. Grimme, WIREs Comput. Mol. Sci., 2020, 11,
     e01493. DOI: 10.1002/wcms.1493
   
   for GFN2-xTB:
   * C. Bannwarth, S. Ehlert and S. Grimme., J. Chem. Theory Comput., 2019,
     15, 1652-1671. DOI: 10.1021/acs.jctc.8b01176
   for GFN1-xTB:
   * S. Grimme, C. Bannwarth, P. Shushkov, J. Chem. Theory Comput., 2017,
     13, 1989-2009. DOI: 10.1021/acs.jctc.7b00118
   for GFN0-xTB:
   * P. Pracht, E. Caldeweyher, S. Ehlert, S. Grimme, ChemRxiv, 2019, preprint.
     DOI: 10.26434/chemrxiv.8326202.v1
   for GFN-FF:
   * S. Spicher and S. Grimme, Angew. Chem. Int. Ed., 2020, 59, 15665-15673.
     DOI: 10.1002/anie.202004239
   
   for ALPB and GBSA implicit solvation:
   * S. Ehlert, M. Stahn, S. Spicher, S. Grimme, J. Chem. Theory Comput.,
     2021, 17, 4250-4261. DOI: 10.1021/acs.jctc.1c00471
   
   for ddCOSMO and CPCM-X implicit solvation:
   * M. Stahn, S. Ehlert, S. Grimme, J. Phys. Chem. A,
     2023, XX, XXXX-XXXX. DOI: 10.1021/acs.jpca.3c04382
   
   for DFT-D4:
   * E. Caldeweyher, C. Bannwarth and S. Grimme, J. Chem. Phys., 2017,
     147, 034112. DOI: 10.1063/1.4993215
   * E. Caldeweyher, S. Ehlert, A. Hansen, H. Neugebauer, S. Spicher,
     C. Bannwarth and S. Grimme, J. Chem. Phys., 2019, 150, 154122.
     DOI: 10.1063/1.5090222
   * E. Caldeweyher, J.-M. Mewes, S. Ehlert and S. Grimme, Phys. Chem. Chem. Phys.
     2020, 22, 8499-8512. DOI: 10.1039/D0CP00502A
   
   for sTDA-xTB:
   * S. Grimme and C. Bannwarth, J. Chem. Phys., 2016, 145, 054103.
     DOI: 10.1063/1.4959605
   
   in the mass-spec context:
   * V. Asgeirsson, C. Bauer and S. Grimme, Chem. Sci., 2017, 8, 4879.
     DOI: 10.1039/c7sc00601b
   * J. Koopman and S. Grimme, ACS Omega 2019, 4, 12, 15120-15133.
     DOI: 10.1021/acsomega.9b02011
   
   for metadynamics refer to:
   * S. Grimme, J. Chem. Theory Comput., 2019, 155, 2847-2862
     DOI: 10.1021/acs.jctc.9b00143
   
   for SPH calculations refer to:
   * S. Spicher and S. Grimme, J. Chem. Theory Comput., 2021, 17, 1701-1714
     DOI: 10.1021/acs.jctc.0c01306
   
   for ONIOM refer to:
   * C. Plett, A. Katbashev, S. Ehlert, S. Grimme, M. Bursch,
     Phys. Chem. Chem. Phys., 2023, 25, 17860-17868. DOI: 10.1039/D3CP02178E
   
   for DIPRO refer to:
   * J. Kohn, N. Gildemeister, S. Grimme, D. Fazzi, A. Hansen,
     J. Chem. Phys., 2023, just accepted.
   
   for PTB refer to:
   * S. Grimme, M. Mueller, A. Hansen, J. Chem. Phys., 2023, 158, 124111.
     DOI: 10.1063/5.0137838
   
   with help from (in alphabetical order)
   P. Atkinson, C. Bannwarth, F. Bohle, G. Brandenburg, E. Caldeweyher
   M. Checinski, S. Dohm, S. Ehlert, S. Ehrlich, I. Gerasimov, C. Hölzer
   A. Katbashev, J. Kohn, J. Koopman, C. Lavigne, S. Lehtola, F. März, M. Müller,
   F. Musil, H. Neugebauer, J. Pisarek, C. Plett, P. Pracht, F. Pultar,
   J. Seibert, P. Shushkov, S. Spicher, M. Stahn, M. Steiner, T. Strunk,
   J. Stückrath, T. Rose, and J. Unsleber
   
 * started run on 2026/08/28 at 18:51:16.578     
   ID    Z sym.   atoms
    1    6 C      1, 3, 6-9, 12, 13, 15-20, 23-30, 33-37
    2   34 Se     2
    3    7 N      4, 11, 14, 22, 32
    4    8 O      5, 10, 21, 31
    5    1 H      38-68

           -------------------------------------------------
          |                Calculation Setup                |
           -------------------------------------------------

          program call               : C:\Users\Christian\Miniconda3\Library\bin\xtb.exe M1_adduct.xyz --gfn 2 --opt --alpb water
          coordinate file            : M1_adduct.xyz
          omp threads                :                    12


           -------------------------------------------------
          |                 G F N 2 - x T B                 |
           -------------------------------------------------

        Reference                      10.1021/acs.jctc.8b01176
      * Hamiltonian:
        H0-scaling (s, p, d)           1.850000    2.230000    2.230000
        zeta-weighting                 0.500000
      * Dispersion:
        s8                             2.700000
        a1                             0.520000
        a2                             5.000000
        s9                             5.000000
      * Repulsion:
        kExp                           1.500000    1.000000
        rExp                           1.000000
      * Coulomb:
        alpha                          2.000000
        third order                    shell-resolved
        anisotropic                    true
        a3                             3.000000
        a5                             4.000000
        cn-shift                       1.200000
        cn-exp                         4.000000
        max-rad                        5.000000

      * Solvation model:               ALPB
        Solvent                        water
        Parameter file                 internal GFN2-xTB/ALPB
        Dielectric constant                8.0200E+01
        Reference state                gsolv [1 M gas/solution]
        Free energy shift                  1.0808E-03 Eh       6.7819E-01 kcal/mol
        Temperature                        2.9815E+02 K
        Density                            1.0000E+00 kg/L
        Solvent mass                       1.8000E+01 g/mol
        Interaction kernel             P16
        Born radius scaling (c1)           1.4744E+00
        Born radii integrator          GBOBC
        Born offset                        0.0000E+00 a0       0.0000E+00 AA
        H-bond correction              true
        Ion screening                  false
        Surface tension                    1.0000E-05 Eh       1.5569E+01 dyn/cm
        Grid points                               230 per atom

          ...................................................
          :                      SETUP                      :
          :.................................................:
          :  # basis functions                 185          :
          :  # atomic orbitals                 184          :
          :  # shells                          106          :
          :  # electrons                       194          :
          :  max. iterations                   250          :
          :  Hamiltonian                  GFN2-xTB          :
          :  restarted?                      false          :
          :  GBSA solvation                   true          :
          :  PC potential                    false          :
          :  electronic temp.          300.0000000     K    :
          :  accuracy                    1.0000000          :
          :  -> integral cutoff          0.2500000E+02      :
          :  -> integral neglect         0.1000000E-07      :
          :  -> SCF convergence          0.1000000E-05 Eh   :
          :  -> wf. convergence          0.1000000E-03 e    :
          :  Broyden damping             0.4000000          :
          :  net charge                          0          :
          :  unpaired electrons                  0          :
          ...................................................

 iter      E             dE          RMSdq      gap      omega  full diag
   1   -108.7825243 -0.108783E+03  0.445E+00    2.10       0.0  T
   2   -108.9805128 -0.197989E+00  0.250E+00    2.46       1.0  T
   3   -108.9876071 -0.709422E-02  0.130E+00    2.30       1.0  T
   4   -109.0012175 -0.136105E-01  0.401E-01    2.35       1.0  T
   5   -109.0059450 -0.472745E-02  0.119E-01    2.32       1.0  T
   6   -109.0060030 -0.580295E-04  0.878E-02    2.31       1.0  T
   7   -109.0060710 -0.680078E-04  0.441E-02    2.31       1.0  T
   8   -109.0061017 -0.306597E-04  0.192E-02    2.31       1.0  T
   9   -109.0061039 -0.228451E-05  0.123E-02    2.31       1.0  T
  10   -109.0061046 -0.698666E-06  0.528E-03    2.31       2.3  T
  11   -109.0061050 -0.392379E-06  0.266E-03    2.31       4.6  T
  12   -109.0061051 -0.390112E-07  0.113E-03    2.31      10.7  T
  13   -109.0061051 -0.980532E-08  0.465E-04    2.31      26.1  T
  14   -109.0061051 -0.331477E-08  0.224E-04    2.31      54.1  T

   *** convergence criteria satisfied after 14 iterations ***

         #    Occupation            Energy/Eh            Energy/eV
      -------------------------------------------------------------
         1        2.0000           -0.7968917             -21.6845
       ...           ...                  ...                  ...
        91        2.0000           -0.4005175             -10.8986
        92        2.0000           -0.3990293             -10.8581
        93        2.0000           -0.3948765             -10.7451
        94        2.0000           -0.3939338             -10.7195
        95        2.0000           -0.3927074             -10.6861
        96        2.0000           -0.3709810             -10.0949
        97        2.0000           -0.3603064              -9.8044 (HOMO)
        98                         -0.2753130              -7.4916 (LUMO)
        99                         -0.2675693              -7.2809
       100                         -0.2660708              -7.2402
       101                         -0.2531355              -6.8882
       102                         -0.2389248              -6.5015
       ...                                ...                  ...
       184                          0.6941132              18.8878
      -------------------------------------------------------------
                  HL-Gap            0.0849935 Eh            2.3128 eV
             Fermi-level           -0.3178097 Eh           -8.6480 eV

 SCC (total)                   0 d,  0 h,  0 min,  0.087 sec
 SCC setup                      ...        0 min,  0.002 sec (  1.785%)
 Dispersion                     ...        0 min,  0.002 sec (  2.334%)
 classical contributions        ...        0 min,  0.000 sec (  0.176%)
 integral evaluation            ...        0 min,  0.006 sec (  6.343%)
 iterations                     ...        0 min,  0.061 sec ( 69.730%)
 molecular gradient             ...        0 min,  0.017 sec ( 18.876%)
 printout                       ...        0 min,  0.001 sec (  0.721%)

         :::::::::::::::::::::::::::::::::::::::::::::::::::::
         ::                     SUMMARY                     ::
         :::::::::::::::::::::::::::::::::::::::::::::::::::::
         :: total energy            -107.647933704310 Eh    ::
         :: total w/o Gsasa/hb      -107.639444994342 Eh    ::
         :: gradient norm              0.240215644632 Eh/a0 ::
         :: HOMO-LUMO gap              2.312789936295 eV    ::
         ::.................................................::
         :: SCC energy              -109.005660033549 Eh    ::
         :: -> isotropic ES            0.194099800749 Eh    ::
         :: -> anisotropic ES          0.008037062229 Eh    ::
         :: -> anisotropic XC          0.054761633239 Eh    ::
         :: -> dispersion             -0.078972040256 Eh    ::
         :: -> Gsolv                  -0.052750565210 Eh    ::
         ::    -> Gelec               -0.044261855242 Eh    ::
         ::    -> Gsasa               -0.001116120769 Eh    ::
         ::    -> Ghb                 -0.008453348897 Eh    ::
         ::    -> Gshift               0.001080759698 Eh    ::
         :: repulsion energy           1.357726329239 Eh    ::
         :: add. restraining           0.000000000000 Eh    ::
         :: total charge               0.000000000000 e     ::
         :::::::::::::::::::::::::::::::::::::::::::::::::::::

      ----------------------------------------------------------- 
     |                   =====================                   |
     |                        A N C O P T                        |
     |                   =====================                   |
     |               Approximate Normal Coordinate               |
     |                Rational Function Optimizer                |
      ----------------------------------------------------------- 
      ----------------------------------------------------------- 
     |                   =====================                   |
     |                        A N C O P T                        |
     |                   =====================                   |
     |               Approximate Normal Coordinate               |
     |                Rational Function Optimizer                |
      ----------------------------------------------------------- 

          ...................................................
          :                      SETUP                      :
          :.................................................:
          :   optimization level            normal          :
          :   max. optcycles                   204          :
          :   ANC micro-cycles                  20          :
          :   degrees of freedom               198          :
          :.................................................:
          :   RF solver                   davidson          :
          :   write xtbopt.log                true          :
          :   linear?                        false          :
          :   energy convergence         0.5000000E-05 Eh   :
          :   grad. convergence          0.1000000E-02 Eh/α :
          :   maxmium RF displ.          1.0000000          :
          :   Hlow (freq-cutoff)         0.1000000E-01      :
          :   Hmax (freq-cutoff)         5.0000000          :
          :   S6 in model hess.         20.0000000          :
          ...................................................

generating ANC from exact Hessian ...
Using Lindh-Hessian (1995)
 Shifting diagonal of input Hessian by    9.9286472427193417E-003
 Lowest  eigenvalues of input Hessian
    0.000000    0.000000    0.000000    0.000000    0.000000    0.000000
    0.010000    0.010014    0.010045    0.010140    0.010286    0.010696
    0.010856    0.011013    0.011042    0.011348    0.011556    0.011632
 Highest eigenvalues
    2.024838    2.047407    2.071126    2.106200    2.172594    2.216777


........................................................................
.............................. CYCLE    1 ..............................
........................................................................

 iter      E             dE          RMSdq      gap      omega  full diag
   1   -109.0061051 -0.109006E+03  0.116E-04    2.31       0.0  T
   2   -109.0061051 -0.797513E-10  0.763E-05    2.31     158.9  T
   3   -109.0061051 -0.258780E-10  0.536E-05    2.31     226.4  T
     SCC iter.                  ...        0 min,  0.013 sec
     gradient                   ...        0 min,  0.017 sec
 * total energy  :  -107.6479337 Eh     change       -0.7689493E-09 Eh
   gradient norm :     0.2402142 Eh/α   predicted     0.0000000E+00 (-100.00%)
   displ. norm   :     0.4133050 α      lambda       -0.6326485E-01
   maximum displ.:     0.1418283 α      in ANC's #122, #47, #123, ...

........................................................................
.............................. CYCLE    2 ..............................
........................................................................

 iter      E             dE          RMSdq      gap      omega  full diag
   1   -109.1025832 -0.109103E+03  0.296E-01    2.47       0.0  T
   2   -109.1033791 -0.795897E-03  0.185E-01    2.47       1.0  T
   3   -109.1034244 -0.452383E-04  0.961E-02    2.46       1.0  T
   4   -109.1035857 -0.161381E-03  0.261E-02    2.46       1.0  T
   5   -109.1035919 -0.616437E-05  0.122E-02    2.46       1.0  T
   6   -109.1035943 -0.241642E-05  0.567E-03    2.46       2.1  T
   7   -109.1035945 -0.147467E-06  0.373E-03    2.46       3.2  T
   8   -109.1035946 -0.872550E-07  0.179E-03    2.46       6.8  T
   9   -109.1035946 -0.349613E-07  0.893E-04    2.46      13.6  T
  10   -109.1035946 -0.799685E-08  0.391E-04    2.46      31.0  T
     SCC iter.                  ...        0 min,  0.051 sec
     gradient                   ...        0 min,  0.017 sec
 * total energy  :  -107.6939525 Eh     change       -0.4601884E-01 Eh
   gradient norm :     0.1109148 Eh/α   predicted    -0.3706162E-01 ( -19.46%)
   displ. norm   :     0.4301556 α      lambda       -0.2550439E-01
   maximum displ.:     0.1717038 α      in ANC's #47, #44, #19, ...

........................................................................
.............................. CYCLE    3 ..............................
........................................................................

 iter      E             dE          RMSdq      gap      omega  full diag
   1   -109.1604822 -0.109160E+03  0.237E-01    2.44       0.0  T
   2   -109.1611946 -0.712429E-03  0.151E-01    2.42       1.0  T
   3   -109.1612718 -0.772310E-04  0.782E-02    2.45       1.0  T
   4   -109.1613464 -0.745265E-04  0.258E-02    2.45       1.0  T
   5   -109.1613534 -0.704623E-05  0.928E-03    2.45       1.3  T
   6   -109.1613541 -0.686398E-06  0.537E-03    2.45       2.3  T
   7   -109.1613543 -0.175303E-06  0.371E-03    2.44       3.3  T
   8   -109.1613543 -0.650513E-07  0.181E-03    2.44       6.7  T
   9   -109.1613544 -0.410098E-07  0.750E-04    2.45      16.2  T
  10   -109.1613544 -0.706147E-08  0.329E-04    2.45      36.9  T
     SCC iter.                  ...        0 min,  0.042 sec
     gradient                   ...        0 min,  0.017 sec
 * total energy  :  -107.7091130 Eh     change       -0.1516047E-01 Eh
   gradient norm :     0.0293632 Eh/α   predicted    -0.1511178E-01 (  -0.32%)
   displ. norm   :     0.4256101 α      lambda       -0.5625905E-02
   maximum displ.:     0.1318460 α      in ANC's #27, #47, #19, ...

........................................................................
.............................. CYCLE    4 ..............................
........................................................................

 iter      E             dE          RMSdq      gap      omega  full diag
   1   -109.1603498 -0.109160E+03  0.159E-01    2.41       0.0  T
   2   -109.1603994 -0.495866E-04  0.889E-02    2.40       1.0  T
   3   -109.1603737  0.257268E-04  0.360E-02    2.41       1.0  T
   4   -109.1604125 -0.388338E-04  0.103E-02    2.41       1.2  T
   5   -109.1604127 -0.220985E-06  0.492E-03    2.41       2.5  T
   6   -109.1604128 -0.788607E-07  0.229E-03    2.41       5.3  T
   7   -109.1604129 -0.422281E-07  0.125E-03    2.41       9.7  T
   8   -109.1604129 -0.167147E-07  0.532E-04    2.41      22.8  T
   9   -109.1604129 -0.183987E-08  0.210E-04    2.41      57.8  T
     SCC iter.                  ...        0 min,  0.041 sec
     gradient                   ...        0 min,  0.016 sec
 * total energy  :  -107.7132325 Eh     change       -0.4119508E-02 Eh
   gradient norm :     0.0175581 Eh/α   predicted    -0.3322528E-02 ( -19.35%)
   displ. norm   :     0.5102098 α      lambda       -0.3894587E-02
   maximum displ.:     0.1627258 α      in ANC's #27, #9, #25, ...

........................................................................
.............................. CYCLE    5 ..............................
........................................................................

 iter      E             dE          RMSdq      gap      omega  full diag
   1   -109.1569877 -0.109157E+03  0.143E-01    2.39       0.0  T
   2   -109.1570152 -0.275196E-04  0.774E-02    2.37       1.0  T
   3   -109.1569949  0.203718E-04  0.314E-02    2.38       1.0  T
   4   -109.1570253 -0.304842E-04  0.785E-03    2.37       1.5  T
   5   -109.1570255 -0.188880E-06  0.306E-03    2.37       4.0  T
   6   -109.1570256 -0.380395E-07  0.958E-04    2.37      12.7  T
   7   -109.1570256 -0.985438E-08  0.523E-04    2.37      23.2  T
     SCC iter.                  ...        0 min,  0.031 sec
     gradient                   ...        0 min,  0.017 sec
 * total energy  :  -107.7159222 Eh     change       -0.2689721E-02 Eh
   gradient norm :     0.0142011 Eh/α   predicted    -0.2454217E-02 (  -8.76%)
   displ. norm   :     0.4562255 α      lambda       -0.1986837E-02
   maximum displ.:     0.1778079 α      in ANC's #9, #27, #15, ...

........................................................................
.............................. CYCLE    6 ..............................
........................................................................

 iter      E             dE          RMSdq      gap      omega  full diag
   1   -109.1544837 -0.109154E+03  0.121E-01    2.36       0.0  T
   2   -109.1544954 -0.116716E-04  0.651E-02    2.36       1.0  T
   3   -109.1544945  0.944063E-06  0.147E-02    2.36       1.0  T
   4   -109.1544976 -0.310414E-05  0.687E-03    2.36       1.8  T
   5   -109.1544977 -0.101308E-06  0.363E-03    2.36       3.3  T
   6   -109.1544979 -0.239361E-06  0.123E-03    2.36       9.9  T
   7   -109.1544979 -0.625414E-08  0.682E-04    2.36      17.8  T
   8   -109.1544979 -0.219890E-08  0.314E-04    2.36      38.6  T
     SCC iter.                  ...        0 min,  0.035 sec
     gradient                   ...        0 min,  0.017 sec
 * total energy  :  -107.7172987 Eh     change       -0.1376424E-02 Eh
   gradient norm :     0.0121414 Eh/α   predicted    -0.1200206E-02 ( -12.80%)
   displ. norm   :     0.3970379 α      lambda       -0.1179029E-02
   maximum displ.:     0.1738447 α      in ANC's #9, #15, #7, ...

........................................................................
.............................. CYCLE    7 ..............................
........................................................................

 iter      E             dE          RMSdq      gap      omega  full diag
   1   -109.1564033 -0.109156E+03  0.943E-02    2.37       0.0  T
   2   -109.1564079 -0.464008E-05  0.512E-02    2.37       1.0  T
   3   -109.1564075  0.429880E-06  0.850E-03    2.37       1.4  T
   4   -109.1564088 -0.130613E-05  0.454E-03    2.37       2.7  T
   5   -109.1564091 -0.281176E-06  0.169E-03    2.37       7.2  T
   6   -109.1564091 -0.510980E-07  0.834E-04    2.37      14.5  T
   7   -109.1564091 -0.495096E-08  0.492E-04    2.37      24.6  T
     SCC iter.                  ...        0 min,  0.034 sec
     gradient                   ...        0 min,  0.018 sec
 * total energy  :  -107.7181500 Eh     change       -0.8513344E-03 Eh
   gradient norm :     0.0095297 Eh/α   predicted    -0.6824566E-03 ( -19.84%)
   displ. norm   :     0.3861445 α      lambda       -0.8272150E-03
   maximum displ.:     0.1783660 α      in ANC's #9, #15, #7, ...

........................................................................
.............................. CYCLE    8 ..............................
........................................................................

 iter      E             dE          RMSdq      gap      omega  full diag
   1   -109.1600516 -0.109160E+03  0.779E-02    2.37       0.0  T
   2   -109.1600577 -0.611516E-05  0.428E-02    2.38       1.0  T
   3   -109.1600551  0.259069E-05  0.111E-02    2.38       1.1  T
   4   -109.1600591 -0.405071E-05  0.442E-03    2.38       2.7  T
   5   -109.1600594 -0.231197E-06  0.214E-03    2.38       5.7  T
   6   -109.1600594 -0.148699E-07  0.967E-04    2.38      12.5  T
   7   -109.1600594 -0.469723E-08  0.623E-04    2.38      19.5  T
     SCC iter.                  ...        0 min,  0.033 sec
     gradient                   ...        0 min,  0.017 sec
 * total energy  :  -107.7187605 Eh     change       -0.6104658E-03 Eh
   gradient norm :     0.0069645 Eh/α   predicted    -0.4752849E-03 ( -22.14%)
   displ. norm   :     0.4078532 α      lambda       -0.6488470E-03
   maximum displ.:     0.1775088 α      in ANC's #9, #15, #7, ...

........................................................................
.............................. CYCLE    9 ..............................
........................................................................

 iter      E             dE          RMSdq      gap      omega  full diag
   1   -109.1619249 -0.109162E+03  0.729E-02    2.39       0.0  T
   2   -109.1619301 -0.522754E-05  0.419E-02    2.40       1.0  T
   3   -109.1619251  0.503340E-05  0.138E-02    2.39       1.0  T
   4   -109.1619321 -0.706014E-05  0.336E-03    2.40       3.6  T
   5   -109.1619322 -0.210064E-07  0.166E-03    2.40       7.3  T
   6   -109.1619322 -0.131235E-07  0.700E-04    2.40      17.3  T
   7   -109.1619322 -0.310860E-08  0.422E-04    2.40      28.8  T
     SCC iter.                  ...        0 min,  0.035 sec
     gradient                   ...        0 min,  0.017 sec
 * total energy  :  -107.7192346 Eh     change       -0.4741823E-03 Eh
   gradient norm :     0.0070457 Eh/α   predicted    -0.3783948E-03 ( -20.20%)
   displ. norm   :     0.4087446 α      lambda       -0.5417970E-03
   maximum displ.:     0.1589594 α      in ANC's #9, #15, #26, ...

........................................................................
.............................. CYCLE   10 ..............................
........................................................................

 iter      E             dE          RMSdq      gap      omega  full diag
   1   -109.1645635 -0.109165E+03  0.688E-02    2.41       0.0  T
   2   -109.1645687 -0.521740E-05  0.386E-02    2.41       1.0  T
   3   -109.1645664  0.231241E-05  0.110E-02    2.41       1.1  T
   4   -109.1645702 -0.372698E-05  0.306E-03    2.41       4.0  T
   5   -109.1645703 -0.178600E-06  0.149E-03    2.41       8.2  T
   6   -109.1645703 -0.115354E-07  0.369E-04    2.41      32.9  T
   7   -109.1645703 -0.139929E-08  0.235E-04    2.41      51.6  T
     SCC iter.                  ...        0 min,  0.032 sec
     gradient                   ...        0 min,  0.017 sec
 * total energy  :  -107.7196067 Eh     change       -0.3720868E-03 Eh
   gradient norm :     0.0077232 Eh/α   predicted    -0.3161591E-03 ( -15.03%)
   displ. norm   :     0.3671630 α      lambda       -0.3973481E-03
   maximum displ.:     0.1343683 α      in ANC's #26, #9, #19, ...

........................................................................
.............................. CYCLE   11 ..............................
........................................................................

 iter      E             dE          RMSdq      gap      omega  full diag
   1   -109.1640433 -0.109164E+03  0.641E-02    2.42       0.0  T
   2   -109.1640454 -0.206655E-05  0.370E-02    2.42       1.0  T
   3   -109.1640448  0.612589E-06  0.648E-03    2.42       1.9  T
   4   -109.1640462 -0.140973E-05  0.246E-03    2.42       4.9  T
   5   -109.1640462 -0.146587E-07  0.108E-03    2.42      11.3  T
   6   -109.1640462 -0.158512E-07  0.451E-04    2.42      26.9  T
   7   -109.1640462 -0.129320E-08  0.284E-04    2.42      42.7  T
     SCC iter.                  ...        0 min,  0.035 sec
     gradient                   ...        0 min,  0.018 sec
 * total energy  :  -107.7198699 Eh     change       -0.2631329E-03 Eh
   gradient norm :     0.0070556 Eh/α   predicted    -0.2254663E-03 ( -14.31%)
   displ. norm   :     0.2696103 α      lambda       -0.2861417E-03
   maximum displ.:     0.1152190 α      in ANC's #26, #19, #5, ...

........................................................................
.............................. CYCLE   12 ..............................
........................................................................

 iter      E             dE          RMSdq      gap      omega  full diag
   1   -109.1659912 -0.109166E+03  0.520E-02    2.42       0.0  T
   2   -109.1659928 -0.159660E-05  0.301E-02    2.42       1.0  T
   3   -109.1659916  0.124621E-05  0.783E-03    2.42       1.5  T
   4   -109.1659935 -0.192852E-05  0.203E-03    2.42       6.0  T
   5   -109.1659935 -0.139543E-07  0.884E-04    2.42      13.7  T
   6   -109.1659935 -0.614040E-08  0.599E-04    2.42      20.2  T
     SCC iter.                  ...        0 min,  0.025 sec
     gradient                   ...        0 min,  0.016 sec
 * total energy  :  -107.7200701 Eh     change       -0.2002569E-03 Eh
   gradient norm :     0.0058772 Eh/α   predicted    -0.1534723E-03 ( -23.36%)
   displ. norm   :     0.2825977 α      lambda       -0.2388040E-03
   maximum displ.:     0.1307808 α      in ANC's #26, #5, #19, ...

........................................................................
.............................. CYCLE   13 ..............................
........................................................................

 iter      E             dE          RMSdq      gap      omega  full diag
   1   -109.1652046 -0.109165E+03  0.588E-02    2.41       0.0  T
   2   -109.1652074 -0.287975E-05  0.339E-02    2.41       1.0  T
   3   -109.1652050  0.240398E-05  0.984E-03    2.42       1.2  T
   4   -109.1652085 -0.341960E-05  0.232E-03    2.41       5.2  T
   5   -109.1652085 -0.291600E-07  0.105E-03    2.41      11.6  T
   6   -109.1652085 -0.921075E-08  0.612E-04    2.41      19.8  T
   7   -109.1652085 -0.320446E-08  0.333E-04    2.41      36.4  T
     SCC iter.                  ...        0 min,  0.032 sec
     gradient                   ...        0 min,  0.018 sec
 * total energy  :  -107.7202483 Eh     change       -0.1781965E-03 Eh
   gradient norm :     0.0056693 Eh/α   predicted    -0.1289382E-03 ( -27.64%)
   displ. norm   :     0.3147550 α      lambda       -0.2766188E-03
   maximum displ.:     0.1359500 α      in ANC's #26, #5, #17, ...

........................................................................
.............................. CYCLE   14 ..............................
........................................................................

 iter      E             dE          RMSdq      gap      omega  full diag
   1   -109.1659073 -0.109166E+03  0.698E-02    2.41       0.0  T
   2   -109.1659117 -0.433906E-05  0.402E-02    2.41       1.0  T
   3   -109.1659070  0.469663E-05  0.128E-02    2.41       1.0  T
   4   -109.1659134 -0.641015E-05  0.270E-03    2.41       4.5  T
   5   -109.1659135 -0.577310E-07  0.133E-03    2.41       9.1  T
   6   -109.1659135 -0.150824E-07  0.664E-04    2.41      18.3  T
   7   -109.1659135 -0.320652E-08  0.390E-04    2.41      31.1  T
     SCC iter.                  ...        0 min,  0.031 sec
     gradient                   ...        0 min,  0.016 sec
 * total energy  :  -107.7204567 Eh     change       -0.2083323E-03 Eh
   gradient norm :     0.0066216 Eh/α   predicted    -0.1520124E-03 ( -27.03%)
   displ. norm   :     0.4082213 α      lambda       -0.3216039E-03
   maximum displ.:     0.1740027 α      in ANC's #26, #5, #25, ...

........................................................................
.............................. CYCLE   15 ..............................
........................................................................

 iter      E             dE          RMSdq      gap      omega  full diag
   1   -109.1631361 -0.109163E+03  0.909E-02    2.40       0.0  T
   2   -109.1631405 -0.442886E-05  0.516E-02    2.40       1.0  T
   3   -109.1631371  0.341192E-05  0.114E-02    2.41       1.1  T
   4   -109.1631420 -0.490248E-05  0.362E-03    2.41       3.3  T
   5   -109.1631421 -0.982717E-07  0.139E-03    2.41       8.7  T
   6   -109.1631421 -0.278045E-07  0.531E-04    2.41      22.8  T
   7   -109.1631421 -0.262223E-08  0.327E-04    2.41      37.0  T
     SCC iter.                  ...        0 min,  0.034 sec
     gradient                   ...        0 min,  0.016 sec
 * total energy  :  -107.7206966 Eh     change       -0.2399655E-03 Eh
   gradient norm :     0.0086545 Eh/α   predicted    -0.1876076E-03 ( -21.82%)
   displ. norm   :     0.4119511 α      lambda       -0.4228966E-03
   maximum displ.:     0.1631356 α      in ANC's #5, #25, #7, ...

........................................................................
.............................. CYCLE   16 ..............................
........................................................................

 iter      E             dE          RMSdq      gap      omega  full diag
   1   -109.1658945 -0.109166E+03  0.920E-02    2.41       0.0  T
   2   -109.1658990 -0.448915E-05  0.522E-02    2.41       1.0  T
   3   -109.1658946  0.447909E-05  0.116E-02    2.41       1.0  T
   4   -109.1659006 -0.604337E-05  0.385E-03    2.41       3.1  T
   5   -109.1659007 -0.146874E-06  0.151E-03    2.41       8.0  T
   6   -109.1659008 -0.310293E-07  0.551E-04    2.41      22.0  T
   7   -109.1659008 -0.179548E-08  0.350E-04    2.41      34.7  T
     SCC iter.                  ...        0 min,  0.031 sec
     gradient                   ...        0 min,  0.015 sec
 * total energy  :  -107.7209705 Eh     change       -0.2738911E-03 Eh
   gradient norm :     0.0103699 Eh/α   predicted    -0.2473338E-03 (  -9.70%)
   displ. norm   :     0.4466687 α      lambda       -0.4153757E-03
   maximum displ.:     0.1685863 α      in ANC's #5, #26, #25, ...

........................................................................
.............................. CYCLE   17 ..............................
........................................................................

 iter      E             dE          RMSdq      gap      omega  full diag
   1   -109.1613133 -0.109161E+03  0.967E-02    2.41       0.0  T
   2   -109.1613213 -0.799366E-05  0.551E-02    2.42       1.0  T
   3   -109.1613197  0.159731E-05  0.103E-02    2.42       1.2  T
   4   -109.1613224 -0.270831E-05  0.400E-03    2.42       3.0  T
   5   -109.1613226 -0.218796E-06  0.196E-03    2.42       6.2  T
   6   -109.1613227 -0.319632E-07  0.442E-04    2.42      27.4  T
   7   -109.1613227 -0.325259E-08  0.250E-04    2.42      48.4  T
     SCC iter.                  ...        0 min,  0.034 sec
     gradient                   ...        0 min,  0.017 sec
 * total energy  :  -107.7212276 Eh     change       -0.2571084E-03 Eh
   gradient norm :     0.0127574 Eh/α   predicted    -0.2491306E-03 (  -3.10%)
   displ. norm   :     0.2857165 α      lambda       -0.4088388E-03
   maximum displ.:     0.1021221 α      in ANC's #5, #7, #25, ...

........................................................................
.............................. CYCLE   18 ..............................
........................................................................

 iter      E             dE          RMSdq      gap      omega  full diag
   1   -109.1651906 -0.109165E+03  0.603E-02    2.43       0.0  T
   2   -109.1652007 -0.100837E-04  0.350E-02    2.44       1.0  T
   3   -109.1651972  0.352246E-05  0.137E-02    2.43       1.0  T
   4   -109.1652030 -0.583760E-05  0.324E-03    2.44       3.7  T
   5   -109.1652031 -0.132207E-06  0.162E-03    2.44       7.5  T
   6   -109.1652031 -0.222749E-07  0.634E-04    2.44      19.1  T
   7   -109.1652032 -0.389156E-08  0.384E-04    2.44      31.6  T
     SCC iter.                  ...        0 min,  0.029 sec
     gradient                   ...        0 min,  0.016 sec
 * total energy  :  -107.7214731 Eh     change       -0.2454521E-03 Eh
   gradient norm :     0.0095770 Eh/α   predicted    -0.2211130E-03 (  -9.92%)
   displ. norm   :     0.4529444 α      lambda       -0.4008271E-03
   maximum displ.:     0.1985570 α      in ANC's #5, #4, #25, ...

........................................................................
.............................. CYCLE   19 ..............................
........................................................................

 iter      E             dE          RMSdq      gap      omega  full diag
   1   -109.1631725 -0.109163E+03  0.987E-02    2.45       0.0  T
   2   -109.1631797 -0.723667E-05  0.562E-02    2.46       1.0  T
   3   -109.1631760  0.366661E-05  0.126E-02    2.45       1.0  T
   4   -109.1631818 -0.573271E-05  0.432E-03    2.46       2.8  T
   5   -109.1631819 -0.137873E-06  0.186E-03    2.46       6.5  T
   6   -109.1631820 -0.418364E-07  0.579E-04    2.46      21.0  T
   7   -109.1631820 -0.445155E-08  0.340E-04    2.46      35.7  T
     SCC iter.                  ...        0 min,  0.033 sec
     gradient                   ...        0 min,  0.018 sec
 * total energy  :  -107.7216332 Eh     change       -0.1601648E-03 Eh
   gradient norm :     0.0121228 Eh/α   predicted    -0.2415307E-03 (  50.80%)
   displ. norm   :     0.2234318 α      lambda       -0.3447235E-03
   maximum displ.:     0.0910420 α      in ANC's #5, #4, #7, ...

........................................................................
.............................. CYCLE   20 ..............................
........................................................................

 iter      E             dE          RMSdq      gap      omega  full diag
   1   -109.1658156 -0.109166E+03  0.459E-02    2.47       0.0  T
   2   -109.1658185 -0.290883E-05  0.264E-02    2.46       1.0  T
   3   -109.1658174  0.105702E-05  0.655E-03    2.46       1.9  T
   4   -109.1658190 -0.159062E-05  0.214E-03    2.46       5.7  T
   5   -109.1658191 -0.538539E-07  0.114E-03    2.46      10.6  T
   6   -109.1658191 -0.195645E-07  0.419E-04    2.46      29.0  T
   7   -109.1658191 -0.177054E-08  0.233E-04    2.46      52.0  T
     SCC iter.                  ...        0 min,  0.029 sec
     gradient                   ...        0 min,  0.017 sec
 * total energy  :  -107.7218370 Eh     change       -0.2037840E-03 Eh
   gradient norm :     0.0089516 Eh/α   predicted    -0.1809674E-03 ( -11.20%)
   displ. norm   :     0.2584537 α      lambda       -0.2995323E-03
   maximum displ.:     0.1045380 α      in ANC's #4, #5, #28, ...
 * RMSD in coord.:     0.6007389 α      energy gain  -0.7390332E-01 Eh

generating ANC from exact Hessian ...
Using Lindh-Hessian (1995)
 Shifting diagonal of input Hessian by    9.9332246727899601E-003
 Lowest  eigenvalues of input Hessian
    0.000000    0.000000    0.000000    0.000000    0.000000    0.000000
    0.010000    0.010022    0.010068    0.010127    0.010264    0.010646
    0.010773    0.010939    0.010952    0.011386    0.011620    0.011848
 Highest eigenvalues
    2.054603    2.076257    2.079999    2.305208    2.309714    2.328867


........................................................................
.............................. CYCLE   21 ..............................
........................................................................

 iter      E             dE          RMSdq      gap      omega  full diag
   1   -109.1667862 -0.109167E+03  0.495E-02    2.45       0.0  T
   2   -109.1667921 -0.587595E-05  0.286E-02    2.45       1.0  T
   3   -109.1667897  0.243410E-05  0.940E-03    2.46       1.3  T
   4   -109.1667931 -0.338573E-05  0.258E-03    2.46       4.7  T
   5   -109.1667932 -0.164985E-06  0.113E-03    2.46      10.8  T
   6   -109.1667932 -0.117359E-07  0.459E-04    2.46      26.4  T
   7   -109.1667932 -0.163894E-08  0.215E-04    2.46      56.5  T
     SCC iter.                  ...        0 min,  0.035 sec
     gradient                   ...        0 min,  0.015 sec
 * total energy  :  -107.7219973 Eh     change       -0.1602768E-03 Eh
   gradient norm :     0.0087261 Eh/α   predicted     0.0000000E+00 (-100.00%)
   displ. norm   :     0.0566380 α      lambda       -0.1436183E-03
   maximum displ.:     0.0224530 α      in ANC's #29, #4, #33, ...

........................................................................
.............................. CYCLE   22 ..............................
........................................................................

 iter      E             dE          RMSdq      gap      omega  full diag
   1   -109.1679803 -0.109168E+03  0.188E-02    2.45       0.0  T
   2   -109.1679816 -0.134858E-05  0.107E-02    2.45       1.1  T
   3   -109.1679815  0.950122E-07  0.361E-03    2.45       3.4  T
   4   -109.1679818 -0.265108E-06  0.109E-03    2.45      11.2  T
   5   -109.1679818 -0.202272E-07  0.518E-04    2.45      23.4  T
   6   -109.1679818 -0.524084E-08  0.204E-04    2.45      59.5  T
     SCC iter.                  ...        0 min,  0.025 sec
     gradient                   ...        0 min,  0.016 sec
 * total energy  :  -107.7221105 Eh     change       -0.1132319E-03 Eh
   gradient norm :     0.0031735 Eh/α   predicted    -0.7965348E-04 ( -29.65%)
   displ. norm   :     0.1133819 α      lambda       -0.1335420E-03
   maximum displ.:     0.0475616 α      in ANC's #29, #4, #33, ...

........................................................................
.............................. CYCLE   23 ..............................
........................................................................

 iter      E             dE          RMSdq      gap      omega  full diag
   1   -109.1687454 -0.109169E+03  0.224E-02    2.44       0.0  T
   2   -109.1687468 -0.132727E-05  0.127E-02    2.44       1.0  T
   3   -109.1687465  0.282558E-06  0.462E-03    2.45       2.6  T
   4   -109.1687470 -0.514650E-06  0.120E-03    2.44      10.1  T
   5   -109.1687471 -0.439087E-07  0.578E-04    2.44      21.0  T
   6   -109.1687471 -0.286698E-08  0.235E-04    2.44      51.6  T
     SCC iter.                  ...        0 min,  0.033 sec
     gradient                   ...        0 min,  0.017 sec
 * total energy  :  -107.7222112 Eh     change       -0.1006411E-03 Eh
   gradient norm :     0.0037413 Eh/α   predicted    -0.6763798E-04 ( -32.79%)
   displ. norm   :     0.2360009 α      lambda       -0.1939415E-03
   maximum displ.:     0.1026614 α      in ANC's #29, #33, #4, ...

........................................................................
.............................. CYCLE   24 ..............................
........................................................................

 iter      E             dE          RMSdq      gap      omega  full diag
   1   -109.1683401 -0.109168E+03  0.407E-02    2.43       0.0  T
   2   -109.1683417 -0.158074E-05  0.235E-02    2.44       1.0  T
   3   -109.1683405  0.123600E-05  0.655E-03    2.44       1.9  T
   4   -109.1683422 -0.173693E-05  0.168E-03    2.44       7.2  T
   5   -109.1683423 -0.492122E-07  0.797E-04    2.44      15.2  T
   6   -109.1683423 -0.882012E-08  0.252E-04    2.44      48.2  T
     SCC iter.                  ...        0 min,  0.025 sec
     gradient                   ...        0 min,  0.017 sec
 * total energy  :  -107.7223695 Eh     change       -0.1583211E-03 Eh
   gradient norm :     0.0085569 Eh/α   predicted    -0.1027271E-03 ( -35.11%)
   displ. norm   :     0.4678135 α      lambda       -0.3529972E-03
   maximum displ.:     0.2073008 α      in ANC's #29, #33, #4, ...

........................................................................
.............................. CYCLE   25 ..............................
........................................................................

 iter      E             dE          RMSdq      gap      omega  full diag
   1   -109.1646926 -0.109165E+03  0.778E-02    2.43       0.0  T
   2   -109.1646957 -0.314762E-05  0.452E-02    2.43       1.0  T
   3   -109.1646929  0.277940E-05  0.953E-03    2.43       1.3  T
   4   -109.1646970 -0.410447E-05  0.254E-03    2.43       4.8  T
   5   -109.1646971 -0.909729E-07  0.132E-03    2.43       9.2  T
   6   -109.1646971 -0.165941E-07  0.369E-04    2.43      32.9  T
   7   -109.1646971 -0.114726E-08  0.207E-04    2.43      58.7  T
     SCC iter.                  ...        0 min,  0.035 sec
     gradient                   ...        0 min,  0.015 sec
 * total energy  :  -107.7226206 Eh     change       -0.2510849E-03 Eh
   gradient norm :     0.0148445 Eh/α   predicted    -0.2151269E-03 ( -14.32%)
   displ. norm   :     0.3021884 α      lambda       -0.2897386E-03
   maximum displ.:     0.1301042 α      in ANC's #29, #4, #33, ...

........................................................................
.............................. CYCLE   26 ..............................
........................................................................

 iter      E             dE          RMSdq      gap      omega  full diag
   1   -109.1634069 -0.109163E+03  0.511E-02    2.43       0.0  T
   2   -109.1634081 -0.121545E-05  0.299E-02    2.42       1.0  T
   3   -109.1634080  0.747513E-07  0.357E-03    2.42       3.4  T
   4   -109.1634085 -0.483236E-06  0.143E-03    2.42       8.5  T
   5   -109.1634085 -0.241876E-07  0.747E-04    2.42      16.2  T
   6   -109.1634085 -0.635680E-08  0.250E-04    2.42      48.5  T
     SCC iter.                  ...        0 min,  0.025 sec
     gradient                   ...        0 min,  0.018 sec
 * total energy  :  -107.7228492 Eh     change       -0.2286129E-03 Eh
   gradient norm :     0.0145683 Eh/α   predicted    -0.1581079E-03 ( -30.84%)
   displ. norm   :     0.2937542 α      lambda       -0.6418254E-03
   maximum displ.:     0.1387602 α      in ANC's #4, #29, #33, ...

........................................................................
.............................. CYCLE   27 ..............................
........................................................................

 iter      E             dE          RMSdq      gap      omega  full diag
   1   -109.1682865 -0.109168E+03  0.619E-02    2.44       0.0  T
   2   -109.1682976 -0.111424E-04  0.354E-02    2.44       1.0  T
   3   -109.1682962  0.142300E-05  0.114E-02    2.43       1.1  T
   4   -109.1682990 -0.281455E-05  0.266E-03    2.43       4.6  T
   5   -109.1682992 -0.254431E-06  0.117E-03    2.43      10.4  T
   6   -109.1682993 -0.141103E-07  0.600E-04    2.43      20.2  T
   7   -109.1682993 -0.374749E-08  0.246E-04    2.43      49.2  T
     SCC iter.                  ...        0 min,  0.038 sec
     gradient                   ...        0 min,  0.015 sec
 * total energy  :  -107.7231883 Eh     change       -0.3391224E-03 Eh
   gradient norm :     0.0081028 Eh/α   predicted    -0.3486149E-03 (   2.80%)
   displ. norm   :     0.3720561 α      lambda       -0.2699254E-03
   maximum displ.:     0.1671042 α      in ANC's #4, #29, #33, ...

........................................................................
.............................. CYCLE   28 ..............................
........................................................................

 iter      E             dE          RMSdq      gap      omega  full diag
   1   -109.1643240 -0.109164E+03  0.644E-02    2.44       0.0  T
   2   -109.1643274 -0.344339E-05  0.376E-02    2.44       1.0  T
   3   -109.1643267  0.661049E-06  0.612E-03    2.44       2.0  T
   4   -109.1643281 -0.136366E-05  0.188E-03    2.44       6.5  T
   5   -109.1643282 -0.696104E-07  0.999E-04    2.44      12.1  T
   6   -109.1643282 -0.503650E-08  0.391E-04    2.44      31.0  T
     SCC iter.                  ...        0 min,  0.027 sec
     gradient                   ...        0 min,  0.017 sec
 * total energy  :  -107.7233226 Eh     change       -0.1343241E-03 Eh
   gradient norm :     0.0120265 Eh/α   predicted    -0.1536459E-03 (  14.38%)
   displ. norm   :     0.0953693 α      lambda       -0.2281223E-03
   maximum displ.:     0.0518403 α      in ANC's #4, #11, #6, ...

........................................................................
.............................. CYCLE   29 ..............................
........................................................................

 iter      E             dE          RMSdq      gap      omega  full diag
   1   -109.1675624 -0.109168E+03  0.240E-02    2.44       0.0  T
   2   -109.1675641 -0.173717E-05  0.143E-02    2.44       1.0  T
   3   -109.1675634  0.723094E-06  0.603E-03    2.44       2.0  T
   4   -109.1675646 -0.119761E-05  0.115E-03    2.44      10.6  T
   5   -109.1675646 -0.341790E-07  0.574E-04    2.44      21.1  T
   6   -109.1675646 -0.244661E-08  0.249E-04    2.44      48.7  T
     SCC iter.                  ...        0 min,  0.035 sec
     gradient                   ...        0 min,  0.015 sec
 * total energy  :  -107.7234840 Eh     change       -0.1613824E-03 Eh
   gradient norm :     0.0068023 Eh/α   predicted    -0.1151193E-03 ( -28.67%)
   displ. norm   :     0.3089947 α      lambda       -0.2595668E-03
   maximum displ.:     0.1632182 α      in ANC's #4, #29, #33, ...

........................................................................
.............................. CYCLE   30 ..............................
........................................................................

 iter      E             dE          RMSdq      gap      omega  full diag
   1   -109.1692064 -0.109169E+03  0.614E-02    2.44       0.0  T
   2   -109.1692094 -0.301001E-05  0.357E-02    2.45       1.0  T
   3   -109.1692070  0.242655E-05  0.860E-03    2.44       1.4  T
   4   -109.1692104 -0.339339E-05  0.198E-03    2.45       6.1  T
   5   -109.1692105 -0.605749E-07  0.100E-03    2.45      12.1  T
   6   -109.1692105 -0.275656E-08  0.359E-04    2.45      33.8  T
   7   -109.1692105 -0.239197E-08  0.188E-04    2.45      64.4  T
     SCC iter.                  ...        0 min,  0.031 sec
     gradient                   ...        0 min,  0.015 sec
 * total energy  :  -107.7236340 Eh     change       -0.1500065E-03 Eh
   gradient norm :     0.0079945 Eh/α   predicted    -0.1421757E-03 (  -5.22%)
   displ. norm   :     0.3005887 α      lambda       -0.1756642E-03
   maximum displ.:     0.1670750 α      in ANC's #4, #29, #32, ...

........................................................................
.............................. CYCLE   31 ..............................
........................................................................

 iter      E             dE          RMSdq      gap      omega  full diag
   1   -109.1694201 -0.109169E+03  0.543E-02    2.45       0.0  T
   2   -109.1694231 -0.297002E-05  0.319E-02    2.45       1.0  T
   3   -109.1694223  0.817704E-06  0.584E-03    2.45       2.1  T
   4   -109.1694236 -0.132068E-05  0.196E-03    2.45       6.2  T
   5   -109.1694237 -0.804753E-07  0.956E-04    2.45      12.7  T
   6   -109.1694237 -0.527498E-08  0.425E-04    2.45      28.5  T
     SCC iter.                  ...        0 min,  0.032 sec
     gradient                   ...        0 min,  0.017 sec
 * total energy  :  -107.7237522 Eh     change       -0.1182103E-03 Eh
   gradient norm :     0.0065345 Eh/α   predicted    -0.9577216E-04 ( -18.98%)
   displ. norm   :     0.2459275 α      lambda       -0.1538547E-03
   maximum displ.:     0.1454407 α      in ANC's #4, #6, #29, ...

........................................................................
.............................. CYCLE   32 ..............................
........................................................................

 iter      E             dE          RMSdq      gap      omega  full diag
   1   -109.1710860 -0.109171E+03  0.479E-02    2.45       0.0  T
   2   -109.1710876 -0.169190E-05  0.279E-02    2.45       1.0  T
   3   -109.1710872  0.475251E-06  0.460E-03    2.45       2.6  T
   4   -109.1710880 -0.806198E-06  0.152E-03    2.45       8.0  T
   5   -109.1710880 -0.476071E-07  0.824E-04    2.45      14.7  T
   6   -109.1710880 -0.487127E-08  0.332E-04    2.45      36.5  T
     SCC iter.                  ...        0 min,  0.026 sec
     gradient                   ...        0 min,  0.016 sec
 * total energy  :  -107.7238606 Eh     change       -0.1083958E-03 Eh
   gradient norm :     0.0049105 Eh/α   predicted    -0.8158805E-04 ( -24.73%)
   displ. norm   :     0.3357041 α      lambda       -0.1297279E-03
   maximum displ.:     0.1960144 α      in ANC's #4, #6, #29, ...

........................................................................
.............................. CYCLE   33 ..............................
........................................................................

 iter      E             dE          RMSdq      gap      omega  full diag
   1   -109.1691290 -0.109169E+03  0.623E-02    2.45       0.0  T
   2   -109.1691313 -0.226551E-05  0.363E-02    2.45       1.0  T
   3   -109.1691300  0.131042E-05  0.676E-03    2.45       1.8  T
   4   -109.1691320 -0.196769E-05  0.196E-03    2.45       6.2  T
   5   -109.1691320 -0.785166E-07  0.950E-04    2.45      12.8  T
   6   -109.1691320 -0.678959E-08  0.310E-04    2.45      39.1  T
     SCC iter.                  ...        0 min,  0.035 sec
     gradient                   ...        0 min,  0.018 sec
 * total energy  :  -107.7239362 Eh     change       -0.7553691E-04 Eh
   gradient norm :     0.0044301 Eh/α   predicted    -0.7217445E-04 (  -4.45%)
   displ. norm   :     0.1558071 α      lambda       -0.1160026E-03
   maximum displ.:     0.0878359 α      in ANC's #4, #6, #11, ...

........................................................................
.............................. CYCLE   34 ..............................
........................................................................

 iter      E             dE          RMSdq      gap      omega  full diag
   1   -109.1722772 -0.109172E+03  0.355E-02    2.45       0.0  T
   2   -109.1722822 -0.495270E-05  0.210E-02    2.45       1.0  T
   3   -109.1722809  0.126202E-05  0.880E-03    2.45       1.4  T
   4   -109.1722833 -0.238948E-05  0.195E-03    2.45       6.2  T
   5   -109.1722834 -0.100067E-06  0.903E-04    2.45      13.4  T
   6   -109.1722834 -0.935015E-08  0.426E-04    2.45      28.5  T
     SCC iter.                  ...        0 min,  0.025 sec
     gradient                   ...        0 min,  0.015 sec
 * total energy  :  -107.7239497 Eh     change       -0.1350840E-04 Eh
   gradient norm :     0.0083361 Eh/α   predicted    -0.5941111E-04 ( 339.81%)
   displ. norm   :     0.1074889 α      lambda       -0.9250829E-04
   maximum displ.:     0.0619718 α      in ANC's #4, #29, #33, ...

........................................................................
.............................. CYCLE   35 ..............................
........................................................................

 iter      E             dE          RMSdq      gap      omega  full diag
   1   -109.1708972 -0.109171E+03  0.248E-02    2.45       0.0  T
   2   -109.1709029 -0.571026E-05  0.140E-02    2.45       1.0  T
   3   -109.1709031 -0.145827E-06  0.618E-03    2.45       2.0  T
   4   -109.1709033 -0.235277E-06  0.120E-03    2.45      10.1  T
   5   -109.1709034 -0.486799E-07  0.550E-04    2.45      22.0  T
   6   -109.1709034 -0.401685E-08  0.281E-04    2.45      43.2  T
     SCC iter.                  ...        0 min,  0.031 sec
     gradient                   ...        0 min,  0.017 sec
 * total energy  :  -107.7239954 Eh     change       -0.4568911E-04 Eh
   gradient norm :     0.0035386 Eh/α   predicted    -0.4679087E-04 (   2.41%)
   displ. norm   :     0.0273374 α      lambda       -0.2367670E-04
   maximum displ.:     0.0157040 α      in ANC's #4, #6, #14, ...

........................................................................
.............................. CYCLE   36 ..............................
........................................................................

 iter      E             dE          RMSdq      gap      omega  full diag
   1   -109.1706741 -0.109171E+03  0.884E-03    2.45       0.0  T
   2   -109.1706749 -0.822367E-06  0.510E-03    2.45       2.4  T
   3   -109.1706749 -0.130145E-07  0.250E-03    2.45       4.9  T
   4   -109.1706749 -0.261341E-07  0.790E-04    2.45      15.3  T
   5   -109.1706749 -0.252378E-07  0.210E-04    2.45      57.7  T
     SCC iter.                  ...        0 min,  0.021 sec
     gradient                   ...        0 min,  0.016 sec
 * total energy  :  -107.7240109 Eh     change       -0.1557342E-04 Eh
   gradient norm :     0.0016163 Eh/α   predicted    -0.1184860E-04 ( -23.92%)
   displ. norm   :     0.0821049 α      lambda       -0.2090825E-04
   maximum displ.:     0.0448749 α      in ANC's #4, #6, #3, ...

........................................................................
.............................. CYCLE   37 ..............................
........................................................................

 iter      E             dE          RMSdq      gap      omega  full diag
   1   -109.1712079 -0.109171E+03  0.157E-02    2.45       0.0  T
   2   -109.1712082 -0.360496E-06  0.914E-03    2.45       1.3  T
   3   -109.1712081  0.167358E-06  0.287E-03    2.45       4.2  T
   4   -109.1712083 -0.251627E-06  0.624E-04    2.45      19.4  T
   5   -109.1712083 -0.533085E-08  0.356E-04    2.45      34.0  T
     SCC iter.                  ...        0 min,  0.024 sec
     gradient                   ...        0 min,  0.017 sec
 * total energy  :  -107.7240317 Eh     change       -0.2073315E-04 Eh
   gradient norm :     0.0023222 Eh/α   predicted    -0.1048643E-04 ( -49.42%)
   displ. norm   :     0.0556932 α      lambda        0.1519082E-05
   maximum displ.:     0.0304478 α      in ANC's #4, #6, #3, ...

........................................................................
.............................. CYCLE   38 ..............................
........................................................................

 iter      E             dE          RMSdq      gap      omega  full diag
   1   -109.1714992 -0.109171E+03  0.107E-02    2.45       0.0  T
   2   -109.1714993 -0.166085E-06  0.621E-03    2.45       2.0  T
   3   -109.1714992  0.760636E-07  0.196E-03    2.45       6.2  T
   4   -109.1714994 -0.115485E-06  0.428E-04    2.45      28.4  T
   5   -109.1714994 -0.230501E-08  0.250E-04    2.45      48.6  T
     SCC iter.                  ...        0 min,  0.023 sec
     gradient                   ...        0 min,  0.016 sec
 * total energy  :  -107.7240337 Eh     change       -0.1981731E-05 Eh
   gradient norm :     0.0040922 Eh/α   predicted     0.7603738E-06 (-138.37%)
   displ. norm   :     0.0474950 α      lambda       -0.1749615E-04
   maximum displ.:     0.0296438 α      in ANC's #4, #6, #3, ...

........................................................................
.............................. CYCLE   39 ..............................
........................................................................

 iter      E             dE          RMSdq      gap      omega  full diag
   1   -109.1712885 -0.109171E+03  0.927E-03    2.45       0.0  T
   2   -109.1712886 -0.935445E-07  0.539E-03    2.45       2.3  T
   3   -109.1712885  0.426173E-07  0.131E-03    2.45       9.2  T
   4   -109.1712886 -0.665476E-07  0.415E-04    2.45      29.2  T
   5   -109.1712886 -0.243502E-08  0.236E-04    2.45      51.4  T
     SCC iter.                  ...        0 min,  0.024 sec
     gradient                   ...        0 min,  0.016 sec
 * total energy  :  -107.7240488 Eh     change       -0.1515941E-04 Eh
   gradient norm :     0.0028959 Eh/α   predicted    -0.8769877E-05 ( -42.15%)
   displ. norm   :     0.1611832 α      lambda       -0.5080816E-04
   maximum displ.:     0.0924971 α      in ANC's #4, #6, #3, ...

........................................................................
.............................. CYCLE   40 ..............................
........................................................................

 iter      E             dE          RMSdq      gap      omega  full diag
   1   -109.1706398 -0.109171E+03  0.309E-02    2.45       0.0  T
   2   -109.1706408 -0.105316E-05  0.178E-02    2.45       1.0  T
   3   -109.1706407  0.165136E-06  0.336E-03    2.45       3.6  T
   4   -109.1706410 -0.333487E-06  0.132E-03    2.45       9.2  T
   5   -109.1706410 -0.350136E-07  0.693E-04    2.45      17.5  T
   6   -109.1706410 -0.488335E-08  0.218E-04    2.45      55.7  T
     SCC iter.                  ...        0 min,  0.032 sec
     gradient                   ...        0 min,  0.016 sec
 * total energy  :  -107.7240831 Eh     change       -0.3428032E-04 Eh
   gradient norm :     0.0014369 Eh/α   predicted    -0.2606521E-04 ( -23.96%)
   displ. norm   :     0.2273679 α      lambda       -0.2612584E-04
   maximum displ.:     0.1237553 α      in ANC's #4, #3, #10, ...

........................................................................
.............................. CYCLE   41 ..............................
........................................................................

 iter      E             dE          RMSdq      gap      omega  full diag
   1   -109.1702767 -0.109170E+03  0.412E-02    2.45       0.0  T
   2   -109.1702774 -0.673302E-06  0.238E-02    2.45       1.0  T
   3   -109.1702772  0.191456E-06  0.338E-03    2.45       3.6  T
   4   -109.1702777 -0.439337E-06  0.148E-03    2.45       8.2  T
   5   -109.1702777 -0.277662E-07  0.611E-04    2.45      19.8  T
   6   -109.1702777 -0.455127E-08  0.208E-04    2.45      58.2  T
     SCC iter.                  ...        0 min,  0.028 sec
     gradient                   ...        0 min,  0.019 sec
 * total energy  :  -107.7241061 Eh     change       -0.2304218E-04 Eh
   gradient norm :     0.0025754 Eh/α   predicted    -0.1336454E-04 ( -42.00%)
   displ. norm   :     0.0711892 α      lambda       -0.1870490E-04
   maximum displ.:     0.0324660 α      in ANC's #4, #10, #3, ...

........................................................................
.............................. CYCLE   42 ..............................
........................................................................

 iter      E             dE          RMSdq      gap      omega  full diag
   1   -109.1706366 -0.109171E+03  0.130E-02    2.45       0.0  T
   2   -109.1706367 -0.114183E-06  0.758E-03    2.45       1.6  T
   3   -109.1706367  0.352746E-07  0.122E-03    2.45       9.9  T
   4   -109.1706368 -0.621206E-07  0.431E-04    2.45      28.1  T
   5   -109.1706368 -0.273671E-08  0.213E-04    2.45      57.0  T
     SCC iter.                  ...        0 min,  0.030 sec
     gradient                   ...        0 min,  0.017 sec
 * total energy  :  -107.7241214 Eh     change       -0.1523859E-04 Eh
   gradient norm :     0.0019831 Eh/α   predicted    -0.9401339E-05 ( -38.31%)
   displ. norm   :     0.2318125 α      lambda       -0.3643838E-04
   maximum displ.:     0.1166226 α      in ANC's #4, #3, #10, ...
 * RMSD in coord.:     0.4183639 α      energy gain  -0.2284354E-02 Eh

generating ANC from exact Hessian ...
Using Lindh-Hessian (1995)
 Shifting diagonal of input Hessian by    9.9339668841186175E-003
 Lowest  eigenvalues of input Hessian
    0.000000    0.000000    0.000000    0.000000    0.000000    0.000000
    0.010000    0.010025    0.010065    0.010124    0.010275    0.010660
    0.010800    0.010929    0.010970    0.011380    0.011617    0.011872
 Highest eigenvalues
    2.055842    2.077292    2.079391    2.306784    2.319508    2.321825


........................................................................
.............................. CYCLE   43 ..............................
........................................................................

 iter      E             dE          RMSdq      gap      omega  full diag
   1   -109.1716068 -0.109172E+03  0.376E-02    2.45       0.0  T
   2   -109.1716075 -0.715199E-06  0.219E-02    2.45       1.0  T
   3   -109.1716072  0.269497E-06  0.323E-03    2.45       3.8  T
   4   -109.1716077 -0.465588E-06  0.110E-03    2.45      11.0  T
   5   -109.1716077 -0.167254E-07  0.553E-04    2.45      21.9  T
   6   -109.1716077 -0.326099E-08  0.176E-04    2.45      68.9  T
     SCC iter.                  ...        0 min,  0.031 sec
     gradient                   ...        0 min,  0.016 sec
 * total energy  :  -107.7241501 Eh     change       -0.2870669E-04 Eh
   gradient norm :     0.0026002 Eh/α   predicted     0.0000000E+00 (-100.00%)
   displ. norm   :     0.0238953 α      lambda       -0.1659785E-04
   maximum displ.:     0.0108156 α      in ANC's #17, #8, #4, ...

........................................................................
.............................. CYCLE   44 ..............................
........................................................................

 iter      E             dE          RMSdq      gap      omega  full diag
   1   -109.1713743 -0.109171E+03  0.698E-03    2.45       0.0  T
   2   -109.1713744 -0.588092E-07  0.397E-03    2.45       3.1  T
   3   -109.1713744  0.206759E-07  0.989E-04    2.45      12.3  T
   4   -109.1713744 -0.358056E-07  0.420E-04    2.45      28.9  T
     SCC iter.                  ...        0 min,  0.017 sec
     gradient                   ...        0 min,  0.016 sec
 * total energy  :  -107.7241642 Eh     change       -0.1410590E-04 Eh
   gradient norm :     0.0012068 Eh/α   predicted    -0.8844828E-05 ( -37.30%)
   displ. norm   :     0.1101684 α      lambda       -0.3149327E-04
   maximum displ.:     0.0522022 α      in ANC's #17, #4, #9, ...

........................................................................
.............................. CYCLE   45 ..............................
........................................................................

 iter      E             dE          RMSdq      gap      omega  full diag
   1   -109.1706011 -0.109171E+03  0.225E-02    2.45       0.0  T
   2   -109.1706016 -0.547127E-06  0.130E-02    2.45       1.0  T
   3   -109.1706013  0.343768E-06  0.327E-03    2.45       3.7  T
   4   -109.1706018 -0.523030E-06  0.102E-03    2.45      11.9  T
   5   -109.1706018 -0.140701E-07  0.493E-04    2.45      24.6  T
   6   -109.1706018 -0.234783E-08  0.173E-04    2.45      70.1  T
     SCC iter.                  ...        0 min,  0.031 sec
     gradient                   ...        0 min,  0.018 sec
 * total energy  :  -107.7241880 Eh     change       -0.2376552E-04 Eh
   gradient norm :     0.0029637 Eh/α   predicted    -0.1583194E-04 ( -33.38%)
   displ. norm   :     0.0431499 α      lambda       -0.1379737E-04
   maximum displ.:     0.0210236 α      in ANC's #17, #4, #9, ...

........................................................................
.............................. CYCLE   46 ..............................
........................................................................

 iter      E             dE          RMSdq      gap      omega  full diag
   1   -109.1707296 -0.109171E+03  0.876E-03    2.45       0.0  T
   2   -109.1707296 -0.465024E-07  0.493E-03    2.45       2.5  T
   3   -109.1707296  0.462266E-08  0.878E-04    2.45      13.8  T
   4   -109.1707296 -0.186355E-07  0.398E-04    2.45      30.5  T
     SCC iter.                  ...        0 min,  0.020 sec
     gradient                   ...        0 min,  0.016 sec
 * total energy  :  -107.7241998 Eh     change       -0.1184037E-04 Eh
   gradient norm :     0.0022486 Eh/α   predicted    -0.6912301E-05 ( -41.62%)
   displ. norm   :     0.1673012 α      lambda       -0.4312598E-04
   maximum displ.:     0.0816647 α      in ANC's #17, #4, #9, ...

........................................................................
.............................. CYCLE   47 ..............................
........................................................................

 iter      E             dE          RMSdq      gap      omega  full diag
   1   -109.1708203 -0.109171E+03  0.281E-02    2.45       0.0  T
   2   -109.1708207 -0.443729E-06  0.162E-02    2.45       1.0  T
   3   -109.1708207  0.449993E-07  0.240E-03    2.45       5.1  T
   4   -109.1708209 -0.203077E-06  0.102E-03    2.45      11.9  T
   5   -109.1708209 -0.105874E-07  0.409E-04    2.45      29.6  T
   6   -109.1708209 -0.184626E-08  0.142E-04    2.45      85.2  T
     SCC iter.                  ...        0 min,  0.026 sec
     gradient                   ...        0 min,  0.018 sec
 * total energy  :  -107.7242252 Eh     change       -0.2536594E-04 Eh
   gradient norm :     0.0019803 Eh/α   predicted    -0.2216682E-04 ( -12.61%)
   displ. norm   :     0.0997762 α      lambda       -0.1145337E-04
   maximum displ.:     0.0442506 α      in ANC's #17, #4, #9, ...

........................................................................
.............................. CYCLE   48 ..............................
........................................................................

 iter      E             dE          RMSdq      gap      omega  full diag
   1   -109.1710872 -0.109171E+03  0.157E-02    2.45       0.0  T
   2   -109.1710873 -0.951431E-07  0.910E-03    2.45       1.3  T
   3   -109.1710872  0.169260E-07  0.122E-03    2.45       9.9  T
   4   -109.1710873 -0.526694E-07  0.504E-04    2.45      24.0  T
   5   -109.1710873 -0.170759E-08  0.221E-04    2.45      54.9  T
     SCC iter.                  ...        0 min,  0.031 sec
     gradient                   ...        0 min,  0.018 sec
 * total energy  :  -107.7242392 Eh     change       -0.1402039E-04 Eh
   gradient norm :     0.0019506 Eh/α   predicted    -0.5755806E-05 ( -58.95%)
   displ. norm   :     0.1858610 α      lambda       -0.2700832E-04
   maximum displ.:     0.0848006 α      in ANC's #4, #17, #9, ...

........................................................................
.............................. CYCLE   49 ..............................
........................................................................

 iter      E             dE          RMSdq      gap      omega  full diag
   1   -109.1714615 -0.109171E+03  0.298E-02    2.45       0.0  T
   2   -109.1714619 -0.346036E-06  0.173E-02    2.45       1.0  T
   3   -109.1714617  0.201940E-06  0.297E-03    2.45       4.1  T
   4   -109.1714620 -0.331041E-06  0.102E-03    2.45      11.9  T
   5   -109.1714620 -0.433745E-08  0.483E-04    2.45      25.1  T
   6   -109.1714620 -0.348251E-08  0.158E-04    2.45      76.5  T
     SCC iter.                  ...        0 min,  0.026 sec
     gradient                   ...        0 min,  0.017 sec
 * total energy  :  -107.7242661 Eh     change       -0.2691247E-04 Eh
   gradient norm :     0.0012383 Eh/α   predicted    -0.1371971E-04 ( -49.02%)
   displ. norm   :     0.2091962 α      lambda       -0.1429565E-04
   maximum displ.:     0.0950244 α      in ANC's #4, #17, #9, ...

........................................................................
.............................. CYCLE   50 ..............................
........................................................................

 iter      E             dE          RMSdq      gap      omega  full diag
   1   -109.1702507 -0.109170E+03  0.328E-02    2.45       0.0  T
   2   -109.1702511 -0.311627E-06  0.190E-02    2.45       1.0  T
   3   -109.1702510  0.879245E-08  0.210E-03    2.45       5.8  T
   4   -109.1702512 -0.128142E-06  0.108E-03    2.45      11.2  T
   5   -109.1702512 -0.142217E-07  0.367E-04    2.45      33.1  T
   6   -109.1702512 -0.126573E-08  0.141E-04    2.45      86.3  T
     SCC iter.                  ...        0 min,  0.032 sec
     gradient                   ...        0 min,  0.017 sec
 * total energy  :  -107.7242775 Eh     change       -0.1143774E-04 Eh
   gradient norm :     0.0021362 Eh/α   predicted    -0.7291395E-05 ( -36.25%)
   displ. norm   :     0.0681491 α      lambda       -0.1571377E-04
   maximum displ.:     0.0382053 α      in ANC's #4, #3, #9, ...

........................................................................
.............................. CYCLE   51 ..............................
........................................................................

 iter      E             dE          RMSdq      gap      omega  full diag
   1   -109.1708894 -0.109171E+03  0.112E-02    2.45       0.0  T
   2   -109.1708894 -0.765510E-07  0.649E-03    2.45       1.9  T
   3   -109.1708894  0.313818E-08  0.829E-04    2.45      14.6  T
   4   -109.1708895 -0.205819E-07  0.399E-04    2.45      30.4  T
     SCC iter.                  ...        0 min,  0.017 sec
     gradient                   ...        0 min,  0.016 sec
 * total energy  :  -107.7242898 Eh     change       -0.1228872E-04 Eh
   gradient norm :     0.0013260 Eh/α   predicted    -0.7895311E-05 ( -35.75%)
   displ. norm   :     0.2117719 α      lambda       -0.2134455E-04
   maximum displ.:     0.1154236 α      in ANC's #4, #3, #9, ...

........................................................................
.............................. CYCLE   52 ..............................
........................................................................

 iter      E             dE          RMSdq      gap      omega  full diag
   1   -109.1717812 -0.109172E+03  0.342E-02    2.45       0.0  T
   2   -109.1717815 -0.340124E-06  0.197E-02    2.45       1.0  T
   3   -109.1717815  0.591014E-07  0.240E-03    2.45       5.0  T
   4   -109.1717816 -0.175145E-06  0.121E-03    2.45      10.0  T
   5   -109.1717816 -0.209769E-07  0.381E-04    2.45      31.8  T
   6   -109.1717816 -0.229676E-08  0.159E-04    2.45      76.3  T
     SCC iter.                  ...        0 min,  0.032 sec
     gradient                   ...        0 min,  0.017 sec
 * total energy  :  -107.7243124 Eh     change       -0.2256632E-04 Eh
   gradient norm :     0.0013124 Eh/α   predicted    -0.1088623E-04 ( -51.76%)
   displ. norm   :     0.2909390 α      lambda       -0.2027309E-04
   maximum displ.:     0.1543666 α      in ANC's #4, #3, #9, ...

........................................................................
.............................. CYCLE   53 ..............................
........................................................................

 iter      E             dE          RMSdq      gap      omega  full diag
   1   -109.1709976 -0.109171E+03  0.460E-02    2.45       0.0  T
   2   -109.1709982 -0.587066E-06  0.264E-02    2.45       1.0  T
   3   -109.1709981  0.715911E-07  0.319E-03    2.45       3.8  T
   4   -109.1709984 -0.258077E-06  0.162E-03    2.45       7.5  T
   5   -109.1709984 -0.402266E-07  0.566E-04    2.45      21.4  T
   6   -109.1709984 -0.469680E-08  0.202E-04    2.45      60.1  T
     SCC iter.                  ...        0 min,  0.025 sec
     gradient                   ...        0 min,  0.016 sec
 * total energy  :  -107.7243335 Eh     change       -0.2108625E-04 Eh
   gradient norm :     0.0015401 Eh/α   predicted    -0.1051865E-04 ( -50.12%)
   displ. norm   :     0.1916908 α      lambda       -0.1936857E-04
   maximum displ.:     0.1080689 α      in ANC's #4, #3, #9, ...

........................................................................
.............................. CYCLE   54 ..............................
........................................................................

 iter      E             dE          RMSdq      gap      omega  full diag
   1   -109.1713299 -0.109171E+03  0.327E-02    2.45       0.0  T
   2   -109.1713303 -0.361395E-06  0.185E-02    2.45       1.0  T
   3   -109.1713301  0.174361E-06  0.316E-03    2.45       3.8  T
   4   -109.1713304 -0.291880E-06  0.123E-03    2.45       9.9  T
   5   -109.1713304 -0.158397E-07  0.521E-04    2.45      23.3  T
   6   -109.1713304 -0.616534E-08  0.159E-04    2.45      76.1  T
     SCC iter.                  ...        0 min,  0.032 sec
     gradient                   ...        0 min,  0.018 sec
 * total energy  :  -107.7243532 Eh     change       -0.1968188E-04 Eh
   gradient norm :     0.0014843 Eh/α   predicted    -0.9848707E-05 ( -49.96%)
   displ. norm   :     0.2427872 α      lambda       -0.1671738E-04
   maximum displ.:     0.1341450 α      in ANC's #4, #3, #9, ...

........................................................................
.............................. CYCLE   55 ..............................
........................................................................

 iter      E             dE          RMSdq      gap      omega  full diag
   1   -109.1710749 -0.109171E+03  0.406E-02    2.45       0.0  T
   2   -109.1710754 -0.419822E-06  0.229E-02    2.45       1.0  T
   3   -109.1710753  0.628098E-07  0.291E-03    2.45       4.2  T
   4   -109.1710755 -0.174311E-06  0.166E-03    2.45       7.3  T
   5   -109.1710755 -0.486965E-07  0.401E-04    2.45      30.3  T
   6   -109.1710755 -0.303906E-08  0.176E-04    2.45      68.8  T
     SCC iter.                  ...        0 min,  0.024 sec
     gradient                   ...        0 min,  0.016 sec
 * total energy  :  -107.7243725 Eh     change       -0.1938546E-04 Eh
   gradient norm :     0.0018922 Eh/α   predicted    -0.8578491E-05 ( -55.75%)
   displ. norm   :     0.3359301 α      lambda       -0.2992770E-04
   maximum displ.:     0.1841240 α      in ANC's #4, #3, #9, ...

........................................................................
.............................. CYCLE   56 ..............................
........................................................................

 iter      E             dE          RMSdq      gap      omega  full diag
   1   -109.1718440 -0.109172E+03  0.579E-02    2.45       0.0  T
   2   -109.1718449 -0.874028E-06  0.325E-02    2.45       1.0  T
   3   -109.1718447  0.148396E-06  0.426E-03    2.45       2.8  T
   4   -109.1718451 -0.378694E-06  0.244E-03    2.45       5.0  T
   5   -109.1718452 -0.917928E-07  0.620E-04    2.45      19.6  T
   6   -109.1718452 -0.801660E-08  0.292E-04    2.45      41.5  T
     SCC iter.                  ...        0 min,  0.028 sec
     gradient                   ...        0 min,  0.019 sec
 * total energy  :  -107.7244046 Eh     change       -0.3209693E-04 Eh
   gradient norm :     0.0017587 Eh/α   predicted    -0.1571719E-04 ( -51.03%)
   displ. norm   :     0.5269375 α      lambda       -0.3215690E-04
   maximum displ.:     0.2894775 α      in ANC's #4, #3, #9, ...

........................................................................
.............................. CYCLE   57 ..............................
........................................................................

 iter      E             dE          RMSdq      gap      omega  full diag
   1   -109.1693948 -0.109169E+03  0.867E-02    2.45       0.0  T
   2   -109.1693968 -0.196802E-05  0.488E-02    2.45       1.0  T
   3   -109.1693968 -0.367080E-07  0.581E-03    2.45       2.1  T
   4   -109.1693973 -0.472125E-06  0.351E-03    2.45       3.5  T
   5   -109.1693975 -0.181451E-06  0.916E-04    2.45      13.2  T
   6   -109.1693975 -0.187452E-07  0.397E-04    2.45      30.5  T
     SCC iter.                  ...        0 min,  0.026 sec
     gradient                   ...        0 min,  0.016 sec
 * total energy  :  -107.7244290 Eh     change       -0.2432926E-04 Eh
   gradient norm :     0.0033655 Eh/α   predicted    -0.1806319E-04 ( -25.76%)
   displ. norm   :     0.1404983 α      lambda       -0.3500923E-04
   maximum displ.:     0.0727134 α      in ANC's #4, #3, #9, ...

........................................................................
.............................. CYCLE   58 ..............................
........................................................................

 iter      E             dE          RMSdq      gap      omega  full diag
   1   -109.1706392 -0.109171E+03  0.248E-02    2.45       0.0  T
   2   -109.1706395 -0.288249E-06  0.139E-02    2.45       1.0  T
   3   -109.1706395  0.419155E-07  0.199E-03    2.45       6.1  T
   4   -109.1706396 -0.993465E-07  0.110E-03    2.45      11.0  T
   5   -109.1706396 -0.203040E-07  0.362E-04    2.45      33.5  T
   6   -109.1706396 -0.124200E-08  0.151E-04    2.45      80.5  T
     SCC iter.                  ...        0 min,  0.026 sec
     gradient                   ...        0 min,  0.019 sec
 * total energy  :  -107.7244561 Eh     change       -0.2714103E-04 Eh
   gradient norm :     0.0020680 Eh/α   predicted    -0.1785228E-04 ( -34.22%)
   displ. norm   :     0.3576480 α      lambda       -0.4929430E-04
   maximum displ.:     0.1932103 α      in ANC's #4, #3, #9, ...

........................................................................
.............................. CYCLE   59 ..............................
........................................................................

 iter      E             dE          RMSdq      gap      omega  full diag
   1   -109.1718049 -0.109172E+03  0.587E-02    2.45       0.0  T
   2   -109.1718061 -0.124720E-05  0.330E-02    2.45       1.0  T
   3   -109.1718060  0.148205E-06  0.426E-03    2.45       2.8  T
   4   -109.1718064 -0.428755E-06  0.245E-03    2.45       5.0  T
   5   -109.1718065 -0.877144E-07  0.769E-04    2.45      15.8  T
   6   -109.1718065 -0.104532E-07  0.341E-04    2.45      35.5  T
     SCC iter.                  ...        0 min,  0.029 sec
     gradient                   ...        0 min,  0.016 sec
 * total energy  :  -107.7244953 Eh     change       -0.3922938E-04 Eh
   gradient norm :     0.0017743 Eh/α   predicted    -0.2780456E-04 ( -29.12%)
   displ. norm   :     0.8752277 α      lambda       -0.6689566E-04
   maximum displ.:     0.4736769 α      in ANC's #4, #3, #9, ...

........................................................................
.............................. CYCLE   60 ..............................
........................................................................

 iter      E             dE          RMSdq      gap      omega  full diag
   1   -109.1697914 -0.109170E+03  0.141E-01    2.45       0.0  T
   2   -109.1697970 -0.566075E-05  0.792E-02    2.45       1.0  T
   3   -109.1697965  0.511465E-06  0.982E-03    2.45       1.2  T
   4   -109.1697984 -0.192252E-05  0.600E-03    2.45       2.0  T
   5   -109.1697990 -0.590761E-06  0.153E-03    2.45       7.9  T
   6   -109.1697991 -0.488849E-07  0.715E-04    2.45      17.0  T
   7   -109.1697991 -0.145373E-08  0.430E-04    2.45      28.2  T
     SCC iter.                  ...        0 min,  0.031 sec
     gradient                   ...        0 min,  0.017 sec
 * total energy  :  -107.7245826 Eh     change       -0.8722350E-04 Eh
   gradient norm :     0.0039024 Eh/α   predicted    -0.4483693E-04 ( -48.60%)
   displ. norm   :     0.5608147 α      lambda       -0.1127216E-03
   maximum displ.:     0.2880585 α      in ANC's #4, #3, #9, ...

........................................................................
.............................. CYCLE   61 ..............................
........................................................................

 iter      E             dE          RMSdq      gap      omega  full diag
   1   -109.1704012 -0.109170E+03  0.873E-02    2.45       0.0  T
   2   -109.1704039 -0.265617E-05  0.490E-02    2.45       1.0  T
   3   -109.1704026  0.130706E-05  0.789E-03    2.45       1.5  T
   4   -109.1704047 -0.207179E-05  0.366E-03    2.45       3.3  T
   5   -109.1704049 -0.217324E-06  0.113E-03    2.45      10.7  T
   6   -109.1704049 -0.155795E-07  0.470E-04    2.45      25.8  T
   7   -109.1704049 -0.597709E-09  0.294E-04    2.45      41.3  T
     SCC iter.                  ...        0 min,  0.033 sec
     gradient                   ...        0 min,  0.015 sec
 * total energy  :  -107.7246722 Eh     change       -0.8967197E-04 Eh
   gradient norm :     0.0054391 Eh/α   predicted    -0.7409019E-04 ( -17.38%)
   displ. norm   :     0.5555703 α      lambda       -0.1227498E-03
   maximum displ.:     0.2837169 α      in ANC's #4, #3, #9, ...

........................................................................
.............................. CYCLE   62 ..............................
........................................................................

 iter      E             dE          RMSdq      gap      omega  full diag
   1   -109.1695993 -0.109170E+03  0.867E-02    2.45       0.0  T
   2   -109.1696013 -0.207362E-05  0.485E-02    2.45       1.0  T
   3   -109.1696000  0.134328E-05  0.763E-03    2.45       1.6  T
   4   -109.1696021 -0.210873E-05  0.374E-03    2.45       3.2  T
   5   -109.1696023 -0.210593E-06  0.917E-04    2.45      13.2  T
   6   -109.1696023 -0.124114E-07  0.489E-04    2.45      24.8  T
     SCC iter.                  ...        0 min,  0.027 sec
     gradient                   ...        0 min,  0.017 sec
 * total energy  :  -107.7247818 Eh     change       -0.1095803E-03 Eh
   gradient norm :     0.0050091 Eh/α   predicted    -0.8032427E-04 ( -26.70%)
   displ. norm   :     0.4950263 α      lambda       -0.2433645E-03
   maximum displ.:     0.1892921 α      in ANC's #4, #9, #10, ...

........................................................................
.............................. CYCLE   63 ..............................
........................................................................

 iter      E             dE          RMSdq      gap      omega  full diag
   1   -109.1773114 -0.109177E+03  0.854E-02    2.46       0.0  T
   2   -109.1773179 -0.652455E-05  0.484E-02    2.46       1.0  T
   3   -109.1773124  0.553982E-05  0.129E-02    2.45       1.0  T
   4   -109.1773199 -0.752974E-05  0.383E-03    2.45       3.2  T
   5   -109.1773201 -0.177108E-06  0.177E-03    2.45       6.9  T
   6   -109.1773201 -0.137100E-07  0.777E-04    2.45      15.6  T
   7   -109.1773201 -0.393833E-08  0.430E-04    2.45      28.2  T
     SCC iter.                  ...        0 min,  0.038 sec
     gradient                   ...        0 min,  0.016 sec
 * total energy  :  -107.7248605 Eh     change       -0.7864906E-04 Eh
   gradient norm :     0.0079610 Eh/α   predicted    -0.1515055E-03 (  92.63%)
   displ. norm   :     0.6829077 α      lambda       -0.2942174E-03
   maximum displ.:     0.3628865 α      in ANC's #4, #3, #9, ...

........................................................................
.............................. CYCLE   64 ..............................
........................................................................

 iter      E             dE          RMSdq      gap      omega  full diag
   1   -109.1688539 -0.109169E+03  0.116E-01    2.43       0.0  T
   2   -109.1688596 -0.576386E-05  0.637E-02    2.43       1.0  T
   3   -109.1688599 -0.256385E-06  0.887E-03    2.43       1.4  T
   4   -109.1688606 -0.648897E-06  0.505E-03    2.43       2.4  T
   5   -109.1688610 -0.402442E-06  0.139E-03    2.43       8.7  T
   6   -109.1688610 -0.574138E-07  0.560E-04    2.43      21.7  T
   7   -109.1688610 -0.406432E-08  0.319E-04    2.43      38.0  T
     SCC iter.                  ...        0 min,  0.030 sec
     gradient                   ...        0 min,  0.018 sec
 * total energy  :  -107.7250695 Eh     change       -0.2090832E-03 Eh
   gradient norm :     0.0056485 Eh/α   predicted    -0.2157157E-03 (   3.17%)
   displ. norm   :     0.6223906 α      lambda       -0.1572660E-03
   maximum displ.:     0.3104051 α      in ANC's #4, #3, #9, ...

........................................................................
.............................. CYCLE   65 ..............................
........................................................................

 iter      E             dE          RMSdq      gap      omega  full diag
   1   -109.1646966 -0.109165E+03  0.103E-01    2.42       0.0  T
   2   -109.1647002 -0.361223E-05  0.560E-02    2.42       1.0  T
   3   -109.1646989  0.132606E-05  0.993E-03    2.42       1.2  T
   4   -109.1647011 -0.221887E-05  0.514E-03    2.42       2.4  T
   5   -109.1647014 -0.369534E-06  0.138E-03    2.42       8.8  T
   6   -109.1647015 -0.636043E-07  0.475E-04    2.42      25.5  T
   7   -109.1647015 -0.713996E-09  0.270E-04    2.42      44.9  T
     SCC iter.                  ...        0 min,  0.033 sec
     gradient                   ...        0 min,  0.016 sec
 * total energy  :  -107.7251820 Eh     change       -0.1124819E-03 Eh
   gradient norm :     0.0071019 Eh/α   predicted    -0.1090940E-03 (  -3.01%)
   displ. norm   :     0.3633758 α      lambda       -0.4017105E-03
   maximum displ.:     0.1545579 α      in ANC's #5, #15, #14, ...

........................................................................
.............................. CYCLE   66 ..............................
........................................................................

 iter      E             dE          RMSdq      gap      omega  full diag
   1   -109.1728875 -0.109173E+03  0.959E-02    2.42       0.0  T
   2   -109.1729019 -0.144248E-04  0.481E-02    2.42       1.0  T
   3   -109.1729016  0.240474E-06  0.118E-02    2.42       1.0  T
   4   -109.1729038 -0.212740E-05  0.503E-03    2.42       2.4  T
   5   -109.1729038  0.317014E-08  0.245E-03    2.42       5.0  T
   6   -109.1729039 -0.108818E-06  0.938E-04    2.42      12.9  T
   7   -109.1729039 -0.967137E-08  0.608E-04    2.42      19.9  T
     SCC iter.                  ...        0 min,  0.029 sec
     gradient                   ...        0 min,  0.017 sec
 * total energy  :  -107.7251306 Eh     change        0.5142103E-04 Eh
   gradient norm :     0.0180861 Eh/α   predicted    -0.2273785E-03 (-542.19%)
   displ. norm   :     0.2741870 α      lambda       -0.5017907E-03
   maximum displ.:     0.1083412 α      in ANC's #4, #3, #9, ...
 * RMSD in coord.:     0.8343328 α      energy gain  -0.1009229E-02 Eh

generating ANC from exact Hessian ...
Using Lindh-Hessian (1995)
 Shifting diagonal of input Hessian by    9.9358320332134792E-003
 Lowest  eigenvalues of input Hessian
    0.000000    0.000000    0.000000    0.000000    0.000000    0.000000
    0.010000    0.010031    0.010066    0.010116    0.010351    0.010624
    0.010819    0.010972    0.011394    0.011517    0.011683    0.011871
 Highest eigenvalues
    2.053414    2.074947    2.078284    2.304680    2.318756    2.323682


........................................................................
.............................. CYCLE   67 ..............................
........................................................................

 iter      E             dE          RMSdq      gap      omega  full diag
   1   -109.1715269 -0.109172E+03  0.576E-02    2.43       0.0  T
   2   -109.1715334 -0.649834E-05  0.314E-02    2.43       1.0  T
   3   -109.1715329  0.482158E-06  0.955E-03    2.43       1.3  T
   4   -109.1715343 -0.140336E-05  0.282E-03    2.43       4.3  T
   5   -109.1715344 -0.666425E-07  0.179E-03    2.43       6.8  T
   6   -109.1715344 -0.451577E-07  0.765E-04    2.43      15.9  T
   7   -109.1715344 -0.462137E-08  0.497E-04    2.43      24.4  T
     SCC iter.                  ...        0 min,  0.030 sec
     gradient                   ...        0 min,  0.017 sec
 * total energy  :  -107.7254399 Eh     change       -0.3092600E-03 Eh
   gradient norm :     0.0052619 Eh/α   predicted     0.0000000E+00 (-100.00%)
   displ. norm   :     0.0496313 α      lambda       -0.7357923E-04
   maximum displ.:     0.0197143 α      in ANC's #5, #11, #7, ...

........................................................................
.............................. CYCLE   68 ..............................
........................................................................

 iter      E             dE          RMSdq      gap      omega  full diag
   1   -109.1728405 -0.109173E+03  0.169E-02    2.44       0.0  T
   2   -109.1728410 -0.510595E-06  0.933E-03    2.44       1.3  T
   3   -109.1728408  0.127975E-06  0.271E-03    2.44       4.5  T
   4   -109.1728410 -0.210790E-06  0.112E-03    2.43      10.8  T
   5   -109.1728411 -0.949581E-08  0.586E-04    2.44      20.7  T
   6   -109.1728411 -0.514096E-08  0.215E-04    2.44      56.4  T
     SCC iter.                  ...        0 min,  0.033 sec
     gradient                   ...        0 min,  0.015 sec
 * total energy  :  -107.7254975 Eh     change       -0.5763710E-04 Eh
   gradient norm :     0.0020761 Eh/α   predicted    -0.3897766E-04 ( -32.37%)
   displ. norm   :     0.1108460 α      lambda       -0.7824684E-04
   maximum displ.:     0.0480855 α      in ANC's #5, #11, #7, ...

........................................................................
.............................. CYCLE   69 ..............................
........................................................................

 iter      E             dE          RMSdq      gap      omega  full diag
   1   -109.1739980 -0.109174E+03  0.241E-02    2.45       0.0  T
   2   -109.1739988 -0.711210E-06  0.134E-02    2.45       1.0  T
   3   -109.1739983  0.410542E-06  0.389E-03    2.45       3.1  T
   4   -109.1739989 -0.557162E-06  0.127E-03    2.45       9.6  T
   5   -109.1739989 -0.316952E-07  0.667E-04    2.45      18.2  T
   6   -109.1739989 -0.251120E-08  0.272E-04    2.45      44.5  T
     SCC iter.                  ...        0 min,  0.026 sec
     gradient                   ...        0 min,  0.016 sec
 * total energy  :  -107.7255523 Eh     change       -0.5476801E-04 Eh
   gradient norm :     0.0024228 Eh/α   predicted    -0.3960494E-04 ( -27.69%)
   displ. norm   :     0.1503561 α      lambda       -0.6506070E-04
   maximum displ.:     0.0680013 α      in ANC's #5, #11, #1, ...

........................................................................
.............................. CYCLE   70 ..............................
........................................................................

 iter      E             dE          RMSdq      gap      omega  full diag
   1   -109.1742338 -0.109174E+03  0.281E-02    2.45       0.0  T
   2   -109.1742342 -0.408082E-06  0.156E-02    2.45       1.0  T
   3   -109.1742337  0.465783E-06  0.384E-03    2.45       3.2  T
   4   -109.1742344 -0.616271E-06  0.130E-03    2.45       9.3  T
   5   -109.1742344 -0.141392E-07  0.508E-04    2.45      23.9  T
   6   -109.1742344 -0.180646E-08  0.226E-04    2.45      53.8  T
     SCC iter.                  ...        0 min,  0.035 sec
     gradient                   ...        0 min,  0.017 sec
 * total energy  :  -107.7256048 Eh     change       -0.5250288E-04 Eh
   gradient norm :     0.0039700 Eh/α   predicted    -0.3326596E-04 ( -36.64%)
   displ. norm   :     0.2811695 α      lambda       -0.1096369E-03
   maximum displ.:     0.1270982 α      in ANC's #5, #11, #1, ...

........................................................................
.............................. CYCLE   71 ..............................
........................................................................

 iter      E             dE          RMSdq      gap      omega  full diag
   1   -109.1735736 -0.109174E+03  0.494E-02    2.46       0.0  T
   2   -109.1735745 -0.940990E-06  0.270E-02    2.46       1.0  T
   3   -109.1735736  0.962968E-06  0.590E-03    2.46       2.1  T
   4   -109.1735749 -0.129674E-05  0.241E-03    2.46       5.0  T
   5   -109.1735749 -0.798775E-07  0.689E-04    2.46      17.6  T
   6   -109.1735750 -0.390955E-08  0.325E-04    2.46      37.3  T
     SCC iter.                  ...        0 min,  0.025 sec
     gradient                   ...        0 min,  0.017 sec
 * total energy  :  -107.7256928 Eh     change       -0.8802696E-04 Eh
   gradient norm :     0.0047201 Eh/α   predicted    -0.5915237E-04 ( -32.80%)
   displ. norm   :     0.3695453 α      lambda       -0.1310816E-03
   maximum displ.:     0.1710175 α      in ANC's #5, #1, #11, ...

........................................................................
.............................. CYCLE   72 ..............................
........................................................................

 iter      E             dE          RMSdq      gap      omega  full diag
   1   -109.1722512 -0.109172E+03  0.634E-02    2.46       0.0  T
   2   -109.1722526 -0.143268E-05  0.344E-02    2.46       1.0  T
   3   -109.1722516  0.103301E-05  0.709E-03    2.46       1.7  T
   4   -109.1722531 -0.151994E-05  0.322E-03    2.46       3.8  T
   5   -109.1722532 -0.117564E-06  0.923E-04    2.46      13.1  T
   6   -109.1722532 -0.155014E-07  0.457E-04    2.46      26.5  T
     SCC iter.                  ...        0 min,  0.029 sec
     gradient                   ...        0 min,  0.017 sec
 * total energy  :  -107.7257956 Eh     change       -0.1027810E-03 Eh
   gradient norm :     0.0042048 Eh/α   predicted    -0.7449197E-04 ( -27.52%)
   displ. norm   :     0.3737326 α      lambda       -0.1225571E-03
   maximum displ.:     0.1780115 α      in ANC's #5, #1, #3, ...

........................................................................
.............................. CYCLE   73 ..............................
........................................................................

 iter      E             dE          RMSdq      gap      omega  full diag
   1   -109.1714533 -0.109171E+03  0.653E-02    2.46       0.0  T
   2   -109.1714549 -0.153514E-05  0.346E-02    2.46       1.0  T
   3   -109.1714541  0.722754E-06  0.694E-03    2.46       1.7  T
   4   -109.1714553 -0.115886E-05  0.346E-03    2.46       3.5  T
   5   -109.1714555 -0.157563E-06  0.902E-04    2.46      13.4  T
   6   -109.1714555 -0.147042E-07  0.452E-04    2.46      26.9  T
     SCC iter.                  ...        0 min,  0.025 sec
     gradient                   ...        0 min,  0.015 sec
 * total energy  :  -107.7258914 Eh     change       -0.9584561E-04 Eh
   gradient norm :     0.0033702 Eh/α   predicted    -0.6983817E-04 ( -27.13%)
   displ. norm   :     0.3444061 α      lambda       -0.1158272E-03
   maximum displ.:     0.1698271 α      in ANC's #5, #1, #3, ...

........................................................................
.............................. CYCLE   74 ..............................
........................................................................

 iter      E             dE          RMSdq      gap      omega  full diag
   1   -109.1718404 -0.109172E+03  0.597E-02    2.46       0.0  T
   2   -109.1718418 -0.147177E-05  0.314E-02    2.46       1.0  T
   3   -109.1718413  0.577097E-06  0.638E-03    2.46       1.9  T
   4   -109.1718423 -0.984534E-06  0.315E-03    2.46       3.8  T
   5   -109.1718424 -0.110041E-06  0.998E-04    2.46      12.2  T
   6   -109.1718424 -0.168327E-07  0.486E-04    2.46      24.9  T
     SCC iter.                  ...        0 min,  0.028 sec
     gradient                   ...        0 min,  0.019 sec
 * total energy  :  -107.7259822 Eh     change       -0.9077850E-04 Eh
   gradient norm :     0.0032969 Eh/α   predicted    -0.6481074E-04 ( -28.61%)
   displ. norm   :     0.3350522 α      lambda       -0.1104199E-03
   maximum displ.:     0.1680617 α      in ANC's #5, #1, #3, ...

........................................................................
.............................. CYCLE   75 ..............................
........................................................................

 iter      E             dE          RMSdq      gap      omega  full diag
   1   -109.1727451 -0.109173E+03  0.563E-02    2.46       0.0  T
   2   -109.1727465 -0.138938E-05  0.298E-02    2.46       1.0  T
   3   -109.1727458  0.713711E-06  0.628E-03    2.46       1.9  T
   4   -109.1727469 -0.112463E-05  0.294E-03    2.46       4.1  T
   5   -109.1727470 -0.880857E-07  0.955E-04    2.46      12.7  T
   6   -109.1727470 -0.148660E-07  0.469E-04    2.46      25.8  T
     SCC iter.                  ...        0 min,  0.025 sec
     gradient                   ...        0 min,  0.015 sec
 * total energy  :  -107.7260682 Eh     change       -0.8601356E-04 Eh
   gradient norm :     0.0039303 Eh/α   predicted    -0.6140825E-04 ( -28.61%)
   displ. norm   :     0.3325911 α      lambda       -0.1052763E-03
   maximum displ.:     0.1657009 α      in ANC's #5, #3, #1, ...

........................................................................
.............................. CYCLE   76 ..............................
........................................................................

 iter      E             dE          RMSdq      gap      omega  full diag
   1   -109.1736713 -0.109174E+03  0.548E-02    2.46       0.0  T
   2   -109.1736726 -0.127408E-05  0.294E-02    2.46       1.0  T
   3   -109.1736718  0.833466E-06  0.627E-03    2.46       1.9  T
   4   -109.1736730 -0.125673E-05  0.281E-03    2.46       4.3  T
   5   -109.1736731 -0.707109E-07  0.106E-03    2.46      11.4  T
   6   -109.1736731 -0.150984E-07  0.557E-04    2.46      21.8  T
   7   -109.1736731 -0.710941E-09  0.349E-04    2.46      34.8  T
     SCC iter.                  ...        0 min,  0.030 sec
     gradient                   ...        0 min,  0.017 sec
 * total energy  :  -107.7261503 Eh     change       -0.8204264E-04 Eh
   gradient norm :     0.0041005 Eh/α   predicted    -0.5846335E-04 ( -28.74%)
   displ. norm   :     0.3480870 α      lambda       -0.1014837E-03
   maximum displ.:     0.1692698 α      in ANC's #5, #3, #1, ...

........................................................................
.............................. CYCLE   77 ..............................
........................................................................

 iter      E             dE          RMSdq      gap      omega  full diag
   1   -109.1740265 -0.109174E+03  0.584E-02    2.47       0.0  T
   2   -109.1740278 -0.128152E-05  0.314E-02    2.47       1.0  T
   3   -109.1740268  0.995959E-06  0.667E-03    2.47       1.8  T
   4   -109.1740282 -0.145807E-05  0.297E-03    2.47       4.1  T
   5   -109.1740283 -0.787753E-07  0.111E-03    2.47      10.9  T
   6   -109.1740283 -0.133340E-07  0.610E-04    2.47      19.9  T
   7   -109.1740283 -0.110730E-08  0.359E-04    2.47      33.7  T
     SCC iter.                  ...        0 min,  0.033 sec
     gradient                   ...        0 min,  0.016 sec
 * total energy  :  -107.7262274 Eh     change       -0.7715785E-04 Eh
   gradient norm :     0.0035365 Eh/α   predicted    -0.5691896E-04 ( -26.23%)
   displ. norm   :     0.3096604 α      lambda       -0.8650663E-04
   maximum displ.:     0.1420919 α      in ANC's #5, #3, #1, ...

........................................................................
.............................. CYCLE   78 ..............................
........................................................................

 iter      E             dE          RMSdq      gap      omega  full diag
   1   -109.1743266 -0.109174E+03  0.551E-02    2.48       0.0  T
   2   -109.1743277 -0.112931E-05  0.294E-02    2.48       1.0  T
   3   -109.1743269  0.825350E-06  0.627E-03    2.48       1.9  T
   4   -109.1743281 -0.121678E-05  0.276E-03    2.48       4.4  T
   5   -109.1743282 -0.587882E-07  0.994E-04    2.48      12.2  T
   6   -109.1743282 -0.977468E-08  0.522E-04    2.48      23.2  T
     SCC iter.                  ...        0 min,  0.026 sec
     gradient                   ...        0 min,  0.017 sec
 * total energy  :  -107.7262906 Eh     change       -0.6321710E-04 Eh
   gradient norm :     0.0025620 Eh/α   predicted    -0.4740369E-04 ( -25.01%)
   displ. norm   :     0.2517357 α      lambda       -0.6095743E-04
   maximum displ.:     0.1166779 α      in ANC's #3, #5, #1, ...

........................................................................
.............................. CYCLE   79 ..............................
........................................................................

 iter      E             dE          RMSdq      gap      omega  full diag
   1   -109.1736868 -0.109174E+03  0.455E-02    2.48       0.0  T
   2   -109.1736877 -0.891561E-06  0.243E-02    2.48       1.0  T
   3   -109.1736870  0.708577E-06  0.551E-03    2.48       2.2  T
   4   -109.1736880 -0.101458E-05  0.226E-03    2.48       5.4  T
   5   -109.1736880 -0.410488E-07  0.770E-04    2.48      15.8  T
   6   -109.1736881 -0.573206E-08  0.370E-04    2.48      32.8  T
     SCC iter.                  ...        0 min,  0.031 sec
     gradient                   ...        0 min,  0.015 sec
 * total energy  :  -107.7263355 Eh     change       -0.4488453E-04 Eh
   gradient norm :     0.0023931 Eh/α   predicted    -0.3241099E-04 ( -27.79%)
   displ. norm   :     0.1803173 α      lambda       -0.5144304E-04
   maximum displ.:     0.0915775 α      in ANC's #3, #1, #5, ...

........................................................................
.............................. CYCLE   80 ..............................
........................................................................

 iter      E             dE          RMSdq      gap      omega  full diag
   1   -109.1740809 -0.109174E+03  0.353E-02    2.49       0.0  T
   2   -109.1740815 -0.637269E-06  0.190E-02    2.49       1.0  T
   3   -109.1740813  0.256516E-06  0.374E-03    2.49       3.2  T
   4   -109.1740817 -0.405303E-06  0.174E-03    2.49       7.0  T
   5   -109.1740817 -0.330625E-07  0.563E-04    2.49      21.6  T
   6   -109.1740817 -0.432060E-08  0.159E-04    2.49      76.4  T
     SCC iter.                  ...        0 min,  0.025 sec
     gradient                   ...        0 min,  0.017 sec
 * total energy  :  -107.7263711 Eh     change       -0.3559681E-04 Eh
   gradient norm :     0.0029714 Eh/α   predicted    -0.2655831E-04 ( -25.39%)
   displ. norm   :     0.2304175 α      lambda       -0.4637322E-04
   maximum displ.:     0.1170273 α      in ANC's #3, #5, #1, ...

........................................................................
.............................. CYCLE   81 ..............................
........................................................................

 iter      E             dE          RMSdq      gap      omega  full diag
   1   -109.1721535 -0.109172E+03  0.441E-02    2.49       0.0  T
   2   -109.1721545 -0.909851E-06  0.235E-02    2.49       1.0  T
   3   -109.1721540  0.434636E-06  0.463E-03    2.49       2.6  T
   4   -109.1721547 -0.686773E-06  0.212E-03    2.49       5.7  T
   5   -109.1721548 -0.501230E-07  0.705E-04    2.49      17.2  T
   6   -109.1721548 -0.957834E-08  0.231E-04    2.49      52.6  T
     SCC iter.                  ...        0 min,  0.032 sec
     gradient                   ...        0 min,  0.016 sec
 * total energy  :  -107.7264019 Eh     change       -0.3077626E-04 Eh
   gradient norm :     0.0029879 Eh/α   predicted    -0.2442191E-04 ( -20.65%)
   displ. norm   :     0.1462829 α      lambda       -0.4493249E-04
   maximum displ.:     0.0796850 α      in ANC's #3, #15, #1, ...

........................................................................
.............................. CYCLE   82 ..............................
........................................................................

 iter      E             dE          RMSdq      gap      omega  full diag
   1   -109.1726683 -0.109173E+03  0.297E-02    2.49       0.0  T
   2   -109.1726689 -0.550743E-06  0.163E-02    2.49       1.0  T
   3   -109.1726688  0.802303E-07  0.306E-03    2.49       4.0  T
   4   -109.1726690 -0.200708E-06  0.138E-03    2.49       8.8  T
   5   -109.1726690 -0.157736E-07  0.604E-04    2.49      20.1  T
   6   -109.1726690 -0.471370E-08  0.216E-04    2.49      56.3  T
     SCC iter.                  ...        0 min,  0.026 sec
     gradient                   ...        0 min,  0.017 sec
 * total energy  :  -107.7264337 Eh     change       -0.3185826E-04 Eh
   gradient norm :     0.0022368 Eh/α   predicted    -0.2294931E-04 ( -27.96%)
   displ. norm   :     0.1635095 α      lambda       -0.3696690E-04
   maximum displ.:     0.0924187 α      in ANC's #3, #1, #5, ...

........................................................................
.............................. CYCLE   83 ..............................
........................................................................

 iter      E             dE          RMSdq      gap      omega  full diag
   1   -109.1726594 -0.109173E+03  0.319E-02    2.49       0.0  T
   2   -109.1726600 -0.568570E-06  0.171E-02    2.49       1.0  T
   3   -109.1726596  0.316799E-06  0.407E-03    2.49       3.0  T
   4   -109.1726601 -0.497321E-06  0.149E-03    2.49       8.2  T
   5   -109.1726602 -0.661747E-08  0.477E-04    2.49      25.4  T
   6   -109.1726602 -0.378826E-08  0.184E-04    2.49      66.1  T
     SCC iter.                  ...        0 min,  0.033 sec
     gradient                   ...        0 min,  0.017 sec
 * total energy  :  -107.7264619 Eh     change       -0.2819477E-04 Eh
   gradient norm :     0.0016320 Eh/α   predicted    -0.1899057E-04 ( -32.65%)
   displ. norm   :     0.2389742 α      lambda       -0.3299300E-04
   maximum displ.:     0.1394974 α      in ANC's #3, #1, #2, ...

........................................................................
.............................. CYCLE   84 ..............................
........................................................................

 iter      E             dE          RMSdq      gap      omega  full diag
   1   -109.1731427 -0.109173E+03  0.421E-02    2.49       0.0  T
   2   -109.1731437 -0.994682E-06  0.227E-02    2.49       1.0  T
   3   -109.1731431  0.624474E-06  0.546E-03    2.50       2.2  T
   4   -109.1731440 -0.930883E-06  0.198E-03    2.49       6.1  T
   5   -109.1731440 -0.140004E-07  0.652E-04    2.49      18.6  T
   6   -109.1731440 -0.557817E-08  0.273E-04    2.49      44.4  T
     SCC iter.                  ...        0 min,  0.027 sec
     gradient                   ...        0 min,  0.016 sec
 * total energy  :  -107.7264928 Eh     change       -0.3087165E-04 Eh
   gradient norm :     0.0025807 Eh/α   predicted    -0.1691830E-04 ( -45.20%)
   displ. norm   :     0.0941024 α      lambda       -0.1833777E-04
   maximum displ.:     0.0587187 α      in ANC's #3, #1, #2, ...

........................................................................
.............................. CYCLE   85 ..............................
........................................................................

 iter      E             dE          RMSdq      gap      omega  full diag
   1   -109.1733823 -0.109173E+03  0.156E-02    2.50       0.0  T
   2   -109.1733824 -0.761635E-07  0.821E-03    2.50       1.5  T
   3   -109.1733824  0.110215E-07  0.132E-03    2.50       9.2  T
   4   -109.1733824 -0.250010E-07  0.763E-04    2.50      15.9  T
   5   -109.1733824 -0.712058E-08  0.238E-04    2.50      51.0  T
     SCC iter.                  ...        0 min,  0.029 sec
     gradient                   ...        0 min,  0.017 sec
 * total energy  :  -107.7265093 Eh     change       -0.1647712E-04 Eh
   gradient norm :     0.0021884 Eh/α   predicted    -0.9251080E-05 ( -43.85%)
   displ. norm   :     0.1811215 α      lambda       -0.4473557E-04
   maximum displ.:     0.1155483 α      in ANC's #3, #1, #2, ...

........................................................................
.............................. CYCLE   86 ..............................
........................................................................

 iter      E             dE          RMSdq      gap      omega  full diag
   1   -109.1740236 -0.109174E+03  0.276E-02    2.50       0.0  T
   2   -109.1740240 -0.315445E-06  0.149E-02    2.50       1.0  T
   3   -109.1740239  0.393923E-07  0.266E-03    2.50       4.6  T
   4   -109.1740240 -0.103242E-06  0.135E-03    2.50       9.0  T
   5   -109.1740240 -0.181346E-07  0.442E-04    2.50      27.5  T
   6   -109.1740241 -0.387669E-08  0.174E-04    2.50      69.7  T
     SCC iter.                  ...        0 min,  0.026 sec
     gradient                   ...        0 min,  0.017 sec
 * total energy  :  -107.7265428 Eh     change       -0.3353718E-04 Eh
   gradient norm :     0.0013568 Eh/α   predicted    -0.2310654E-04 ( -31.10%)
   displ. norm   :     0.3195603 α      lambda       -0.3221288E-04
   maximum displ.:     0.2081673 α      in ANC's #3, #1, #2, ...

........................................................................
.............................. CYCLE   87 ..............................
........................................................................

 iter      E             dE          RMSdq      gap      omega  full diag
   1   -109.1735963 -0.109174E+03  0.542E-02    2.51       0.0  T
   2   -109.1735971 -0.845269E-06  0.282E-02    2.51       1.0  T
   3   -109.1735971  0.127034E-07  0.454E-03    2.51       2.7  T
   4   -109.1735973 -0.152447E-06  0.268E-03    2.51       4.5  T
   5   -109.1735974 -0.973047E-07  0.717E-04    2.51      16.9  T
   6   -109.1735974 -0.555737E-08  0.355E-04    2.51      34.1  T
     SCC iter.                  ...        0 min,  0.032 sec
     gradient                   ...        0 min,  0.017 sec
 * total energy  :  -107.7265720 Eh     change       -0.2913514E-04 Eh
   gradient norm :     0.0023983 Eh/α   predicted    -0.1684240E-04 ( -42.19%)
   displ. norm   :     0.0898425 α      lambda       -0.1820720E-04
   maximum displ.:     0.0628442 α      in ANC's #3, #1, #2, ...

........................................................................
.............................. CYCLE   88 ..............................
........................................................................

 iter      E             dE          RMSdq      gap      omega  full diag
   1   -109.1735780 -0.109174E+03  0.133E-02    2.51       0.0  T
   2   -109.1735781 -0.112218E-06  0.744E-03    2.51       1.6  T
   3   -109.1735781  0.583030E-08  0.130E-03    2.51       9.3  T
   4   -109.1735782 -0.326338E-07  0.659E-04    2.51      18.4  T
   5   -109.1735782 -0.361408E-08  0.276E-04    2.51      44.0  T
     SCC iter.                  ...        0 min,  0.024 sec
     gradient                   ...        0 min,  0.018 sec
 * total energy  :  -107.7265856 Eh     change       -0.1363271E-04 Eh
   gradient norm :     0.0019792 Eh/α   predicted    -0.9178078E-05 ( -32.68%)
   displ. norm   :     0.2087890 α      lambda       -0.2762774E-04
   maximum displ.:     0.1459820 α      in ANC's #3, #1, #2, ...

........................................................................
.............................. CYCLE   89 ..............................
........................................................................

 iter      E             dE          RMSdq      gap      omega  full diag
   1   -109.1733538 -0.109173E+03  0.336E-02    2.51       0.0  T
   2   -109.1733546 -0.797489E-06  0.179E-02    2.51       1.0  T
   3   -109.1733545  0.700851E-07  0.385E-03    2.51       3.2  T
   4   -109.1733547 -0.191040E-06  0.156E-03    2.51       7.8  T
   5   -109.1733548 -0.315212E-07  0.794E-04    2.51      15.3  T
   6   -109.1733548 -0.135988E-07  0.188E-04    2.51      64.5  T
     SCC iter.                  ...        0 min,  0.029 sec
     gradient                   ...        0 min,  0.017 sec
 * total energy  :  -107.7266127 Eh     change       -0.2712555E-04 Eh
   gradient norm :     0.0013258 Eh/α   predicted    -0.1408321E-04 ( -48.08%)
   displ. norm   :     0.1717694 α      lambda       -0.1720435E-04
   maximum displ.:     0.1184854 α      in ANC's #3, #1, #2, ...

........................................................................
.............................. CYCLE   90 ..............................
........................................................................

 iter      E             dE          RMSdq      gap      omega  full diag
   1   -109.1729946 -0.109173E+03  0.291E-02    2.51       0.0  T
   2   -109.1729950 -0.399897E-06  0.155E-02    2.51       1.0  T
   3   -109.1729948  0.184725E-06  0.356E-03    2.51       3.4  T
   4   -109.1729951 -0.299621E-06  0.152E-03    2.51       8.0  T
   5   -109.1729951 -0.486321E-08  0.446E-04    2.51      27.2  T
   6   -109.1729951 -0.289933E-08  0.287E-04    2.51      42.2  T
     SCC iter.                  ...        0 min,  0.027 sec
     gradient                   ...        0 min,  0.015 sec
 * total energy  :  -107.7266300 Eh     change       -0.1723595E-04 Eh
   gradient norm :     0.0013993 Eh/α   predicted    -0.8716456E-05 ( -49.43%)
   displ. norm   :     0.1729728 α      lambda       -0.1736016E-04
   maximum displ.:     0.1204634 α      in ANC's #3, #1, #2, ...

........................................................................
.............................. CYCLE   91 ..............................
........................................................................

 iter      E             dE          RMSdq      gap      omega  full diag
   1   -109.1728914 -0.109173E+03  0.268E-02    2.51       0.0  T
   2   -109.1728917 -0.296059E-06  0.141E-02    2.51       1.0  T
   3   -109.1728917  0.261585E-07  0.248E-03    2.51       4.9  T
   4   -109.1728918 -0.821067E-07  0.121E-03    2.51      10.0  T
   5   -109.1728918 -0.150732E-07  0.434E-04    2.51      27.9  T
   6   -109.1728918 -0.230358E-08  0.162E-04    2.51      74.9  T
     SCC iter.                  ...        0 min,  0.028 sec
     gradient                   ...        0 min,  0.017 sec
 * total energy  :  -107.7266520 Eh     change       -0.2199465E-04 Eh
   gradient norm :     0.0017638 Eh/α   predicted    -0.8799385E-05 ( -59.99%)
   displ. norm   :     0.3938551 α      lambda       -0.4134971E-04
   maximum displ.:     0.2728717 α      in ANC's #3, #1, #2, ...

........................................................................
.............................. CYCLE   92 ..............................
........................................................................

 iter      E             dE          RMSdq      gap      omega  full diag
   1   -109.1727649 -0.109173E+03  0.573E-02    2.52       0.0  T
   2   -109.1727664 -0.154715E-05  0.312E-02    2.52       1.0  T
   3   -109.1727663  0.166142E-06  0.555E-03    2.53       2.2  T
   4   -109.1727668 -0.488927E-06  0.245E-03    2.53       5.0  T
   5   -109.1727668 -0.534975E-07  0.102E-03    2.53      11.9  T
   6   -109.1727668 -0.117829E-07  0.433E-04    2.52      28.0  T
   7   -109.1727668 -0.130618E-08  0.245E-04    2.52      49.6  T
     SCC iter.                  ...        0 min,  0.030 sec
     gradient                   ...        0 min,  0.016 sec
 * total energy  :  -107.7266996 Eh     change       -0.4766634E-04 Eh
   gradient norm :     0.0027653 Eh/α   predicted    -0.2210205E-04 ( -53.63%)
   displ. norm   :     0.3761860 α      lambda       -0.5930106E-04
   maximum displ.:     0.2625848 α      in ANC's #3, #1, #2, ...
 * RMSD in coord.:     0.6209329 α      energy gain  -0.1569018E-02 Eh

generating ANC from exact Hessian ...
Using Lindh-Hessian (1995)
 Shifting diagonal of input Hessian by    9.9304814636515977E-003
 Lowest  eigenvalues of input Hessian
    0.000000    0.000000    0.000000    0.000000    0.000000    0.000000
    0.010000    0.010025    0.010038    0.010117    0.010503    0.010621
    0.010828    0.010971    0.011411    0.011567    0.011761    0.011891
 Highest eigenvalues
    2.054429    2.075736    2.077992    2.306387    2.317314    2.319237


........................................................................
.............................. CYCLE   93 ..............................
........................................................................

 iter      E             dE          RMSdq      gap      omega  full diag
   1   -109.1726428 -0.109173E+03  0.540E-02    2.53       0.0  T
   2   -109.1726439 -0.112779E-05  0.294E-02    2.53       1.0  T
   3   -109.1726440 -0.815731E-07  0.433E-03    2.53       2.8  T
   4   -109.1726442 -0.145192E-06  0.218E-03    2.53       5.6  T
   5   -109.1726442 -0.507247E-07  0.762E-04    2.53      15.9  T
   6   -109.1726442 -0.979225E-08  0.229E-04    2.53      53.0  T
     SCC iter.                  ...        0 min,  0.028 sec
     gradient                   ...        0 min,  0.015 sec
 * total energy  :  -107.7267464 Eh     change       -0.4673457E-04 Eh
   gradient norm :     0.0033707 Eh/α   predicted     0.0000000E+00 (-100.00%)
   displ. norm   :     0.0256010 α      lambda       -0.1984535E-04
   maximum displ.:     0.0086815 α      in ANC's #3, #6, #13, ...

........................................................................
.............................. CYCLE   94 ..............................
........................................................................

 iter      E             dE          RMSdq      gap      omega  full diag
   1   -109.1734014 -0.109173E+03  0.685E-03    2.54       0.0  T
   2   -109.1734015 -0.103331E-06  0.389E-03    2.54       3.1  T
   3   -109.1734014  0.493497E-07  0.158E-03    2.54       7.7  T
   4   -109.1734015 -0.785623E-07  0.503E-04    2.54      24.1  T
   5   -109.1734015 -0.775984E-09  0.247E-04    2.54      49.0  T
     SCC iter.                  ...        0 min,  0.021 sec
     gradient                   ...        0 min,  0.018 sec
 * total energy  :  -107.7267633 Eh     change       -0.1694333E-04 Eh
   gradient norm :     0.0016191 Eh/α   predicted    -0.1087512E-04 ( -35.81%)
   displ. norm   :     0.0958861 α      lambda       -0.2514048E-04
   maximum displ.:     0.0360808 α      in ANC's #3, #6, #13, ...

........................................................................
.............................. CYCLE   95 ..............................
........................................................................

 iter      E             dE          RMSdq      gap      omega  full diag
   1   -109.1743794 -0.109174E+03  0.201E-02    2.54       0.0  T
   2   -109.1743802 -0.820330E-06  0.115E-02    2.54       1.1  T
   3   -109.1743797  0.504044E-06  0.477E-03    2.54       2.5  T
   4   -109.1743805 -0.789874E-06  0.114E-03    2.54      10.6  T
   5   -109.1743805 -0.751552E-08  0.524E-04    2.54      23.1  T
   6   -109.1743805 -0.876980E-09  0.385E-04    2.54      31.5  T
     SCC iter.                  ...        0 min,  0.034 sec
     gradient                   ...        0 min,  0.016 sec
 * total energy  :  -107.7267824 Eh     change       -0.1911640E-04 Eh
   gradient norm :     0.0026736 Eh/α   predicted    -0.1368989E-04 ( -28.39%)
   displ. norm   :     0.0298084 α      lambda       -0.9217634E-05
   maximum displ.:     0.0136527 α      in ANC's #3, #13, #6, ...

........................................................................
.............................. CYCLE   96 ..............................
........................................................................

 iter      E             dE          RMSdq      gap      omega  full diag
   1   -109.1740503 -0.109174E+03  0.563E-03    2.54       0.0  T
   2   -109.1740503 -0.248176E-07  0.310E-03    2.54       3.9  T
   3   -109.1740503 -0.213262E-09  0.711E-04    2.54      17.1  T
   4   -109.1740503 -0.463555E-08  0.242E-04    2.54      50.2  T
     SCC iter.                  ...        0 min,  0.017 sec
     gradient                   ...        0 min,  0.015 sec
 * total energy  :  -107.7267905 Eh     change       -0.8077987E-05 Eh
   gradient norm :     0.0019628 Eh/α   predicted    -0.4614130E-05 ( -42.88%)
   displ. norm   :     0.1860793 α      lambda       -0.3025973E-04
   maximum displ.:     0.0851243 α      in ANC's #3, #13, #6, ...

........................................................................
.............................. CYCLE   97 ..............................
........................................................................

 iter      E             dE          RMSdq      gap      omega  full diag
   1   -109.1722462 -0.109172E+03  0.293E-02    2.54       0.0  T
   2   -109.1722468 -0.603421E-06  0.165E-02    2.53       1.0  T
   3   -109.1722468  0.126633E-07  0.318E-03    2.54       3.8  T
   4   -109.1722469 -0.143546E-06  0.120E-03    2.53      10.1  T
   5   -109.1722469 -0.659736E-08  0.665E-04    2.54      18.2  T
   6   -109.1722469 -0.111338E-07  0.163E-04    2.54      74.4  T
     SCC iter.                  ...        0 min,  0.028 sec
     gradient                   ...        0 min,  0.017 sec
 * total energy  :  -107.7268096 Eh     change       -0.1911890E-04 Eh
   gradient norm :     0.0030286 Eh/α   predicted    -0.1542843E-04 ( -19.30%)
   displ. norm   :     0.0207444 α      lambda       -0.9712032E-05
   maximum displ.:     0.0126783 α      in ANC's #3, #2, #13, ...

........................................................................
.............................. CYCLE   98 ..............................
........................................................................

 iter      E             dE          RMSdq      gap      omega  full diag
   1   -109.1727133 -0.109173E+03  0.426E-03    2.54       0.0  T
   2   -109.1727133 -0.182557E-07  0.234E-03    2.54       5.2  T
   3   -109.1727133  0.940871E-08  0.916E-04    2.54      13.2  T
   4   -109.1727133 -0.159110E-07  0.329E-04    2.54      36.9  T
     SCC iter.                  ...        0 min,  0.018 sec
     gradient                   ...        0 min,  0.016 sec
 * total energy  :  -107.7268181 Eh     change       -0.8449097E-05 Eh
   gradient norm :     0.0021592 Eh/α   predicted    -0.4858579E-05 ( -42.50%)
   displ. norm   :     0.1031846 α      lambda       -0.2881793E-04
   maximum displ.:     0.0593193 α      in ANC's #3, #13, #2, ...

........................................................................
.............................. CYCLE   99 ..............................
........................................................................

 iter      E             dE          RMSdq      gap      omega  full diag
   1   -109.1738833 -0.109174E+03  0.141E-02    2.54       0.0  T
   2   -109.1738835 -0.182354E-06  0.809E-03    2.54       1.5  T
   3   -109.1738833  0.131951E-06  0.267E-03    2.54       4.5  T
   4   -109.1738835 -0.191261E-06  0.584E-04    2.54      20.8  T
   5   -109.1738835 -0.167520E-08  0.352E-04    2.54      34.4  T
     SCC iter.                  ...        0 min,  0.022 sec
     gradient                   ...        0 min,  0.016 sec
 * total energy  :  -107.7268379 Eh     change       -0.1980946E-04 Eh
   gradient norm :     0.0007590 Eh/α   predicted    -0.1456407E-04 ( -26.48%)
   displ. norm   :     0.2154415 α      lambda       -0.1812322E-04
   maximum displ.:     0.1178177 α      in ANC's #3, #13, #2, ...

........................................................................
.............................. CYCLE  100 ..............................
........................................................................

 iter      E             dE          RMSdq      gap      omega  full diag
   1   -109.1739411 -0.109174E+03  0.275E-02    2.54       0.0  T
   2   -109.1739415 -0.328234E-06  0.159E-02    2.54       1.0  T
   3   -109.1739413  0.143848E-06  0.287E-03    2.54       4.2  T
   4   -109.1739415 -0.228533E-06  0.942E-04    2.54      12.9  T
   5   -109.1739416 -0.157137E-07  0.494E-04    2.54      24.5  T
     SCC iter.                  ...        0 min,  0.028 sec
     gradient                   ...        0 min,  0.016 sec
 * total energy  :  -107.7268584 Eh     change       -0.2057953E-04 Eh
   gradient norm :     0.0021214 Eh/α   predicted    -0.9249826E-05 ( -55.05%)
   displ. norm   :     0.1591445 α      lambda       -0.1898537E-04
   maximum displ.:     0.0893994 α      in ANC's #3, #13, #2, ...

........................................................................
.............................. CYCLE  101 ..............................
........................................................................

 iter      E             dE          RMSdq      gap      omega  full diag
   1   -109.1733895 -0.109173E+03  0.198E-02    2.54       0.0  T
   2   -109.1733896 -0.123395E-06  0.115E-02    2.54       1.1  T
   3   -109.1733896  0.160709E-07  0.148E-03    2.54       8.2  T
   4   -109.1733897 -0.527652E-07  0.753E-04    2.54      16.1  T
   5   -109.1733897 -0.789970E-08  0.304E-04    2.54      39.8  T
     SCC iter.                  ...        0 min,  0.021 sec
     gradient                   ...        0 min,  0.017 sec
 * total energy  :  -107.7268742 Eh     change       -0.1574416E-04 Eh
   gradient norm :     0.0021126 Eh/α   predicted    -0.9735474E-05 ( -38.16%)
   displ. norm   :     0.1732596 α      lambda       -0.2218816E-04
   maximum displ.:     0.1030351 α      in ANC's #3, #2, #13, ...

........................................................................
.............................. CYCLE  102 ..............................
........................................................................

 iter      E             dE          RMSdq      gap      omega  full diag
   1   -109.1728098 -0.109173E+03  0.214E-02    2.54       0.0  T
   2   -109.1728099 -0.158168E-06  0.125E-02    2.54       1.0  T
   3   -109.1728099  0.491054E-07  0.172E-03    2.54       7.1  T
   4   -109.1728100 -0.101614E-06  0.868E-04    2.54      14.0  T
   5   -109.1728100 -0.912928E-08  0.273E-04    2.54      44.5  T
     SCC iter.                  ...        0 min,  0.030 sec
     gradient                   ...        0 min,  0.015 sec
 * total energy  :  -107.7268921 Eh     change       -0.1792906E-04 Eh
   gradient norm :     0.0017609 Eh/α   predicted    -0.1143009E-04 ( -36.25%)
   displ. norm   :     0.2444889 α      lambda       -0.2396584E-04
   maximum displ.:     0.1539574 α      in ANC's #3, #2, #13, ...

........................................................................
.............................. CYCLE  103 ..............................
........................................................................

 iter      E             dE          RMSdq      gap      omega  full diag
   1   -109.1724832 -0.109172E+03  0.311E-02    2.54       0.0  T
   2   -109.1724836 -0.453776E-06  0.179E-02    2.54       1.0  T
   3   -109.1724834  0.201060E-06  0.313E-03    2.54       3.9  T
   4   -109.1724838 -0.355817E-06  0.134E-03    2.54       9.0  T
   5   -109.1724838 -0.125947E-07  0.447E-04    2.54      27.1  T
   6   -109.1724838 -0.151637E-08  0.176E-04    2.54      69.0  T
     SCC iter.                  ...        0 min,  0.026 sec
     gradient                   ...        0 min,  0.017 sec
 * total energy  :  -107.7269181 Eh     change       -0.2594307E-04 Eh
   gradient norm :     0.0015894 Eh/α   predicted    -0.1230567E-04 ( -52.57%)
   displ. norm   :     0.2256324 α      lambda       -0.1955302E-04
   maximum displ.:     0.1430430 α      in ANC's #3, #2, #13, ...

........................................................................
.............................. CYCLE  104 ..............................
........................................................................

 iter      E             dE          RMSdq      gap      omega  full diag
   1   -109.1722529 -0.109172E+03  0.307E-02    2.54       0.0  T
   2   -109.1722533 -0.358055E-06  0.168E-02    2.55       1.0  T
   3   -109.1722533  0.118235E-07  0.318E-03    2.55       3.8  T
   4   -109.1722534 -0.108021E-06  0.123E-03    2.55       9.8  T
   5   -109.1722534 -0.638070E-08  0.529E-04    2.55      22.9  T
   6   -109.1722534 -0.796491E-08  0.154E-04    2.55      78.8  T
     SCC iter.                  ...        0 min,  0.030 sec
     gradient                   ...        0 min,  0.017 sec
 * total energy  :  -107.7269414 Eh     change       -0.2337347E-04 Eh
   gradient norm :     0.0022456 Eh/α   predicted    -0.9999772E-05 ( -57.22%)
   displ. norm   :     0.2208243 α      lambda       -0.4230024E-04
   maximum displ.:     0.1443889 α      in ANC's #3, #2, #4, ...

........................................................................
.............................. CYCLE  105 ..............................
........................................................................

 iter      E             dE          RMSdq      gap      omega  full diag
   1   -109.1734614 -0.109173E+03  0.301E-02    2.55       0.0  T
   2   -109.1734619 -0.492172E-06  0.167E-02    2.55       1.0  T
   3   -109.1734619 -0.270009E-07  0.337E-03    2.55       3.6  T
   4   -109.1734620 -0.100064E-06  0.150E-03    2.55       8.1  T
   5   -109.1734620  0.104411E-07  0.601E-04    2.55      20.2  T
   6   -109.1734620 -0.145974E-07  0.138E-04    2.55      88.1  T
     SCC iter.                  ...        0 min,  0.025 sec
     gradient                   ...        0 min,  0.016 sec
 * total energy  :  -107.7269709 Eh     change       -0.2943302E-04 Eh
   gradient norm :     0.0022892 Eh/α   predicted    -0.2218219E-04 ( -24.64%)
   displ. norm   :     0.3336192 α      lambda       -0.4404783E-04
   maximum displ.:     0.2146174 α      in ANC's #3, #2, #13, ...

........................................................................
.............................. CYCLE  106 ..............................
........................................................................

 iter      E             dE          RMSdq      gap      omega  full diag
   1   -109.1729811 -0.109173E+03  0.448E-02    2.55       0.0  T
   2   -109.1729819 -0.817422E-06  0.242E-02    2.56       1.0  T
   3   -109.1729820 -0.631609E-07  0.412E-03    2.56       2.9  T
   4   -109.1729821 -0.136965E-06  0.171E-03    2.56       7.1  T
   5   -109.1729821 -0.155788E-07  0.807E-04    2.56      15.0  T
   6   -109.1729822 -0.142156E-07  0.248E-04    2.56      48.8  T
     SCC iter.                  ...        0 min,  0.028 sec
     gradient                   ...        0 min,  0.017 sec
 * total energy  :  -107.7270073 Eh     change       -0.3646535E-04 Eh
   gradient norm :     0.0026356 Eh/α   predicted    -0.2447682E-04 ( -32.88%)
   displ. norm   :     0.3569224 α      lambda       -0.4786396E-04
   maximum displ.:     0.2320051 α      in ANC's #3, #2, #13, ...

........................................................................
.............................. CYCLE  107 ..............................
........................................................................

 iter      E             dE          RMSdq      gap      omega  full diag
   1   -109.1723871 -0.109172E+03  0.492E-02    2.56       0.0  T
   2   -109.1723882 -0.110352E-05  0.261E-02    2.56       1.0  T
   3   -109.1723882  0.510153E-07  0.494E-03    2.56       2.5  T
   4   -109.1723885 -0.303383E-06  0.212E-03    2.56       5.7  T
   5   -109.1723885 -0.346496E-07  0.950E-04    2.56      12.8  T
   6   -109.1723885 -0.123809E-07  0.261E-04    2.56      46.4  T
     SCC iter.                  ...        0 min,  0.025 sec
     gradient                   ...        0 min,  0.015 sec
 * total energy  :  -107.7270429 Eh     change       -0.3551807E-04 Eh
   gradient norm :     0.0036000 Eh/α   predicted    -0.2698142E-04 ( -24.03%)
   displ. norm   :     0.2824026 α      lambda       -0.5963712E-04
   maximum displ.:     0.1820725 α      in ANC's #3, #2, #4, ...

........................................................................
.............................. CYCLE  108 ..............................
........................................................................

 iter      E             dE          RMSdq      gap      omega  full diag
   1   -109.1730688 -0.109173E+03  0.406E-02    2.56       0.0  T
   2   -109.1730697 -0.943934E-06  0.217E-02    2.57       1.0  T
   3   -109.1730693  0.460729E-06  0.539E-03    2.57       2.3  T
   4   -109.1730700 -0.759185E-06  0.203E-03    2.57       6.0  T
   5   -109.1730700 -0.454067E-08  0.610E-04    2.57      19.9  T
   6   -109.1730700 -0.101419E-07  0.180E-04    2.57      67.3  T
     SCC iter.                  ...        0 min,  0.027 sec
     gradient                   ...        0 min,  0.018 sec
 * total energy  :  -107.7270880 Eh     change       -0.4518458E-04 Eh
   gradient norm :     0.0025139 Eh/α   predicted    -0.3219768E-04 ( -28.74%)
   displ. norm   :     0.2778612 α      lambda       -0.4721598E-04
   maximum displ.:     0.1797002 α      in ANC's #3, #2, #4, ...

........................................................................
.............................. CYCLE  109 ..............................
........................................................................

 iter      E             dE          RMSdq      gap      omega  full diag
   1   -109.1734930 -0.109173E+03  0.409E-02    2.57       0.0  T
   2   -109.1734938 -0.809211E-06  0.218E-02    2.57       1.0  T
   3   -109.1734935  0.360281E-06  0.501E-03    2.57       2.4  T
   4   -109.1734941 -0.614127E-06  0.209E-03    2.57       5.8  T
   5   -109.1734941 -0.109128E-07  0.576E-04    2.57      21.0  T
   6   -109.1734941 -0.928888E-08  0.187E-04    2.57      64.9  T
     SCC iter.                  ...        0 min,  0.030 sec
     gradient                   ...        0 min,  0.015 sec
 * total energy  :  -107.7271220 Eh     change       -0.3393477E-04 Eh
   gradient norm :     0.0018121 Eh/α   predicted    -0.2543249E-04 ( -25.05%)
   displ. norm   :     0.3381377 α      lambda       -0.2770785E-04
   maximum displ.:     0.2204629 α      in ANC's #3, #2, #4, ...

........................................................................
.............................. CYCLE  110 ..............................
........................................................................

 iter      E             dE          RMSdq      gap      omega  full diag
   1   -109.1734229 -0.109173E+03  0.522E-02    2.57       0.0  T
   2   -109.1734237 -0.848088E-06  0.274E-02    2.58       1.0  T
   3   -109.1734238 -0.374609E-07  0.436E-03    2.58       2.8  T
   4   -109.1734239 -0.139795E-06  0.238E-03    2.58       5.1  T
   5   -109.1734240 -0.748038E-07  0.736E-04    2.58      16.5  T
   6   -109.1734240 -0.102356E-07  0.216E-04    2.58      56.1  T
     SCC iter.                  ...        0 min,  0.026 sec
     gradient                   ...        0 min,  0.015 sec
 * total energy  :  -107.7271457 Eh     change       -0.2373090E-04 Eh
   gradient norm :     0.0018737 Eh/α   predicted    -0.1456045E-04 ( -38.64%)
   displ. norm   :     0.0635268 α      lambda       -0.1371223E-04
   maximum displ.:     0.0262237 α      in ANC's #15, #14, #9, ...

........................................................................
.............................. CYCLE  111 ..............................
........................................................................

 iter      E             dE          RMSdq      gap      omega  full diag
   1   -109.1746917 -0.109175E+03  0.162E-02    2.58       0.0  T
   2   -109.1746920 -0.261349E-06  0.900E-03    2.58       1.3  T
   3   -109.1746919  0.784774E-07  0.279E-03    2.58       4.3  T
   4   -109.1746920 -0.163339E-06  0.116E-03    2.58      10.5  T
   5   -109.1746920 -0.429111E-09  0.676E-04    2.58      17.9  T
   6   -109.1746920 -0.292445E-08  0.289E-04    2.58      42.0  T
     SCC iter.                  ...        0 min,  0.032 sec
     gradient                   ...        0 min,  0.017 sec
 * total energy  :  -107.7271503 Eh     change       -0.4605744E-05 Eh
   gradient norm :     0.0023406 Eh/α   predicted    -0.6870157E-05 (  49.16%)
   displ. norm   :     0.1567956 α      lambda       -0.2290277E-04
   maximum displ.:     0.1030558 α      in ANC's #3, #2, #1, ...

........................................................................
.............................. CYCLE  112 ..............................
........................................................................

 iter      E             dE          RMSdq      gap      omega  full diag
   1   -109.1737058 -0.109174E+03  0.249E-02    2.58       0.0  T
   2   -109.1737061 -0.299427E-06  0.126E-02    2.58       1.0  T
   3   -109.1737060  0.970300E-07  0.381E-03    2.58       3.2  T
   4   -109.1737062 -0.174051E-06  0.117E-03    2.58      10.4  T
   5   -109.1737062 -0.175461E-07  0.541E-04    2.58      22.4  T
   6   -109.1737062 -0.418109E-08  0.123E-04    2.58      98.6  T
     SCC iter.                  ...        0 min,  0.026 sec
     gradient                   ...        0 min,  0.018 sec
 * total energy  :  -107.7271656 Eh     change       -0.1527768E-04 Eh
   gradient norm :     0.0012832 Eh/α   predicted    -0.1173724E-04 ( -23.17%)
   displ. norm   :     0.1502083 α      lambda       -0.8706673E-05
   maximum displ.:     0.0981573 α      in ANC's #3, #2, #1, ...

........................................................................
.............................. CYCLE  113 ..............................
........................................................................

 iter      E             dE          RMSdq      gap      omega  full diag
   1   -109.1728710 -0.109173E+03  0.236E-02    2.58       0.0  T
   2   -109.1728712 -0.196951E-06  0.124E-02    2.58       1.0  T
   3   -109.1728710  0.132647E-06  0.288E-03    2.58       4.2  T
   4   -109.1728712 -0.197568E-06  0.115E-03    2.58      10.5  T
   5   -109.1728713 -0.191395E-07  0.434E-04    2.58      28.0  T
   6   -109.1728713 -0.178349E-08  0.945E-05    2.58     128.3  T
     SCC iter.                  ...        0 min,  0.032 sec
     gradient                   ...        0 min,  0.015 sec
 * total energy  :  -107.7271721 Eh     change       -0.6534534E-05 Eh
   gradient norm :     0.0018325 Eh/α   predicted    -0.4398027E-05 ( -32.70%)
   displ. norm   :     0.0360256 α      lambda       -0.5668517E-05
   maximum displ.:     0.0146124 α      in ANC's #6, #16, #9, ...

........................................................................
.............................. CYCLE  114 ..............................
........................................................................

 iter      E             dE          RMSdq      gap      omega  full diag
   1   -109.1731293 -0.109173E+03  0.928E-03    2.58       0.0  T
   2   -109.1731293 -0.509655E-07  0.490E-03    2.58       2.5  T
   3   -109.1731293  0.555393E-08  0.113E-03    2.58      10.7  T
   4   -109.1731294 -0.160334E-07  0.398E-04    2.58      30.5  T
   5   -109.1731294 -0.988393E-09  0.205E-04    2.58      59.0  T
     SCC iter.                  ...        0 min,  0.021 sec
     gradient                   ...        0 min,  0.016 sec
 * total energy  :  -107.7271782 Eh     change       -0.6106285E-05 Eh
   gradient norm :     0.0010856 Eh/α   predicted    -0.2837885E-05 ( -53.53%)
   displ. norm   :     0.0886955 α      lambda       -0.5105920E-05
   maximum displ.:     0.0499537 α      in ANC's #3, #2, #1, ...

........................................................................
.............................. CYCLE  115 ..............................
........................................................................

 iter      E             dE          RMSdq      gap      omega  full diag
   1   -109.1734636 -0.109173E+03  0.144E-02    2.58       0.0  T
   2   -109.1734637 -0.103487E-06  0.813E-03    2.58       1.5  T
   3   -109.1734637  0.644088E-07  0.183E-03    2.58       6.6  T
   4   -109.1734638 -0.103855E-06  0.647E-04    2.58      18.8  T
   5   -109.1734638 -0.335177E-09  0.295E-04    2.58      41.1  T
     SCC iter.                  ...        0 min,  0.025 sec
     gradient                   ...        0 min,  0.018 sec
 * total energy  :  -107.7271835 Eh     change       -0.5260108E-05 Eh
   gradient norm :     0.0006668 Eh/α   predicted    -0.2562616E-05 ( -51.28%)
   displ. norm   :     0.1405109 α      lambda       -0.4117680E-05
   maximum displ.:     0.0882772 α      in ANC's #3, #2, #1, ...

........................................................................
.............................. CYCLE  116 ..............................
........................................................................

 iter      E             dE          RMSdq      gap      omega  full diag
   1   -109.1735849 -0.109174E+03  0.195E-02    2.58       0.0  T
   2   -109.1735850 -0.128431E-06  0.108E-02    2.58       1.1  T
   3   -109.1735850  0.423134E-07  0.182E-03    2.58       6.6  T
   4   -109.1735851 -0.877757E-07  0.800E-04    2.58      15.2  T
   5   -109.1735851 -0.551144E-08  0.284E-04    2.58      42.7  T
     SCC iter.                  ...        0 min,  0.021 sec
     gradient                   ...        0 min,  0.015 sec
 * total energy  :  -107.7271874 Eh     change       -0.3946044E-05 Eh
   gradient norm :     0.0007810 Eh/α   predicted    -0.2077981E-05 ( -47.34%)
   displ. norm   :     0.1306987 α      lambda       -0.4240699E-05
   maximum displ.:     0.0778783 α      in ANC's #3, #2, #1, ...

   *** GEOMETRY OPTIMIZATION CONVERGED AFTER 116 ITERATIONS ***

------------------------------------------------------------------------
 total energy gain   :        -0.0792537 Eh      -49.7325 kcal/mol
 total RMSD          :         2.1479086 a0        1.1366 Å
 total power (kW/mol):        -1.7937987 (step)  -31.4069 (real)
------------------------------------------------------------------------

 ANCopt (total)                0 d,  0 h,  0 min,  6.625 sec
 optimizer setup                ...        0 min,  0.001 sec (  0.008%)
 model hessian                  ...        0 min,  0.222 sec (  3.348%)
 ANC generation                 ...        0 min,  0.016 sec (  0.243%)
 coordinate transformation      ...        0 min,  0.004 sec (  0.067%)
 single point calculation       ...        0 min,  6.281 sec ( 94.803%)
 optimization log               ...        0 min,  0.054 sec (  0.809%)
 hessian update                 ...        0 min,  0.015 sec (  0.220%)
 rational function              ...        0 min,  0.025 sec (  0.374%)

================
 final structure:
================
68
 xtb: 6.7.1 (edcfbbe)
C            5.48589982363859        1.53216691715445        1.48604312713528
Se           5.62647370663213       -0.20314333192475        2.39770758881337
C            5.93875235968863       -1.31270647209648        0.91481724214581
N            6.68891812681677       -2.36811768253399        1.10394084161217
O            6.77481629865170       -3.01833122908135       -0.09032440987915
C            6.08466044029391       -2.33731500658022       -1.01984105629753
C            6.03628550041230       -2.85893945298695       -2.40258330854380
C            5.49766139702133       -1.24033615228210       -0.43989776416941
C            4.68709630226565       -0.21072383611064       -1.13675386917582
O            5.16344192582015        0.43345000667792       -2.07435789352643
N            3.43572649854826       -0.02966189906842       -0.70252713191486
C            2.60617883400204        0.98663548370917       -1.33013677137498
C            1.52004614344406        1.42112278389002       -0.34972376660281
N            0.62680731129371        0.33071671003420        0.02649991365738
C           -0.61923804607686        0.31561420605341       -0.72852692588185
C           -1.41649248193550        1.58373260507266       -0.51872419842020
C           -2.26698915549589        2.03729175305139       -1.51936398249959
C           -3.04409577002047        3.16140174250235       -1.32085209375948
C           -2.99884082755157        3.84804222795052       -0.11138756992093
C           -3.85845605954223        5.05515886632605        0.04405470797281
O           -4.14785614605821        5.77309865132810       -0.91549929610070
N           -4.29933435095748        5.29201610769009        1.28888161238764
C           -5.15220004280745        6.40581952603498        1.63144683233222
C           -2.13499080825192        3.40311031957080        0.88598969453787
C           -1.35477750432857        2.28142245004077        0.68179456538786
C           -1.51388798968819       -0.81865382526718       -0.27452854499145
C           -1.77344930417450       -1.00994316783159        1.07801888545809
C           -2.61736466380159       -2.02098166927093        1.48965460169368
C           -3.21237320228145       -2.87072876691373        0.56040799632862
C           -4.11979174563487       -3.94176930031066        1.06147432206051
O           -4.81460792716027       -3.78482625660341        2.06676043242111
N           -4.11156400479788       -5.08122363547787        0.35264830992417
C           -4.91832106661844       -6.23112432864037        0.68783557109996
C           -2.96739369828912       -2.66904319515695       -0.79390739117004
C           -2.12719161970611       -1.64889693080246       -1.20254257396985
C            1.29920547337821       -0.96235290551889       -0.02886648985345
C            2.77608746372859       -0.82462341577165        0.31599262912316
H            4.51540362602893        1.64237565860025        1.01138481839768
H            6.28554669726474        1.60717728125312        0.75422749646540
H            5.61327403952334        2.28547010895642        2.25918169723080
H            6.99247636282152       -3.30892354037481       -2.65463955195149
H            5.26473143598608       -3.62242349249399       -2.48927129391970
H            5.81296777987280       -2.04272622864055       -3.08428690577126
H            3.24754547252510        1.82438471841615       -1.61390191480538
H            2.16061769523732        0.58620610554969       -2.24809487242728
H            0.94036213554848        2.23179308841130       -0.79140507299689
H            1.99225899625351        1.80590901549973        0.56007003230700
H           -0.42912864328924        0.19249144288743       -1.81210396449681
H           -2.32127593812249        1.51107400967537       -2.46080139626618
H           -3.69994605814877        3.52703224089992       -2.09707847754257
H           -4.07933365320674        4.63591499240788        2.02190704321606
H           -4.67749494880365        7.02374147132936        2.39326196437091
H           -6.11444921066732        6.05047792485987        2.00032925730818
H           -5.30705374606959        6.99644419570391        0.72998405753896
H           -2.04308389092921        3.94656675288882        1.81368965012533
H           -0.67758114547904        1.94636737150232        1.45012177252918
H           -1.30711502003535       -0.36375938164217        1.80307691183808
H           -2.83287271989800       -2.17396079918229        2.53661629282778
H           -3.48219035752890       -5.16921358672274       -0.42976906658867
H           -5.56377309658433       -6.49631338906908       -0.14920502344332
H           -4.28491616859611       -7.08134305473496        0.94130834033212
H           -5.53043821384943       -5.96821749340050        1.54910804226532
H           -3.45257061645038       -3.28275428196955       -1.53741182740529
H           -1.94978664658585       -1.49954162599895       -2.25761170239808
H            1.21060786965922       -1.42362664260185       -1.02698236069180
H            0.82543661095885       -1.63228998500959        0.69229998573620
H            3.23533232140983       -1.81351704748293        0.36121334171987
H            2.87760684068308       -0.35217272629279        1.30021189069524

 Bond Distances (Angstroems)
 ---------------------------
C1-Se2=1.9652        C1-H38=1.0860        C1-H39=1.0866        C1-H40=1.0869        Se2-C1=1.9652        Se2-C3=1.8782        
C3-Se2=1.8782        C3-N4=1.3086         C3-C8=1.4266         N4-C3=1.3086         N4-O5=1.3625         O5-N4=1.3625         
O5-C6=1.3432         C6-O5=1.3432         C6-C7=1.4787         C6-C8=1.3727         C7-C6=1.4787         C7-H41=1.0864        
C7-H42=1.0889        C7-H43=1.0866        C8-C3=1.4266         C8-C6=1.3727         C8-C9=1.4842         C9-C8=1.4842         
C9-O10=1.2333        C9-N11=1.3369        O10-C9=1.2333        N11-C9=1.3369        N11-C12=1.4543       N11-C37=1.4507       
C12-N11=1.4543       C12-C13=1.5263       C12-H44=1.0926       C12-H45=1.0961       C13-C12=1.5263       C13-N14=1.4589       
C13-H46=1.0901       C13-H47=1.0949       N14-C13=1.4589       N14-C15=1.4570       N14-C36=1.4585       C15-N14=1.4570       
C15-C16=1.5125       C15-C26=1.5143       C15-H48=1.1070       C16-C15=1.5125       C16-C17=1.3894       C16-C25=1.3899       
C17-C16=1.3894       C17-C18=1.3809       C17-H49=1.0799       C18-C17=1.3809       C18-C19=1.3915       C18-H50=1.0800       
C19-C18=1.3915       C19-C20=1.4900       C19-C24=1.3925       C20-C19=1.4900       C20-O21=1.2329       C20-N22=1.3417       
O21-C20=1.2329       N22-C20=1.3417       N22-C23=1.4441       N22-H51=1.0081       C23-N22=1.4441       C23-H52=1.0897       
C23-H53=1.0901       C23-H54=1.0888       C24-C19=1.3925       C24-C25=1.3815       C24-H55=1.0791       C25-C16=1.3899       
C25-C24=1.3815       C25-H56=1.0776       C26-C15=1.5143       C26-C27=1.3904       C26-C35=1.3880       C27-C26=1.3904       
C27-C28=1.3798       C27-H57=1.0774       C28-C27=1.3798       C28-C29=1.3927       C28-H58=1.0798       C29-C28=1.3927       
C29-C30=1.4905       C29-C34=1.3910       C30-C29=1.4905       C30-O31=1.2321       C30-N32=1.3420       O31-C30=1.2321       
N32-C30=1.3420       N32-C33=1.4441       N32-H59=1.0080       C33-N32=1.4441       C33-H60=1.0898       C33-H61=1.0901       
C33-H62=1.0889       C34-C29=1.3910       C34-C35=1.3833       C34-H63=1.0793       C35-C26=1.3880       C35-C34=1.3833       
C35-H64=1.0803       C36-N14=1.4585       C36-C37=1.5229       C36-H65=1.1031       C36-H66=1.0924       C37-N11=1.4507       
C37-C36=1.5229       C37-H67=1.0913       C37-H68=1.0965       H38-C1=1.0860        H39-C1=1.0866        H40-C1=1.0869        
H41-C7=1.0864        H42-C7=1.0889        H43-C7=1.0866        H44-C12=1.0926       H45-C12=1.0961       H46-C13=1.0901       
H47-C13=1.0949       H48-C15=1.1070       H49-C17=1.0799       H50-C18=1.0800       H51-N22=1.0081       H52-C23=1.0897       
H53-C23=1.0901       H54-C23=1.0888       H55-C24=1.0791       H56-C25=1.0776       H57-C27=1.0774       H58-C28=1.0798       
H59-N32=1.0080       H60-C33=1.0898       H61-C33=1.0901       H62-C33=1.0889       H63-C34=1.0793       H64-C35=1.0803       
H65-C36=1.1031       H66-C36=1.0924       H67-C37=1.0913       H68-C37=1.0965       
 C  H  Rav=1.0881 sigma=0.0072  Rmin=1.0774  Rmax=1.1070    29
 C  C  Rav=1.4304 sigma=0.0562  Rmin=1.3727  Rmax=1.5263    22
 N  H  Rav=1.0080 sigma=0.0000  Rmin=1.0080  Rmax=1.0081     2
 N  C  Rav=1.4088 sigma=0.0586  Rmin=1.3086  Rmax=1.4589    11
 O  C  Rav=1.2603 sigma=0.0478  Rmin=1.2321  Rmax=1.3432     4
 O  N  Rav=1.3625 sigma=0.0000  Rmin=1.3625  Rmax=1.3625     1
 Se C  Rav=1.9217 sigma=0.0435  Rmin=1.8782  Rmax=1.9652     2

 selected bond angles (degree)
 --------------------
H38-C1-Se2=110.87              H39-C1-Se2=108.71              H39-C1-H38=110.87              H40-C1-Se2=105.88              
H40-C1-H38=110.20              H40-C1-H39=110.18              C3-Se2-C1= 99.63               N4-C3-Se2=117.24               
C8-C3-Se2=131.94               C8-C3-N4=110.82                O5-N4-C3=107.12                C6-O5-N4=109.40                
C7-C6-O5=119.02                C8-C6-O5=109.42                C8-C6-C7=131.53                H41-C7-C6=109.53               
H42-C7-C6=110.18               H42-C7-H41=108.35              H43-C7-C6=109.17               H43-C7-H41=110.27              
H43-C7-H42=109.34              C6-C8-C3=103.21                C9-C8-C3=130.54                C9-C8-C6=126.13                
O10-C9-C8=120.56               N11-C9-C8=116.91               N11-C9-O10=122.53              

 selected dihedral angles (degree)
 ---------------------------------
C3-Se2-C1-H38= 77.71          C3-Se2-C1-H39=315.58          C3-Se2-C1-H40=197.22          N4-C3-Se2-C1=148.03           
C8-C3-Se2-C1=327.61           O5-N4-C3-Se2=179.82           O5-N4-C3-C8=  0.16            C6-O5-N4-C3=  0.94            
C7-C6-O5-N4=180.01            C8-C6-O5-N4=358.29            H41-C7-C6-O5=323.66           H41-C7-C6-C8=145.83           
H42-C7-C6-O5= 82.74           H42-C7-C6-C8=264.92           H43-C7-C6-O5=202.83           H43-C7-C6-C8= 25.00           
C6-C8-C3-Se2=179.26           C6-C8-C3-N4=358.86            C9-C8-C3-Se2=  3.29           C9-C8-C3-N4=182.89            
C3-C8-C6-O5=  1.70            C3-C8-C6-C7=179.68            C9-C8-C6-O5=177.90            C9-C8-C6-C7=355.89            
O10-C9-C8-C3=117.15           O10-C9-C8-C6=302.01           N11-C9-C8-C3=296.88           N11-C9-C8-C6=121.74           
           -------------------------------------------------
          |                Final Singlepoint                |
           -------------------------------------------------

          ...................................................
          :                      SETUP                      :
          :.................................................:
          :  # basis functions                 185          :
          :  # atomic orbitals                 184          :
          :  # shells                          106          :
          :  # electrons                       194          :
          :  max. iterations                   250          :
          :  Hamiltonian                  GFN2-xTB          :
          :  restarted?                      false          :
          :  GBSA solvation                   true          :
          :  PC potential                    false          :
          :  electronic temp.          300.0000000     K    :
          :  accuracy                    1.0000000          :
          :  -> integral cutoff          0.2500000E+02      :
          :  -> integral neglect         0.1000000E-07      :
          :  -> SCF convergence          0.1000000E-05 Eh   :
          :  -> wf. convergence          0.1000000E-03 e    :
          :  Broyden damping             0.4000000          :
          :  net charge                          0          :
          :  unpaired electrons                  0          :
          ...................................................

 iter      E             dE          RMSdq      gap      omega  full diag
   1   -109.1735851 -0.109174E+03  0.985E-05    2.58       0.0  T
   2   -109.1735851 -0.379856E-10  0.681E-05    2.58     178.0  T
   3   -109.1735851  0.754596E-11  0.478E-05    2.58     253.5  T

   *** convergence criteria satisfied after 3 iterations ***

         #    Occupation            Energy/Eh            Energy/eV
      -------------------------------------------------------------
         1        2.0000           -0.7749882             -21.0885
       ...           ...                  ...                  ...
        91        2.0000           -0.4026601             -10.9569
        92        2.0000           -0.4011778             -10.9166
        93        2.0000           -0.3983270             -10.8390
        94        2.0000           -0.3962287             -10.7819
        95        2.0000           -0.3937017             -10.7132
        96        2.0000           -0.3774880             -10.2720
        97        2.0000           -0.3575991              -9.7308 (HOMO)
        98                         -0.2627258              -7.1491 (LUMO)
        99                         -0.2610607              -7.1038
       100                         -0.2503027              -6.8111
       101                         -0.2438178              -6.6346
       102                         -0.2323360              -6.3222
       ...                                ...                  ...
       184                          0.7310588              19.8931
      -------------------------------------------------------------
                  HL-Gap            0.0948733 Eh            2.5816 eV
             Fermi-level           -0.3101624 Eh           -8.4399 eV

 SCC (total)                   0 d,  0 h,  0 min,  0.042 sec
 SCC setup                      ...        0 min,  0.001 sec (  2.722%)
 Dispersion                     ...        0 min,  0.001 sec (  3.401%)
 classical contributions        ...        0 min,  0.000 sec (  0.321%)
 integral evaluation            ...        0 min,  0.005 sec ( 12.599%)
 iterations                     ...        0 min,  0.015 sec ( 35.874%)
 molecular gradient             ...        0 min,  0.018 sec ( 43.839%)
 printout                       ...        0 min,  0.000 sec (  1.166%)

         :::::::::::::::::::::::::::::::::::::::::::::::::::::
         ::                     SUMMARY                     ::
         :::::::::::::::::::::::::::::::::::::::::::::::::::::
         :: total energy            -107.727187437813 Eh    ::
         :: total w/o Gsasa/hb      -107.719881051652 Eh    ::
         :: gradient norm              0.000780778399 Eh/a0 ::
         :: HOMO-LUMO gap              2.581633784193 eV    ::
         ::.................................................::
         :: SCC energy              -109.172794482659 Eh    ::
         :: -> isotropic ES            0.195753926713 Eh    ::
         :: -> anisotropic ES          0.001174832621 Eh    ::
         :: -> anisotropic XC          0.051303028278 Eh    ::
         :: -> dispersion             -0.081228802342 Eh    ::
         :: -> Gsolv                  -0.050263407538 Eh    ::
         ::    -> Gelec               -0.042957021377 Eh    ::
         ::    -> Gsasa                0.000182089118 Eh    ::
         ::    -> Ghb                 -0.008569234976 Eh    ::
         ::    -> Gshift               0.001080759698 Eh    ::
         :: repulsion energy           1.445607044846 Eh    ::
         :: add. restraining           0.000000000000 Eh    ::
         :: total charge               0.000000000000 e     ::
         :::::::::::::::::::::::::::::::::::::::::::::::::::::

           -------------------------------------------------
          |                Property Printout                |
           -------------------------------------------------

    * Orbital Energies and Occupations

         #    Occupation            Energy/Eh            Energy/eV
      -------------------------------------------------------------
         1        2.0000           -0.7749882             -21.0885
       ...           ...                  ...                  ...
        85        2.0000           -0.4262423             -11.5986
        86        2.0000           -0.4145587             -11.2807
        87        2.0000           -0.4132033             -11.2438
        88        2.0000           -0.4119713             -11.2103
        89        2.0000           -0.4107279             -11.1765
        90        2.0000           -0.4059918             -11.0476
        91        2.0000           -0.4026601             -10.9569
        92        2.0000           -0.4011778             -10.9166
        93        2.0000           -0.3983270             -10.8390
        94        2.0000           -0.3962287             -10.7819
        95        2.0000           -0.3937017             -10.7132
        96        2.0000           -0.3774880             -10.2720
        97        2.0000           -0.3575991              -9.7308 (HOMO)
        98                         -0.2627258              -7.1491 (LUMO)
        99                         -0.2610607              -7.1038
       100                         -0.2503027              -6.8111
       101                         -0.2438178              -6.6346
       102                         -0.2323360              -6.3222
       103                         -0.2295672              -6.2468
       104                         -0.2117805              -5.7628
       105                         -0.1901692              -5.1748
       106                         -0.1886600              -5.1337
       107                         -0.1801057              -4.9009
       108                         -0.1598512              -4.3498
       ...                                ...                  ...
       184                          0.7310588              19.8931
      -------------------------------------------------------------
                  HL-Gap            0.0948733 Eh            2.5816 eV
             Fermi-level           -0.3101624 Eh           -8.4399 eV

     #   Z          covCN         q      C6AA      α(0)
     1   6 C        3.740    -0.083    22.169     6.718
     2  34 Se       2.020    -0.173   241.598    27.084
     3   6 C        3.046     0.100    25.742     8.321
     4   7 N        2.012    -0.180    25.638     7.510
     5   8 O        1.817    -0.144    16.452     5.477
     6   6 C        3.033     0.146    24.793     8.167
     7   6 C        3.754    -0.142    23.294     6.882
     8   6 C        3.010    -0.073    29.798     8.954
     9   6 C        2.766     0.268    22.480     7.765
    10   8 O        0.859    -0.533    24.535     6.641
    11   7 N        2.741    -0.078    22.764     7.086
    12   6 C        3.754    -0.000    20.640     6.478
    13   6 C        3.758    -0.006    20.740     6.493
    14   7 N        2.730    -0.176    24.814     7.398
    15   6 C        3.817     0.038    19.924     6.353
    16   6 C        2.983     0.014    27.697     8.633
    17   6 C        2.922    -0.040    28.993     8.830
    18   6 C        2.925    -0.024    28.599     8.770
    19   6 C        2.976    -0.027    28.670     8.783
    20   6 C        2.759     0.271    22.430     7.756
    21   8 O        0.858    -0.542    24.737     6.668
    22   7 N        2.687    -0.174    24.763     7.391
    23   6 C        3.689    -0.059    21.838     6.688
    24   6 C        2.920    -0.038    28.953     8.824
    25   6 C        2.922    -0.037    28.930     8.820
    26   6 C        2.983     0.015    27.680     8.630
    27   6 C        2.922    -0.037    28.912     8.818
    28   6 C        2.925    -0.024    28.594     8.769
    29   6 C        2.976    -0.026    28.649     8.780
    30   6 C        2.759     0.271    22.423     7.755
    31   8 O        0.858    -0.538    24.651     6.657
    32   7 N        2.687    -0.174    24.765     7.391
    33   6 C        3.689    -0.059    21.840     6.688
    34   6 C        2.920    -0.039    28.966     8.826
    35   6 C        2.923    -0.040    28.982     8.828
    36   6 C        3.762     0.004    20.555     6.463
    37   6 C        3.747    -0.005    20.732     6.495
    38   1 H        0.925     0.085     1.924     2.169
    39   1 H        0.925     0.077     2.013     2.219
    40   1 H        0.925     0.104     1.751     2.069
    41   1 H        0.925     0.097     1.813     2.106
    42   1 H        0.925     0.104     1.750     2.068
    43   1 H        0.925     0.085     1.927     2.171
    44   1 H        0.924     0.067     2.118     2.276
    45   1 H        0.924     0.054     2.277     2.360
    46   1 H        0.925     0.058     2.223     2.332
    47   1 H        0.924     0.058     2.224     2.332
    48   1 H        0.922     0.021     2.720     2.579
    49   1 H        0.926     0.044     2.401     2.423
    50   1 H        0.926     0.044     2.401     2.423
    51   1 H        0.860     0.217     1.023     1.585
    52   1 H        0.925     0.075     2.036     2.231
    53   1 H        0.925     0.071     2.075     2.253
    54   1 H        0.925     0.076     2.019     2.222
    55   1 H        0.926     0.057     2.239     2.340
    56   1 H        0.926     0.072     2.065     2.247
    57   1 H        0.926     0.067     2.113     2.273
    58   1 H        0.926     0.050     2.321     2.382
    59   1 H        0.860     0.215     1.031     1.591
    60   1 H        0.925     0.073     2.050     2.239
    61   1 H        0.925     0.072     2.067     2.248
    62   1 H        0.925     0.077     2.011     2.218
    63   1 H        0.926     0.052     2.299     2.371
    64   1 H        0.926     0.047     2.351     2.398
    65   1 H        0.923     0.027     2.631     2.537
    66   1 H        0.924     0.062     2.180     2.309
    67   1 H        0.924     0.058     2.224     2.332
    68   1 H        0.924     0.082     1.958     2.188

 Mol. C6AA /au·bohr⁶  :      56919.848239
 Mol. C8AA /au·bohr⁸  :    1470036.063067
 Mol. α(0) /au        :        372.081984


Wiberg/Mayer (AO) data.
largest (>0.10) Wiberg bond orders for each atom

 ---------------------------------------------------------------------------
     #   Z sym  total        # sym  WBO       # sym  WBO       # sym  WBO
 ---------------------------------------------------------------------------
     1   6 C    3.973 --     2 Se   1.063    39 H    0.963    38 H    0.959
                            40 H    0.956
     2  34 Se   2.410 --     1 C    1.063     3 C    1.049     4 N    0.101
     3   6 C    3.961 --     4 N    1.551     8 C    1.222     2 Se   1.049
     4   7 N    2.958 --     3 C    1.551     5 O    1.066     6 C    0.143
                             2 Se   0.101
     5   8 O    2.431 --     6 C    1.149     4 N    1.066
     6   6 C    3.918 --     8 C    1.510     5 O    1.149     7 C    1.036
                             4 N    0.143
     7   6 C    3.977 --     6 C    1.036    43 H    0.973    41 H    0.966
                            42 H    0.948
     8   6 C    3.971 --     6 C    1.510     3 C    1.222     9 C    0.978
     9   6 C    3.955 --    10 O    1.576    11 N    1.307     8 C    0.978
    10   8 O    1.914 --     9 C    1.576    11 N    0.201
    11   7 N    3.541 --     9 C    1.307    37 C    0.980    12 C    0.973
                            10 O    0.201
    12   6 C    3.964 --    13 C    0.997    11 N    0.973    44 H    0.966
                            45 H    0.962
    13   6 C    3.983 --    14 N    1.000    12 C    0.997    46 H    0.967
                            47 H    0.967
    14   7 N    3.118 --    13 C    1.000    36 C    0.999    15 C    0.986
    15   6 C    3.984 --    14 N    0.986    16 C    0.978    26 C    0.974
                            48 H    0.947
    16   6 C    3.984 --    17 C    1.407    25 C    1.398    15 C    0.978
                            19 C    0.102
    17   6 C    3.989 --    18 C    1.454    16 C    1.407    49 H    0.967
                            24 C    0.105
    18   6 C    3.989 --    17 C    1.454    19 C    1.394    50 H    0.968
                            25 C    0.106
    19   6 C    3.985 --    18 C    1.394    24 C    1.390    20 C    0.991
                            16 C    0.102
    20   6 C    3.945 --    21 O    1.585    22 N    1.298    19 C    0.991
    21   8 O    1.908 --    20 C    1.585    22 N    0.197
    22   7 N    3.474 --    20 C    1.298    23 C    1.002    51 H    0.922
                            21 O    0.197
    23   6 C    3.957 --    22 N    1.002    54 H    0.978    53 H    0.974
                            52 H    0.973
    24   6 C    3.989 --    25 C    1.458    19 C    1.390    55 H    0.963
                            17 C    0.105
    25   6 C    3.987 --    24 C    1.458    16 C    1.398    56 H    0.962
                            18 C    0.106
    26   6 C    3.985 --    35 C    1.412    27 C    1.398    15 C    0.974
                            29 C    0.102
    27   6 C    3.988 --    28 C    1.461    26 C    1.398    57 H    0.963
                            34 C    0.107
    28   6 C    3.989 --    27 C    1.461    29 C    1.388    58 H    0.967
                            35 C    0.104
    29   6 C    3.984 --    34 C    1.398    28 C    1.388    30 C    0.990
                            26 C    0.102
    30   6 C    3.945 --    31 O    1.589    32 N    1.297    29 C    0.990
    31   8 O    1.912 --    30 C    1.589    32 N    0.198
    32   7 N    3.474 --    30 C    1.297    33 C    1.002    59 H    0.923
                            31 O    0.198
    33   6 C    3.957 --    32 N    1.002    62 H    0.978    61 H    0.973
                            60 H    0.973
    34   6 C    3.989 --    35 C    1.447    29 C    1.398    63 H    0.964
                            27 C    0.107
    35   6 C    3.989 --    34 C    1.447    26 C    1.412    64 H    0.966
                            28 C    0.104
    36   6 C    3.985 --    37 C    1.002    14 N    0.999    66 H    0.966
                            65 H    0.964
    37   6 C    3.964 --    36 C    1.002    11 N    0.980    67 H    0.965
                            68 H    0.950
    38   1 H    0.993 --     1 C    0.959
    39   1 H    0.994 --     1 C    0.963
    40   1 H    0.989 --     1 C    0.956
    41   1 H    0.990 --     7 C    0.966
    42   1 H    0.989 --     7 C    0.948
    43   1 H    0.993 --     7 C    0.973
    44   1 H    0.995 --    12 C    0.966
    45   1 H    0.997 --    12 C    0.962
    46   1 H    0.996 --    13 C    0.967
    47   1 H    0.996 --    13 C    0.967
    48   1 H    0.999 --    15 C    0.947
    49   1 H    0.998 --    17 C    0.967
    50   1 H    0.998 --    18 C    0.968
    51   1 H    0.953 --    22 N    0.922
    52   1 H    0.993 --    23 C    0.973
    53   1 H    0.994 --    23 C    0.974
    54   1 H    0.994 --    23 C    0.978
    55   1 H    0.996 --    24 C    0.963
    56   1 H    0.994 --    25 C    0.962
    57   1 H    0.995 --    27 C    0.963
    58   1 H    0.997 --    28 C    0.967
    59   1 H    0.954 --    32 N    0.923
    60   1 H    0.993 --    33 C    0.973
    61   1 H    0.994 --    33 C    0.973
    62   1 H    0.994 --    33 C    0.978
    63   1 H    0.997 --    34 C    0.964
    64   1 H    0.997 --    35 C    0.966
    65   1 H    0.999 --    36 C    0.964
    66   1 H    0.995 --    36 C    0.966
    67   1 H    0.996 --    37 C    0.965
    68   1 H    0.993 --    37 C    0.950
 ---------------------------------------------------------------------------

Topologies differ in total number of bonds
Writing topology from bond orders to xtbtopo.mol

molecular dipole:
                 x           y           z       tot (Debye)
 q only:       -1.005      -1.196       0.230
   full:       -0.790      -1.413      -0.493       4.301
molecular quadrupole (traceless):
                xx          xy          yy          xz          yz          zz
 q only:      -51.031      19.342      35.427      -4.852      62.548      15.604
  q+dip:      -51.439      21.320      32.754      -7.225      68.905      18.685
   full:      -49.571      21.836      34.105      -8.398      67.830      15.466

           -------------------------------------------------
          |                Geometry Summary                 |
           -------------------------------------------------

      molecular mass/u    :      568.5265568
   center of mass at/Å    :        0.8228502      -0.0652536       0.3051902
  moments of inertia/u·Å² :        0.5496491E+04   0.1141485E+05   0.1481633E+05
rotational constants/cm⁻¹ :        0.3066981E-02   0.1476816E-02   0.1137774E-02

 * 65 selected distances

     #   Z          #   Z                                           value/Å
     2  34 Se       3   6 C                                       1.8781940 (max)
     3   6 C        4   7 N                                       1.3085907
     4   7 N        5   8 O                                       1.3625072
     5   8 O        6   6 C                                       1.3431678
     6   6 C        7   6 C                                       1.4786510
     3   6 C        8   6 C                                       1.4265524
     6   6 C        8   6 C                                       1.3726853
     9   6 C       10   8 O                                       1.2332748
     9   6 C       11   7 N                                       1.3368856
    11   7 N       12   6 C                                       1.4542709
    12   6 C       13   6 C                                       1.5263268
    13   6 C       14   7 N                                       1.4589056
    14   7 N       15   6 C                                       1.4570254
    16   6 C       17   6 C                                       1.3893671
    17   6 C       18   6 C                                       1.3809147
    18   6 C       19   6 C                                       1.3915200
    20   6 C       21   8 O                                       1.2328561
    20   6 C       22   7 N                                       1.3416666
    22   7 N       23   6 C                                       1.4440531
    19   6 C       24   6 C                                       1.3924665
    16   6 C       25   6 C                                       1.3899013
    24   6 C       25   6 C                                       1.3815254
    26   6 C       27   6 C                                       1.3904491
    27   6 C       28   6 C                                       1.3797957
    28   6 C       29   6 C                                       1.3926970
    30   6 C       31   8 O                                       1.2320719
    30   6 C       32   7 N                                       1.3419607
    32   7 N       33   6 C                                       1.4441189
    29   6 C       34   6 C                                       1.3909934
    26   6 C       35   6 C                                       1.3880401
    34   6 C       35   6 C                                       1.3833369
    14   7 N       36   6 C                                       1.4584972
    11   7 N       37   6 C                                       1.4506793
    36   6 C       37   6 C                                       1.5228520
     1   6 C       38   1 H                                       1.0859602
     1   6 C       39   1 H                                       1.0865616
     1   6 C       40   1 H                                       1.0869376
     7   6 C       41   1 H                                       1.0864250
     7   6 C       42   1 H                                       1.0889071
     7   6 C       43   1 H                                       1.0866438
    12   6 C       44   1 H                                       1.0925648
    12   6 C       45   1 H                                       1.0961367
    13   6 C       46   1 H                                       1.0900929
    13   6 C       47   1 H                                       1.0948837
    15   6 C       48   1 H                                       1.1069960
    17   6 C       49   1 H                                       1.0798874
    18   6 C       50   1 H                                       1.0799782
    22   7 N       51   1 H                                       1.0080652
    23   6 C       52   1 H                                       1.0897408
    23   6 C       53   1 H                                       1.0900760
    23   6 C       54   1 H                                       1.0887849
    24   6 C       55   1 H                                       1.0790826
    25   6 C       56   1 H                                       1.0775824
    27   6 C       57   1 H                                       1.0773720
    28   6 C       58   1 H                                       1.0798034
    32   7 N       59   1 H                                       1.0079834 (min)
    33   6 C       60   1 H                                       1.0897572
    33   6 C       61   1 H                                       1.0901020
    33   6 C       62   1 H                                       1.0888516
    34   6 C       63   1 H                                       1.0792761
    35   6 C       64   1 H                                       1.0802549
    36   6 C       65   1 H                                       1.1031131
    36   6 C       66   1 H                                       1.0924074
    37   6 C       67   1 H                                       1.0912660
    37   6 C       68   1 H                                       1.0964505

 * 7 distinct bonds (by element types)

   Z      Z             #   av. dist./Å        max./Å        min./Å
   1 H    6 C          29     1.0881343     1.1069960     1.0773720
   6 C    6 C          17     1.4104750     1.5263268     1.3726853
   1 H    7 N           2     1.0080243     1.0080652     1.0079834
   6 C    7 N          11     1.4087867     1.4589056     1.3085907
   6 C    8 O           4     1.2603426     1.3431678     1.2320719
   7 N    8 O           1     1.3625072     1.3625072     1.3625072
   6 C   34 Se          1     1.8781940     1.8781940     1.8781940


optimized geometry written to: xtbopt.xyz


           -------------------------------------------------
          | TOTAL ENERGY             -107.727187437813 Eh   |
          | GRADIENT NORM               0.000780778399 Eh/α |
          | HOMO-LUMO GAP               2.581633784193 eV   |
           -------------------------------------------------
########################################################################
[WARNING] Runtime exception occurred
-2- restart_readRestart: Dimension missmatch in restart file.
-1- restart_readRestart: Number of electron missmatch in restart file.
########################################################################

------------------------------------------------------------------------
 * finished run on 2026/08/28 at 18:51:23.403     
------------------------------------------------------------------------
 total:
 * wall-time:     0 d,  0 h,  0 min,  6.825 sec
 *  cpu-time:     0 d,  0 h,  0 min, 47.281 sec
 * ratio c/w:     6.927 speedup
 SCF:
 * wall-time:     0 d,  0 h,  0 min,  0.089 sec
 *  cpu-time:     0 d,  0 h,  0 min,  0.469 sec
 * ratio c/w:     5.281 speedup
 ANC optimizer:
 * wall-time:     0 d,  0 h,  0 min,  6.672 sec
 *  cpu-time:     0 d,  0 h,  0 min, 46.781 sec
 * ratio c/w:     7.012 speedup

