68
 energy: -107.727187437813 gnorm: 0.000780778399 xtb: 6.7.1 (edcfbbe)
C            5.48589982363859        1.53216691715445        1.48604312713528
Se           5.62647370663213       -0.20314333192475        2.39770758881337
C            5.93875235968863       -1.31270647209648        0.91481724214581
N            6.68891812681677       -2.36811768253399        1.10394084161217
O            6.77481629865170       -3.01833122908135       -0.09032440987915
C            6.08466044029391       -2.33731500658022       -1.01984105629753
C            6.03628550041230       -2.85893945298695       -2.40258330854380
C            5.49766139702133       -1.24033615228210       -0.43989776416941
C            4.68709630226565       -0.21072383611064       -1.13675386917582
O            5.16344192582015        0.43345000667792       -2.07435789352643
N            3.43572649854826       -0.02966189906842       -0.70252713191486
C            2.60617883400204        0.98663548370917       -1.33013677137498
C            1.52004614344406        1.42112278389002       -0.34972376660281
N            0.62680731129371        0.33071671003420        0.02649991365738
C           -0.61923804607686        0.31561420605341       -0.72852692588185
C           -1.41649248193550        1.58373260507266       -0.51872419842020
C           -2.26698915549589        2.03729175305139       -1.51936398249959
C           -3.04409577002047        3.16140174250235       -1.32085209375948
C           -2.99884082755157        3.84804222795052       -0.11138756992093
C           -3.85845605954223        5.05515886632605        0.04405470797281
O           -4.14785614605821        5.77309865132810       -0.91549929610070
N           -4.29933435095748        5.29201610769009        1.28888161238764
C           -5.15220004280745        6.40581952603498        1.63144683233222
C           -2.13499080825192        3.40311031957080        0.88598969453787
C           -1.35477750432857        2.28142245004077        0.68179456538786
C           -1.51388798968819       -0.81865382526718       -0.27452854499145
C           -1.77344930417450       -1.00994316783159        1.07801888545809
C           -2.61736466380159       -2.02098166927093        1.48965460169368
C           -3.21237320228145       -2.87072876691373        0.56040799632862
C           -4.11979174563487       -3.94176930031066        1.06147432206051
O           -4.81460792716027       -3.78482625660341        2.06676043242111
N           -4.11156400479788       -5.08122363547787        0.35264830992417
C           -4.91832106661844       -6.23112432864037        0.68783557109996
C           -2.96739369828912       -2.66904319515695       -0.79390739117004
C           -2.12719161970611       -1.64889693080246       -1.20254257396985
C            1.29920547337821       -0.96235290551889       -0.02886648985345
C            2.77608746372859       -0.82462341577165        0.31599262912316
H            4.51540362602893        1.64237565860025        1.01138481839768
H            6.28554669726474        1.60717728125312        0.75422749646540
H            5.61327403952334        2.28547010895642        2.25918169723080
H            6.99247636282152       -3.30892354037481       -2.65463955195149
H            5.26473143598608       -3.62242349249399       -2.48927129391970
H            5.81296777987280       -2.04272622864055       -3.08428690577126
H            3.24754547252510        1.82438471841615       -1.61390191480538
H            2.16061769523732        0.58620610554969       -2.24809487242728
H            0.94036213554848        2.23179308841130       -0.79140507299689
H            1.99225899625351        1.80590901549973        0.56007003230700
H           -0.42912864328924        0.19249144288743       -1.81210396449681
H           -2.32127593812249        1.51107400967537       -2.46080139626618
H           -3.69994605814877        3.52703224089992       -2.09707847754257
H           -4.07933365320674        4.63591499240788        2.02190704321606
H           -4.67749494880365        7.02374147132936        2.39326196437091
H           -6.11444921066732        6.05047792485987        2.00032925730818
H           -5.30705374606959        6.99644419570391        0.72998405753896
H           -2.04308389092921        3.94656675288882        1.81368965012533
H           -0.67758114547904        1.94636737150232        1.45012177252918
H           -1.30711502003535       -0.36375938164217        1.80307691183808
H           -2.83287271989800       -2.17396079918229        2.53661629282778
H           -3.48219035752890       -5.16921358672274       -0.42976906658867
H           -5.56377309658433       -6.49631338906908       -0.14920502344332
H           -4.28491616859611       -7.08134305473496        0.94130834033212
H           -5.53043821384943       -5.96821749340050        1.54910804226532
H           -3.45257061645038       -3.28275428196955       -1.53741182740529
H           -1.94978664658585       -1.49954162599895       -2.25761170239808
H            1.21060786965922       -1.42362664260185       -1.02698236069180
H            0.82543661095885       -1.63228998500959        0.69229998573620
H            3.23533232140983       -1.81351704748293        0.36121334171987
H            2.87760684068308       -0.35217272629279        1.30021189069524
