68

C      8.065928    2.214138    0.237217
Se     7.032217    1.228746    1.581520
C      6.675259   -0.521126    0.888466
N      7.399111   -1.643760    1.147932
O      6.847122   -2.608551    0.502291
C      5.805403   -2.253836   -0.180742
C      4.937740   -3.088077   -1.028672
C      5.640336   -0.909872    0.028154
C      4.661223    0.030158   -0.472051
O      5.085928    0.936051   -1.265401
N      3.290923    0.047523   -0.173278
C      2.490245    1.111250   -0.801464
C      1.256220    1.375051    0.003770
N      0.471633    0.197790    0.315404
C     -0.740407    0.180995   -0.477567
C     -1.571824    1.406090   -0.295367
C     -2.054728    2.033500   -1.454612
C     -2.858793    3.172800   -1.355224
C     -3.169843    3.670539   -0.104214
C     -4.014021    4.858419   -0.052996
O     -4.380644    5.352111   -1.173406
N     -4.427039    5.461790    1.176029
C     -5.267972    6.642747    1.080889
C     -2.693052    3.052389    1.027990
C     -1.885180    1.908596    0.954350
C     -1.541871   -1.028423   -0.164983
C     -1.735313   -1.514824    1.110169
C     -2.540937   -2.632533    1.330486
C     -3.171342   -3.286914    0.275681
C     -4.013185   -4.438838    0.569566
O     -4.149536   -4.848170    1.753165
N     -4.700112   -5.123642   -0.483365
C     -5.514062   -6.248492   -0.105047
C     -2.980013   -2.808400   -0.980680
C     -2.178066   -1.692673   -1.222888
C      1.174609   -1.035676    0.095244
C      2.581277   -0.860573    0.682138
H      7.553014    2.231124   -0.744327
H      9.067623    1.730600    0.209965
H      8.229225    3.262735    0.593882
H      5.446072   -3.444124   -1.945289
H      4.620265   -3.992326   -0.441656
H      3.996450   -2.591861   -1.312320
H      3.052565    2.038178   -0.889959
H      2.245061    0.746726   -1.819031
H      0.612465    2.082746   -0.596823
H      1.542247    1.940572    0.912580
H     -0.411738    0.101308   -1.532192
H     -1.785169    1.606107   -2.422269
H     -3.187440    3.592688   -2.279035
H     -4.133223    5.066783    2.092975
H     -5.040709    7.245181    1.982900
H     -6.346775    6.372241    1.015434
H     -4.998247    7.210197    0.167271
H     -2.930027    3.435665    2.023645
H     -1.511386    1.424176    1.857817
H     -1.233927   -0.997886    1.928453
H     -2.677589   -2.995598    2.324610
H     -4.639462   -4.850116   -1.482424
H     -6.073110   -6.644808   -0.996235
H     -4.978334   -7.068183    0.378054
H     -6.257474   -5.876831    0.646451
H     -3.435156   -3.269794   -1.837242
H     -2.050273   -1.337825   -2.258493
H      1.271829   -1.252313   -0.988649
H      0.720086   -1.861245    0.635912
H      3.026259   -1.859609    0.766094
H      2.479643   -0.380810    1.680450
