54

C      5.692097    2.832756   -0.207221
Se     4.106516    1.861056    0.295648
C      4.584054    0.118022    0.918164
N      5.435678   -0.154873    1.929604
O      5.505529   -1.447177    2.045908
C      4.742268   -2.058503    1.162189
C      4.627147   -3.530311    1.062186
C      4.111061   -1.076864    0.392555
C      3.185250   -1.310918   -0.699641
O      3.712671   -1.716976   -1.792213
N      1.767875   -1.107897   -0.587608
C      1.147674   -0.648301    0.643298
C     -0.093289    0.185961    0.409699
N     -0.794606   -0.100504   -0.741027
C     -2.150292    0.155228   -0.941203
C     -2.617358    1.551535   -0.930085
C     -3.406854    2.021160   -1.990929
C     -3.884212    3.308581   -2.043205
C     -3.614169    4.221925   -1.046875
Cl    -4.226260    5.844885   -1.131776
C     -2.834995    3.769059    0.008000
C     -2.354340    2.472554    0.058774
C     -3.069419   -0.697996   -0.079867
C     -4.157364   -0.102195    0.571124
C     -4.995498   -0.908535    1.347936
C     -4.730217   -2.267964    1.453576
Cl    -5.809627   -3.242582    2.437449
C     -3.664262   -2.868751    0.820550
C     -2.824592   -2.061513    0.042235
C     -0.045071   -0.368441   -1.930999
C      1.000355   -1.409746   -1.792259
H      5.428977    3.913822   -0.344730
H      6.070078    2.453218   -1.180908
H      6.492976    2.809054    0.560555
H      5.650320   -3.967239    1.268729
H      4.402225   -3.821856    0.022189
H      3.972812   -3.952853    1.830370
H      1.919866   -0.105301    1.215510
H      0.909678   -1.551165    1.238924
H      0.301203    1.232585    0.355423
H     -0.717018    0.124618    1.316019
H     -2.386071   -0.235840   -1.992057
H     -3.654063    1.357853   -2.803012
H     -4.494306    3.607643   -2.897238
H     -2.626232    4.495704    0.788415
H     -1.771309    2.204499    0.899126
H     -4.355200    0.966757    0.477819
H     -5.848884   -0.464141    1.859769
H     -3.522628   -3.915837    0.946275
H     -1.977197   -2.513126   -0.471501
H      0.439800    0.582682   -2.275274
H     -0.758081   -0.677420   -2.727259
H      0.541064   -2.410686   -1.601686
H      1.636240   -1.395644   -2.681636
