54
 energy: -90.191988822614 gnorm: 0.000444074065 xtb: 6.7.1 (edcfbbe)
C            2.74548118413787        3.46564986341976        0.87280151285113
Se           2.22369683131238        2.03002535159093       -0.32829042382752
C            3.37180914643967        0.70297695133750        0.32593189690936
N            4.18556416470500        0.92700336070735        1.32620344677389
O            4.87046756948260       -0.23394204462208        1.54315897332742
C            4.46697975447711       -1.16993500698532        0.66008272837082
C            5.08041984298518       -2.51501816803297        0.72168539368610
C            3.49340421858617       -0.64019751901436       -0.14102848290368
C            2.81297771536459       -1.15982652259223       -1.35826436491804
O            3.30895133430304       -0.94065121798512       -2.46528949812630
N            1.67719123415561       -1.84583520821541       -1.18260932961482
C            0.97237238536412       -1.96248886468966        0.07461748717366
C           -0.13644577694292       -0.90934474680850        0.12433481024081
N           -1.02606223709552       -1.07722321655691       -1.00775618478172
C           -2.21501348870147       -0.21978364799297       -0.96386942104643
C           -1.83062913232352        1.24549276099623       -0.88563303948907
C           -1.66531341299757        1.97710151531592       -2.05619635126406
C           -1.17641742029245        3.27174021309644       -2.02914253949834
C           -0.84651869378923        3.83920468231269       -0.81185236405599
Cl          -0.21041786501271        5.46309431657044       -0.76969088234115
C           -1.02077092683625        3.14252209067074        0.37196990477398
C           -1.51004899056635        1.84908898067483        0.32695048459312
C           -3.16410842375690       -0.66210268741385        0.12880270222927
C           -4.12563299986615        0.21117679862099        0.62326520636474
C           -5.02242811935564       -0.19740783666120        1.59472157098955
C           -4.95915470419639       -1.49559688849851        2.06971323238836
Cl          -6.08162817690223       -2.01382141847480        3.30189241660832
C           -4.02636974026535       -2.39000961369232        1.57492427469965
C           -3.13769239995060       -1.96835518653422        0.60196966904202
C           -0.29517307168158       -0.97246457896294       -2.25689573406294
C            0.78712750681889       -2.05262916743041       -2.30732423717923
H            2.12760564487607        4.32302460542892        0.62074974395218
H            3.79704556228839        3.68413767543660        0.71655723521750
H            2.56921078885559        3.14226742749122        1.89400738911613
H            6.09734170967209       -2.43104454111604        1.09459329278152
H            5.07827265668789       -2.96111610480658       -0.26844655070245
H            4.51525108223860       -3.15381005849458        1.39861179816365
H            1.65952609349723       -1.82349913501402        0.90800908778928
H            0.54042561824454       -2.96414121147493        0.12125688701603
H            0.34673977330352        0.08644592656374        0.11943460652631
H           -0.70908657529124       -1.02042713138842        1.04500668700035
H           -2.73408636704483       -0.38650282930904       -1.91694000045920
H           -1.92138528529267        1.53691702314338       -3.00802994124293
H           -1.04745859829724        3.82995441976107       -2.94266190727164
H           -0.77572286659697        3.60469345258789        1.31472913966699
H           -1.65075357426167        1.31028883652622        1.25078742551407
H           -4.18010177369676        1.22121406374470        0.24781220940573
H           -5.76363615400590        0.48492652965139        1.97819428688539
H           -3.99943129017239       -3.40232822444431        1.94385238041055
H           -2.41709845580313       -2.65917534202343        0.19671139007072
H            0.20071542048134        0.01113134473814       -2.36487165251709
H           -0.98745074893210       -1.11428236838327       -3.08739824035349
H            0.34140036651851       -3.04445033113088       -2.22575009775664
H            1.36605966514624       -1.97266537146407       -3.22758902711668
