      -----------------------------------------------------------      
     |                   =====================                   |     
     |                           x T B                           |     
     |                   =====================                   |     
     |                         S. Grimme                         |     
     |          Mulliken Center for Theoretical Chemistry        |     
     |                    University of Bonn                     |     
      -----------------------------------------------------------      

   * xtb version 6.7.1 (edcfbbe) compiled by 'VssAdministrator@runnervm171ch' on 2026-06-10

   xtb is free software: you can redistribute it and/or modify it under
   the terms of the GNU Lesser General Public License as published by
   the Free Software Foundation, either version 3 of the License, or
   (at your option) any later version.
   
   xtb is distributed in the hope that it will be useful,
   but WITHOUT ANY WARRANTY; without even the implied warranty of
   MERCHANTABILITY or FITNESS FOR A PARTICULAR PURPOSE.  See the
   GNU Lesser General Public License for more details.
   
   Cite this work as:
   * C. Bannwarth, E. Caldeweyher, S. Ehlert, A. Hansen, P. Pracht,
     J. Seibert, S. Spicher, S. Grimme, WIREs Comput. Mol. Sci., 2020, 11,
     e01493. DOI: 10.1002/wcms.1493
   
   for GFN2-xTB:
   * C. Bannwarth, S. Ehlert and S. Grimme., J. Chem. Theory Comput., 2019,
     15, 1652-1671. DOI: 10.1021/acs.jctc.8b01176
   for GFN1-xTB:
   * S. Grimme, C. Bannwarth, P. Shushkov, J. Chem. Theory Comput., 2017,
     13, 1989-2009. DOI: 10.1021/acs.jctc.7b00118
   for GFN0-xTB:
   * P. Pracht, E. Caldeweyher, S. Ehlert, S. Grimme, ChemRxiv, 2019, preprint.
     DOI: 10.26434/chemrxiv.8326202.v1
   for GFN-FF:
   * S. Spicher and S. Grimme, Angew. Chem. Int. Ed., 2020, 59, 15665-15673.
     DOI: 10.1002/anie.202004239
   
   for ALPB and GBSA implicit solvation:
   * S. Ehlert, M. Stahn, S. Spicher, S. Grimme, J. Chem. Theory Comput.,
     2021, 17, 4250-4261. DOI: 10.1021/acs.jctc.1c00471
   
   for ddCOSMO and CPCM-X implicit solvation:
   * M. Stahn, S. Ehlert, S. Grimme, J. Phys. Chem. A,
     2023, XX, XXXX-XXXX. DOI: 10.1021/acs.jpca.3c04382
   
   for DFT-D4:
   * E. Caldeweyher, C. Bannwarth and S. Grimme, J. Chem. Phys., 2017,
     147, 034112. DOI: 10.1063/1.4993215
   * E. Caldeweyher, S. Ehlert, A. Hansen, H. Neugebauer, S. Spicher,
     C. Bannwarth and S. Grimme, J. Chem. Phys., 2019, 150, 154122.
     DOI: 10.1063/1.5090222
   * E. Caldeweyher, J.-M. Mewes, S. Ehlert and S. Grimme, Phys. Chem. Chem. Phys.
     2020, 22, 8499-8512. DOI: 10.1039/D0CP00502A
   
   for sTDA-xTB:
   * S. Grimme and C. Bannwarth, J. Chem. Phys., 2016, 145, 054103.
     DOI: 10.1063/1.4959605
   
   in the mass-spec context:
   * V. Asgeirsson, C. Bauer and S. Grimme, Chem. Sci., 2017, 8, 4879.
     DOI: 10.1039/c7sc00601b
   * J. Koopman and S. Grimme, ACS Omega 2019, 4, 12, 15120-15133.
     DOI: 10.1021/acsomega.9b02011
   
   for metadynamics refer to:
   * S. Grimme, J. Chem. Theory Comput., 2019, 155, 2847-2862
     DOI: 10.1021/acs.jctc.9b00143
   
   for SPH calculations refer to:
   * S. Spicher and S. Grimme, J. Chem. Theory Comput., 2021, 17, 1701-1714
     DOI: 10.1021/acs.jctc.0c01306
   
   for ONIOM refer to:
   * C. Plett, A. Katbashev, S. Ehlert, S. Grimme, M. Bursch,
     Phys. Chem. Chem. Phys., 2023, 25, 17860-17868. DOI: 10.1039/D3CP02178E
   
   for DIPRO refer to:
   * J. Kohn, N. Gildemeister, S. Grimme, D. Fazzi, A. Hansen,
     J. Chem. Phys., 2023, just accepted.
   
   for PTB refer to:
   * S. Grimme, M. Mueller, A. Hansen, J. Chem. Phys., 2023, 158, 124111.
     DOI: 10.1063/5.0137838
   
   with help from (in alphabetical order)
   P. Atkinson, C. Bannwarth, F. Bohle, G. Brandenburg, E. Caldeweyher
   M. Checinski, S. Dohm, S. Ehlert, S. Ehrlich, I. Gerasimov, C. Hölzer
   A. Katbashev, J. Kohn, J. Koopman, C. Lavigne, S. Lehtola, F. März, M. Müller,
   F. Musil, H. Neugebauer, J. Pisarek, C. Plett, P. Pracht, F. Pultar,
   J. Seibert, P. Shushkov, S. Spicher, M. Stahn, M. Steiner, T. Strunk,
   J. Stückrath, T. Rose, and J. Unsleber
   
 * started run on 2026/08/28 at 18:51:11.861     
   ID    Z sym.   atoms
    1    6 C      1, 3, 6-9, 12, 13, 15-19, 21-26, 28-31
    2   34 Se     2
    3    7 N      4, 11, 14
    4    8 O      5, 10
    5   17 Cl     20, 27
    6    1 H      32-54

           -------------------------------------------------
          |                Calculation Setup                |
           -------------------------------------------------

          program call               : C:\Users\Christian\Miniconda3\Library\bin\xtb.exe ML210_adduct.xyz --gfn 2 --opt --alpb water
          coordinate file            : ML210_adduct.xyz
          omp threads                :                    12


           -------------------------------------------------
          |                 G F N 2 - x T B                 |
           -------------------------------------------------

        Reference                      10.1021/acs.jctc.8b01176
      * Hamiltonian:
        H0-scaling (s, p, d)           1.850000    2.230000    2.230000
        zeta-weighting                 0.500000
      * Dispersion:
        s8                             2.700000
        a1                             0.520000
        a2                             5.000000
        s9                             5.000000
      * Repulsion:
        kExp                           1.500000    1.000000
        rExp                           1.000000
      * Coulomb:
        alpha                          2.000000
        third order                    shell-resolved
        anisotropic                    true
        a3                             3.000000
        a5                             4.000000
        cn-shift                       1.200000
        cn-exp                         4.000000
        max-rad                        5.000000

      * Solvation model:               ALPB
        Solvent                        water
        Parameter file                 internal GFN2-xTB/ALPB
        Dielectric constant                8.0200E+01
        Reference state                gsolv [1 M gas/solution]
        Free energy shift                  1.0808E-03 Eh       6.7819E-01 kcal/mol
        Temperature                        2.9815E+02 K
        Density                            1.0000E+00 kg/L
        Solvent mass                       1.8000E+01 g/mol
        Interaction kernel             P16
        Born radius scaling (c1)           1.4744E+00
        Born radii integrator          GBOBC
        Born offset                        0.0000E+00 a0       0.0000E+00 AA
        H-bond correction              true
        Ion screening                  false
        Surface tension                    1.0000E-05 Eh       1.5569E+01 dyn/cm
        Grid points                               230 per atom

          ...................................................
          :                      SETUP                      :
          :.................................................:
          :  # basis functions                 165          :
          :  # atomic orbitals                 162          :
          :  # shells                           88          :
          :  # electrons                       162          :
          :  max. iterations                   250          :
          :  Hamiltonian                  GFN2-xTB          :
          :  restarted?                      false          :
          :  GBSA solvation                   true          :
          :  PC potential                    false          :
          :  electronic temp.          300.0000000     K    :
          :  accuracy                    1.0000000          :
          :  -> integral cutoff          0.2500000E+02      :
          :  -> integral neglect         0.1000000E-07      :
          :  -> SCF convergence          0.1000000E-05 Eh   :
          :  -> wf. convergence          0.1000000E-03 e    :
          :  Broyden damping             0.4000000          :
          :  net charge                          0          :
          :  unpaired electrons                  0          :
          ...................................................

 iter      E             dE          RMSdq      gap      omega  full diag
   1    -91.1072849 -0.911073E+02  0.450E+00    2.18       0.0  T
   2    -91.2140697 -0.106785E+00  0.256E+00    2.37       1.0  T
   3    -91.2133207  0.749030E-03  0.129E+00    2.10       1.0  T
   4    -91.2292291 -0.159084E-01  0.383E-01    1.93       1.0  T
   5    -91.2322450 -0.301589E-02  0.159E-01    1.95       1.0  T
   6    -91.2323186 -0.735508E-04  0.103E-01    1.95       1.0  T
   7    -91.2324083 -0.897115E-04  0.582E-02    1.95       1.0  T
   8    -91.2324474 -0.391799E-04  0.371E-02    1.94       1.0  T
   9    -91.2324649 -0.174568E-04  0.211E-02    1.94       1.0  T
  10    -91.2324743 -0.938243E-05  0.109E-02    1.93       1.3  T
  11    -91.2324760 -0.168718E-05  0.708E-03    1.93       1.9  T
  12    -91.2324768 -0.839495E-06  0.456E-03    1.93       3.0  T
  13    -91.2324771 -0.306661E-06  0.294E-03    1.93       4.6  T
  14    -91.2324772 -0.112519E-06  0.138E-03    1.93       9.8  T
  15    -91.2324773 -0.231635E-07  0.520E-04    1.93      26.2  T
  16    -91.2324773 -0.365503E-08  0.246E-04    1.93      55.3  T

   *** convergence criteria satisfied after 16 iterations ***

         #    Occupation            Energy/Eh            Energy/eV
      -------------------------------------------------------------
         1        2.0000           -1.0638342             -28.9484
       ...           ...                  ...                  ...
        75        2.0000           -0.4110880             -11.1863
        76        2.0000           -0.4062719             -11.0552
        77        2.0000           -0.3966075             -10.7922
        78        2.0000           -0.3928124             -10.6890
        79        2.0000           -0.3916554             -10.6575
        80        2.0000           -0.3734334             -10.1616
        81        2.0000           -0.3349581              -9.1147 (HOMO)
        82                         -0.2640403              -7.1849 (LUMO)
        83                         -0.2532666              -6.8917
        84                         -0.2361423              -6.4258
        85                         -0.2357015              -6.4138
        86                         -0.2314270              -6.2974
       ...                                ...                  ...
       162                          0.7509387              20.4341
      -------------------------------------------------------------
                  HL-Gap            0.0709179 Eh            1.9298 eV
             Fermi-level           -0.2994992 Eh           -8.1498 eV

 SCC (total)                   0 d,  0 h,  0 min,  0.083 sec
 SCC setup                      ...        0 min,  0.001 sec (  1.516%)
 Dispersion                     ...        0 min,  0.001 sec (  1.693%)
 classical contributions        ...        0 min,  0.000 sec (  0.175%)
 integral evaluation            ...        0 min,  0.005 sec (  5.641%)
 iterations                     ...        0 min,  0.063 sec ( 76.197%)
 molecular gradient             ...        0 min,  0.012 sec ( 14.240%)
 printout                       ...        0 min,  0.000 sec (  0.506%)

         :::::::::::::::::::::::::::::::::::::::::::::::::::::
         ::                     SUMMARY                     ::
         :::::::::::::::::::::::::::::::::::::::::::::::::::::
         :: total energy             -90.116983142996 Eh    ::
         :: total w/o Gsasa/hb       -90.111703604765 Eh    ::
         :: gradient norm              0.204649802099 Eh/a0 ::
         :: HOMO-LUMO gap              1.929773024620 eV    ::
         ::.................................................::
         :: SCC energy               -91.231705619303 Eh    ::
         :: -> isotropic ES            0.089705491487 Eh    ::
         :: -> anisotropic ES         -0.005825588019 Eh    ::
         :: -> anisotropic XC          0.042566231786 Eh    ::
         :: -> dispersion             -0.067791119960 Eh    ::
         :: -> Gsolv                  -0.028269654621 Eh    ::
         ::    -> Gelec               -0.022990116390 Eh    ::
         ::    -> Gsasa               -0.002140714730 Eh    ::
         ::    -> Ghb                 -0.004219583199 Eh    ::
         ::    -> Gshift               0.001080759698 Eh    ::
         :: repulsion energy           1.114722476307 Eh    ::
         :: add. restraining           0.000000000000 Eh    ::
         :: total charge               0.000000000000 e     ::
         :::::::::::::::::::::::::::::::::::::::::::::::::::::

      ----------------------------------------------------------- 
     |                   =====================                   |
     |                        A N C O P T                        |
     |                   =====================                   |
     |               Approximate Normal Coordinate               |
     |                Rational Function Optimizer                |
      ----------------------------------------------------------- 
      ----------------------------------------------------------- 
     |                   =====================                   |
     |                        A N C O P T                        |
     |                   =====================                   |
     |               Approximate Normal Coordinate               |
     |                Rational Function Optimizer                |
      ----------------------------------------------------------- 

          ...................................................
          :                      SETUP                      :
          :.................................................:
          :   optimization level            normal          :
          :   max. optcycles                   200          :
          :   ANC micro-cycles                  20          :
          :   degrees of freedom               156          :
          :.................................................:
          :   RF solver                   davidson          :
          :   write xtbopt.log                true          :
          :   linear?                        false          :
          :   energy convergence         0.5000000E-05 Eh   :
          :   grad. convergence          0.1000000E-02 Eh/α :
          :   maxmium RF displ.          1.0000000          :
          :   Hlow (freq-cutoff)         0.1000000E-01      :
          :   Hmax (freq-cutoff)         5.0000000          :
          :   S6 in model hess.         20.0000000          :
          ...................................................

generating ANC from exact Hessian ...
Using Lindh-Hessian (1995)
 Shifting diagonal of input Hessian by    9.8792308983532921E-003
 Lowest  eigenvalues of input Hessian
    0.000000    0.000000    0.000000    0.000000    0.000000    0.000000
    0.010000    0.010022    0.010390    0.010526    0.010732    0.010870
    0.011030    0.011253    0.011403    0.011545    0.011938    0.012550
 Highest eigenvalues
    1.962113    1.965685    1.970622    1.986061    2.104192    2.106664


........................................................................
.............................. CYCLE    1 ..............................
........................................................................

 iter      E             dE          RMSdq      gap      omega  full diag
   1    -91.2324773 -0.912325E+02  0.123E-04    1.93       0.0  T
   2    -91.2324773 -0.110788E-09  0.874E-05    1.93     155.7  T
   3    -91.2324773 -0.510738E-10  0.673E-05    1.93     202.1  T
     SCC iter.                  ...        0 min,  0.011 sec
     gradient                   ...        0 min,  0.011 sec
 * total energy  :   -90.1169831 Eh     change       -0.8391225E-09 Eh
   gradient norm :     0.2046505 Eh/α   predicted     0.0000000E+00 (-100.00%)
   displ. norm   :     0.3659589 α      lambda       -0.4916092E-01
   maximum displ.:     0.0852674 α      in ANC's #104, #22, #87, ...

........................................................................
.............................. CYCLE    2 ..............................
........................................................................

 iter      E             dE          RMSdq      gap      omega  full diag
   1    -91.2895387 -0.912895E+02  0.299E-01    2.03       0.0  T
   2    -91.2901096 -0.570905E-03  0.180E-01    1.96       1.0  T
   3    -91.2901336 -0.240188E-04  0.931E-02    1.98       1.0  T
   4    -91.2902296 -0.959750E-04  0.258E-02    1.97       1.0  T
   5    -91.2902348 -0.521473E-05  0.122E-02    1.97       1.1  T
   6    -91.2902371 -0.226148E-05  0.568E-03    1.97       2.4  T
   7    -91.2902373 -0.251064E-06  0.362E-03    1.97       3.8  T
   8    -91.2902375 -0.154245E-06  0.236E-03    1.97       5.8  T
   9    -91.2902376 -0.929357E-07  0.151E-03    1.97       9.0  T
  10    -91.2902376 -0.472013E-07  0.883E-04    1.97      15.4  T
  11    -91.2902377 -0.175521E-07  0.430E-04    1.97      31.7  T
     SCC iter.                  ...        0 min,  0.047 sec
     gradient                   ...        0 min,  0.011 sec
 * total energy  :   -90.1524422 Eh     change       -0.3545908E-01 Eh
   gradient norm :     0.0935466 Eh/α   predicted    -0.2788680E-01 ( -21.35%)
   displ. norm   :     0.3945629 α      lambda       -0.1955174E-01
   maximum displ.:     0.1220018 α      in ANC's #14, #22, #29, ...

........................................................................
.............................. CYCLE    3 ..............................
........................................................................

 iter      E             dE          RMSdq      gap      omega  full diag
   1    -91.3217661 -0.913218E+02  0.239E-01    2.09       0.0  T
   2    -91.3221942 -0.428148E-03  0.151E-01    2.04       1.0  T
   3    -91.3222288 -0.345589E-04  0.786E-02    2.07       1.0  T
   4    -91.3222907 -0.619311E-04  0.226E-02    2.06       1.0  T
   5    -91.3222949 -0.422063E-05  0.894E-03    2.06       1.5  T
   6    -91.3222957 -0.764617E-06  0.474E-03    2.06       2.9  T
   7    -91.3222958 -0.155602E-06  0.322E-03    2.06       4.2  T
   8    -91.3222959 -0.902959E-07  0.199E-03    2.06       6.9  T
   9    -91.3222960 -0.572531E-07  0.119E-03    2.06      11.5  T
  10    -91.3222960 -0.258845E-07  0.686E-04    2.06      19.8  T
  11    -91.3222960 -0.996201E-08  0.364E-04    2.06      37.4  T
     SCC iter.                  ...        0 min,  0.035 sec
     gradient                   ...        0 min,  0.011 sec
 * total energy  :   -90.1640130 Eh     change       -0.1157078E-01 Eh
   gradient norm :     0.0290508 Eh/α   predicted    -0.1129778E-01 (  -2.36%)
   displ. norm   :     0.4174209 α      lambda       -0.4729014E-02
   maximum displ.:     0.1681829 α      in ANC's #14, #13, #12, ...

........................................................................
.............................. CYCLE    4 ..............................
........................................................................

 iter      E             dE          RMSdq      gap      omega  full diag
   1    -91.3213629 -0.913214E+02  0.152E-01    2.11       0.0  T
   2    -91.3213980 -0.351724E-04  0.859E-02    2.11       1.0  T
   3    -91.3213768  0.212531E-04  0.359E-02    2.12       1.0  T
   4    -91.3214106 -0.338157E-04  0.112E-02    2.12       1.2  T
   5    -91.3214107 -0.132868E-06  0.362E-03    2.12       3.8  T
   6    -91.3214108 -0.963082E-07  0.200E-03    2.12       6.8  T
   7    -91.3214108 -0.263115E-07  0.113E-03    2.12      12.0  T
   8    -91.3214109 -0.926029E-08  0.690E-04    2.12      19.7  T
   9    -91.3214109 -0.549572E-08  0.381E-04    2.12      35.8  T
     SCC iter.                  ...        0 min,  0.038 sec
     gradient                   ...        0 min,  0.012 sec
 * total energy  :   -90.1676877 Eh     change       -0.3674703E-02 Eh
   gradient norm :     0.0177858 Eh/α   predicted    -0.2776553E-02 ( -24.44%)
   displ. norm   :     0.5591482 α      lambda       -0.4107994E-02
   maximum displ.:     0.1863694 α      in ANC's #14, #19, #13, ...

........................................................................
.............................. CYCLE    5 ..............................
........................................................................

 iter      E             dE          RMSdq      gap      omega  full diag
   1    -91.3188677 -0.913189E+02  0.143E-01    2.20       0.0  T
   2    -91.3189047 -0.369886E-04  0.848E-02    2.20       1.0  T
   3    -91.3188802  0.244968E-04  0.385E-02    2.22       1.0  T
   4    -91.3189197 -0.395009E-04  0.100E-02    2.21       1.4  T
   5    -91.3189198 -0.148623E-06  0.378E-03    2.20       3.6  T
   6    -91.3189199 -0.678680E-07  0.172E-03    2.20       7.9  T
   7    -91.3189199 -0.199262E-07  0.103E-03    2.20      13.3  T
   8    -91.3189199 -0.103653E-07  0.710E-04    2.20      19.2  T
   9    -91.3189199 -0.769597E-08  0.410E-04    2.20      33.2  T
     SCC iter.                  ...        0 min,  0.029 sec
     gradient                   ...        0 min,  0.011 sec
 * total energy  :   -90.1706379 Eh     change       -0.2950165E-02 Eh
   gradient norm :     0.0131799 Eh/α   predicted    -0.2696655E-02 (  -8.59%)
   displ. norm   :     0.4888633 α      lambda       -0.2062031E-02
   maximum displ.:     0.1553147 α      in ANC's #19, #8, #4, ...

........................................................................
.............................. CYCLE    6 ..............................
........................................................................

 iter      E             dE          RMSdq      gap      omega  full diag
   1    -91.3198413 -0.913198E+02  0.124E-01    2.25       0.0  T
   2    -91.3198554 -0.141663E-04  0.666E-02    2.27       1.0  T
   3    -91.3198481  0.731651E-05  0.227E-02    2.28       1.0  T
   4    -91.3198598 -0.117104E-04  0.780E-03    2.27       1.7  T
   5    -91.3198599 -0.918812E-07  0.291E-03    2.27       4.7  T
   6    -91.3198600 -0.115663E-06  0.148E-03    2.27       9.2  T
   7    -91.3198601 -0.167533E-07  0.978E-04    2.27      13.9  T
   8    -91.3198601 -0.105231E-07  0.657E-04    2.27      20.7  T
     SCC iter.                  ...        0 min,  0.028 sec
     gradient                   ...        0 min,  0.012 sec
 * total energy  :   -90.1721171 Eh     change       -0.1479250E-02 Eh
   gradient norm :     0.0130086 Eh/α   predicted    -0.1277421E-02 ( -13.64%)
   displ. norm   :     0.4486750 α      lambda       -0.1322838E-02
   maximum displ.:     0.1587554 α      in ANC's #4, #8, #2, ...

........................................................................
.............................. CYCLE    7 ..............................
........................................................................

 iter      E             dE          RMSdq      gap      omega  full diag
   1    -91.3235872 -0.913236E+02  0.908E-02    2.30       0.0  T
   2    -91.3235942 -0.700240E-05  0.523E-02    2.31       1.0  T
   3    -91.3235887  0.548668E-05  0.148E-02    2.31       1.0  T
   4    -91.3235961 -0.734772E-05  0.454E-03    2.31       3.0  T
   5    -91.3235963 -0.202821E-06  0.179E-03    2.31       7.6  T
   6    -91.3235963 -0.287206E-07  0.929E-04    2.31      14.6  T
   7    -91.3235963 -0.850633E-08  0.664E-04    2.31      20.5  T
     SCC iter.                  ...        0 min,  0.026 sec
     gradient                   ...        0 min,  0.011 sec
 * total energy  :   -90.1731261 Eh     change       -0.1008951E-02 Eh
   gradient norm :     0.0112312 Eh/α   predicted    -0.7945720E-03 ( -21.25%)
   displ. norm   :     0.5093558 α      lambda       -0.1220308E-02
   maximum displ.:     0.1943630 α      in ANC's #4, #2, #8, ...

........................................................................
.............................. CYCLE    8 ..............................
........................................................................

 iter      E             dE          RMSdq      gap      omega  full diag
   1    -91.3290752 -0.913291E+02  0.111E-01    2.32       0.0  T
   2    -91.3290850 -0.984237E-05  0.617E-02    2.33       1.0  T
   3    -91.3290800  0.505802E-05  0.150E-02    2.33       1.0  T
   4    -91.3290868 -0.681665E-05  0.608E-03    2.33       2.2  T
   5    -91.3290873 -0.539891E-06  0.231E-03    2.33       5.9  T
   6    -91.3290873 -0.128886E-07  0.984E-04    2.33      13.8  T
   7    -91.3290873 -0.590893E-08  0.659E-04    2.33      20.7  T
     SCC iter.                  ...        0 min,  0.024 sec
     gradient                   ...        0 min,  0.011 sec
 * total energy  :   -90.1741010 Eh     change       -0.9749215E-03 Eh
   gradient norm :     0.0094122 Eh/α   predicted    -0.7684572E-03 ( -21.18%)
   displ. norm   :     0.5988504 α      lambda       -0.1225395E-02
   maximum displ.:     0.2430806 α      in ANC's #2, #4, #10, ...

........................................................................
.............................. CYCLE    9 ..............................
........................................................................

 iter      E             dE          RMSdq      gap      omega  full diag
   1    -91.3310751 -0.913311E+02  0.134E-01    2.34       0.0  T
   2    -91.3310835 -0.831149E-05  0.761E-02    2.35       1.0  T
   3    -91.3310778  0.560796E-05  0.190E-02    2.34       1.0  T
   4    -91.3310859 -0.804491E-05  0.523E-03    2.35       2.6  T
   5    -91.3310859 -0.222483E-07  0.220E-03    2.35       6.2  T
   6    -91.3310860 -0.407777E-07  0.764E-04    2.35      17.8  T
   7    -91.3310860 -0.711042E-08  0.459E-04    2.35      29.6  T
     SCC iter.                  ...        0 min,  0.031 sec
     gradient                   ...        0 min,  0.011 sec
 * total energy  :   -90.1751207 Eh     change       -0.1019739E-02 Eh
   gradient norm :     0.0114557 Eh/α   predicted    -0.8324255E-03 ( -18.37%)
   displ. norm   :     0.6529582 α      lambda       -0.1282743E-02
   maximum displ.:     0.2920528 α      in ANC's #2, #3, #4, ...

........................................................................
.............................. CYCLE   10 ..............................
........................................................................

 iter      E             dE          RMSdq      gap      omega  full diag
   1    -91.3324457 -0.913324E+02  0.151E-01    2.35       0.0  T
   2    -91.3324540 -0.834452E-05  0.848E-02    2.35       1.0  T
   3    -91.3324521  0.193731E-05  0.139E-02    2.35       1.0  T
   4    -91.3324560 -0.392755E-05  0.583E-03    2.35       2.3  T
   5    -91.3324562 -0.247735E-06  0.309E-03    2.35       4.4  T
   6    -91.3324563 -0.765973E-07  0.110E-03    2.35      12.4  T
   7    -91.3324563 -0.112992E-07  0.848E-04    2.35      16.0  T
   8    -91.3324563 -0.108361E-07  0.564E-04    2.35      24.1  T
     SCC iter.                  ...        0 min,  0.027 sec
     gradient                   ...        0 min,  0.010 sec
 * total energy  :   -90.1761626 Eh     change       -0.1041884E-02 Eh
   gradient norm :     0.0117009 Eh/α   predicted    -0.9148236E-03 ( -12.20%)
   displ. norm   :     0.6735029 α      lambda       -0.1145847E-02
   maximum displ.:     0.3166769 α      in ANC's #2, #3, #4, ...

........................................................................
.............................. CYCLE   11 ..............................
........................................................................

 iter      E             dE          RMSdq      gap      omega  full diag
   1    -91.3286017 -0.913286E+02  0.161E-01    2.35       0.0  T
   2    -91.3286076 -0.591456E-05  0.900E-02    2.35       1.0  T
   3    -91.3286068  0.862385E-06  0.123E-02    2.35       1.1  T
   4    -91.3286094 -0.269345E-05  0.617E-03    2.35       2.2  T
   5    -91.3286097 -0.268072E-06  0.283E-03    2.35       4.8  T
   6    -91.3286098 -0.968795E-07  0.168E-03    2.35       8.1  T
   7    -91.3286098 -0.240084E-07  0.105E-03    2.35      13.0  T
   8    -91.3286098 -0.164575E-07  0.567E-04    2.35      24.0  T
   9    -91.3286099 -0.655120E-08  0.317E-04    2.35      43.0  T
     SCC iter.                  ...        0 min,  0.034 sec
     gradient                   ...        0 min,  0.013 sec
 * total energy  :   -90.1770416 Eh     change       -0.8789964E-03 Eh
   gradient norm :     0.0125580 Eh/α   predicted    -0.8328075E-03 (  -5.25%)
   displ. norm   :     0.5783354 α      lambda       -0.1117864E-02
   maximum displ.:     0.3041489 α      in ANC's #2, #3, #7, ...

........................................................................
.............................. CYCLE   12 ..............................
........................................................................

 iter      E             dE          RMSdq      gap      omega  full diag
   1    -91.3317068 -0.913317E+02  0.129E-01    2.35       0.0  T
   2    -91.3317141 -0.726747E-05  0.734E-02    2.35       1.0  T
   3    -91.3317065  0.751848E-05  0.201E-02    2.35       1.0  T
   4    -91.3317169 -0.103940E-04  0.564E-03    2.35       2.4  T
   5    -91.3317171 -0.119939E-06  0.253E-03    2.35       5.4  T
   6    -91.3317171 -0.363595E-07  0.160E-03    2.35       8.5  T
   7    -91.3317171 -0.251840E-07  0.108E-03    2.35      12.6  T
   8    -91.3317171 -0.169391E-07  0.632E-04    2.35      21.5  T
   9    -91.3317171 -0.666762E-08  0.376E-04    2.35      36.2  T
     SCC iter.                  ...        0 min,  0.033 sec
     gradient                   ...        0 min,  0.011 sec
 * total energy  :   -90.1777743 Eh     change       -0.7326556E-03 Eh
   gradient norm :     0.0096626 Eh/α   predicted    -0.7458812E-03 (   1.81%)
   displ. norm   :     0.6274531 α      lambda       -0.8636493E-03
   maximum displ.:     0.3233064 α      in ANC's #2, #3, #7, ...

........................................................................
.............................. CYCLE   13 ..............................
........................................................................

 iter      E             dE          RMSdq      gap      omega  full diag
   1    -91.3273875 -0.913274E+02  0.159E-01    2.33       0.0  T
   2    -91.3273966 -0.912609E-05  0.884E-02    2.34       1.0  T
   3    -91.3273885  0.811140E-05  0.237E-02    2.36       1.0  T
   4    -91.3273998 -0.113531E-04  0.801E-03    2.35       1.7  T
   5    -91.3273999 -0.696717E-07  0.271E-03    2.35       5.0  T
   6    -91.3273999 -0.114565E-07  0.202E-03    2.35       6.7  T
   7    -91.3274000 -0.389296E-07  0.115E-03    2.35      11.8  T
   8    -91.3274000 -0.918671E-08  0.596E-04    2.35      22.8  T
   9    -91.3274000 -0.471232E-08  0.279E-04    2.35      48.8  T
     SCC iter.                  ...        0 min,  0.030 sec
     gradient                   ...        0 min,  0.012 sec
 * total energy  :   -90.1784230 Eh     change       -0.6487859E-03 Eh
   gradient norm :     0.0099445 Eh/α   predicted    -0.6018424E-03 (  -7.24%)
   displ. norm   :     0.5136712 α      lambda       -0.8320168E-03
   maximum displ.:     0.2903207 α      in ANC's #2, #3, #7, ...

........................................................................
.............................. CYCLE   14 ..............................
........................................................................

 iter      E             dE          RMSdq      gap      omega  full diag
   1    -91.3314256 -0.913314E+02  0.107E-01    2.36       0.0  T
   2    -91.3314324 -0.681759E-05  0.586E-02    2.36       1.0  T
   3    -91.3314285  0.393811E-05  0.162E-02    2.37       1.0  T
   4    -91.3314341 -0.556186E-05  0.547E-03    2.37       2.5  T
   5    -91.3314343 -0.256437E-06  0.261E-03    2.36       5.2  T
   6    -91.3314344 -0.369732E-07  0.908E-04    2.36      15.0  T
   7    -91.3314344 -0.755000E-08  0.648E-04    2.36      21.0  T
     SCC iter.                  ...        0 min,  0.031 sec
     gradient                   ...        0 min,  0.011 sec
 * total energy  :   -90.1790898 Eh     change       -0.6667943E-03 Eh
   gradient norm :     0.0104990 Eh/α   predicted    -0.5257760E-03 ( -21.15%)
   displ. norm   :     0.6018347 α      lambda       -0.9577618E-03
   maximum displ.:     0.3459354 α      in ANC's #2, #3, #7, ...

........................................................................
.............................. CYCLE   15 ..............................
........................................................................

 iter      E             dE          RMSdq      gap      omega  full diag
   1    -91.3354993 -0.913355E+02  0.110E-01    2.38       0.0  T
   2    -91.3355059 -0.655541E-05  0.616E-02    2.39       1.0  T
   3    -91.3355029  0.290469E-05  0.176E-02    2.39       1.0  T
   4    -91.3355076 -0.467017E-05  0.662E-03    2.39       2.1  T
   5    -91.3355077 -0.678806E-07  0.273E-03    2.39       5.0  T
   6    -91.3355077 -0.598143E-07  0.150E-03    2.39       9.1  T
   7    -91.3355078 -0.210135E-07  0.108E-03    2.39      12.6  T
   8    -91.3355078 -0.163424E-07  0.627E-04    2.39      21.7  T
   9    -91.3355078 -0.777290E-08  0.345E-04    2.39      39.5  T
     SCC iter.                  ...        0 min,  0.030 sec
     gradient                   ...        0 min,  0.011 sec
 * total energy  :   -90.1798313 Eh     change       -0.7414838E-03 Eh
   gradient norm :     0.0091926 Eh/α   predicted    -0.6523373E-03 ( -12.02%)
   displ. norm   :     0.7379835 α      lambda       -0.9697731E-03
   maximum displ.:     0.4439888 α      in ANC's #2, #3, #7, ...

........................................................................
.............................. CYCLE   16 ..............................
........................................................................

 iter      E             dE          RMSdq      gap      omega  full diag
   1    -91.3373136 -0.913373E+02  0.158E-01    2.40       0.0  T
   2    -91.3373201 -0.649066E-05  0.843E-02    2.41       1.0  T
   3    -91.3373208 -0.672721E-06  0.126E-02    2.41       1.1  T
   4    -91.3373209 -0.157052E-06  0.611E-03    2.41       2.2  T
   5    -91.3373212 -0.322626E-06  0.170E-03    2.41       8.0  T
   6    -91.3373213 -0.987592E-07  0.559E-04    2.41      24.3  T
   7    -91.3373213 -0.251345E-08  0.355E-04    2.41      38.3  T
     SCC iter.                  ...        0 min,  0.035 sec
     gradient                   ...        0 min,  0.012 sec
 * total energy  :   -90.1805917 Eh     change       -0.7603663E-03 Eh
   gradient norm :     0.0100046 Eh/α   predicted    -0.7489662E-03 (  -1.50%)
   displ. norm   :     0.6946826 α      lambda       -0.8317874E-03
   maximum displ.:     0.4238890 α      in ANC's #2, #3, #7, ...

........................................................................
.............................. CYCLE   17 ..............................
........................................................................

 iter      E             dE          RMSdq      gap      omega  full diag
   1    -91.3354956 -0.913355E+02  0.131E-01    2.43       0.0  T
   2    -91.3354999 -0.436907E-05  0.720E-02    2.44       1.0  T
   3    -91.3354996  0.371796E-06  0.122E-02    2.44       1.1  T
   4    -91.3355008 -0.119734E-05  0.561E-03    2.44       2.4  T
   5    -91.3355010 -0.244634E-06  0.195E-03    2.44       7.0  T
   6    -91.3355011 -0.818906E-07  0.868E-04    2.44      15.7  T
   7    -91.3355011 -0.648251E-08  0.665E-04    2.44      20.5  T
     SCC iter.                  ...        0 min,  0.024 sec
     gradient                   ...        0 min,  0.012 sec
 * total energy  :   -90.1812818 Eh     change       -0.6901119E-03 Eh
   gradient norm :     0.0078486 Eh/α   predicted    -0.6165981E-03 ( -10.65%)
   displ. norm   :     0.6883443 α      lambda       -0.7572285E-03
   maximum displ.:     0.4417119 α      in ANC's #2, #3, #1, ...

........................................................................
.............................. CYCLE   18 ..............................
........................................................................

 iter      E             dE          RMSdq      gap      omega  full diag
   1    -91.3385111 -0.913385E+02  0.124E-01    2.45       0.0  T
   2    -91.3385151 -0.403301E-05  0.686E-02    2.46       1.0  T
   3    -91.3385146  0.521655E-06  0.110E-02    2.46       1.2  T
   4    -91.3385158 -0.124410E-05  0.742E-03    2.46       1.8  T
   5    -91.3385164 -0.539179E-06  0.197E-03    2.46       6.9  T
   6    -91.3385164 -0.470445E-07  0.141E-03    2.46       9.6  T
   7    -91.3385164 -0.123466E-07  0.991E-04    2.46      13.7  T
   8    -91.3385164 -0.742017E-08  0.497E-04    2.46      27.4  T
     SCC iter.                  ...        0 min,  0.030 sec
     gradient                   ...        0 min,  0.013 sec
 * total energy  :   -90.1818968 Eh     change       -0.6149634E-03 Eh
   gradient norm :     0.0067812 Eh/α   predicted    -0.5580118E-03 (  -9.26%)
   displ. norm   :     0.7989174 α      lambda       -0.6936682E-03
   maximum displ.:     0.5126677 α      in ANC's #2, #3, #7, ...

........................................................................
.............................. CYCLE   19 ..............................
........................................................................

 iter      E             dE          RMSdq      gap      omega  full diag
   1    -91.3328577 -0.913329E+02  0.162E-01    2.47       0.0  T
   2    -91.3328625 -0.479197E-05  0.875E-02    2.47       1.0  T
   3    -91.3328620  0.487336E-06  0.145E-02    2.47       1.0  T
   4    -91.3328627 -0.649687E-06  0.740E-03    2.48       1.8  T
   5    -91.3328641 -0.148084E-05  0.205E-03    2.47       6.6  T
   6    -91.3328642 -0.322649E-07  0.118E-03    2.47      11.5  T
   7    -91.3328642 -0.139399E-07  0.760E-04    2.47      17.9  T
   8    -91.3328642 -0.767044E-08  0.476E-04    2.47      28.6  T
     SCC iter.                  ...        0 min,  0.030 sec
     gradient                   ...        0 min,  0.013 sec
 * total energy  :   -90.1824043 Eh     change       -0.5075413E-03 Eh
   gradient norm :     0.0089823 Eh/α   predicted    -0.5682123E-03 (  11.95%)
   displ. norm   :     0.6190465 α      lambda       -0.6503795E-03
   maximum displ.:     0.4273265 α      in ANC's #2, #1, #7, ...

........................................................................
.............................. CYCLE   20 ..............................
........................................................................

 iter      E             dE          RMSdq      gap      omega  full diag
   1    -91.3365727 -0.913366E+02  0.105E-01    2.48       0.0  T
   2    -91.3365756 -0.287246E-05  0.592E-02    2.49       1.0  T
   3    -91.3365748  0.791406E-06  0.103E-02    2.48       1.3  T
   4    -91.3365765 -0.168227E-05  0.613E-03    2.48       2.2  T
   5    -91.3365768 -0.346364E-06  0.262E-03    2.48       5.2  T
   6    -91.3365769 -0.485284E-07  0.164E-03    2.48       8.3  T
   7    -91.3365769 -0.768229E-08  0.923E-04    2.48      14.7  T
   8    -91.3365769 -0.939485E-08  0.358E-04    2.48      38.0  T
     SCC iter.                  ...        0 min,  0.027 sec
     gradient                   ...        0 min,  0.011 sec
 * total energy  :   -90.1828899 Eh     change       -0.4855598E-03 Eh
   gradient norm :     0.0072330 Eh/α   predicted    -0.4498090E-03 (  -7.36%)
   displ. norm   :     0.6682998 α      lambda       -0.5042580E-03
   maximum displ.:     0.4738974 α      in ANC's #2, #1, #7, ...
 * RMSD in coord.:     1.3034018 α      energy gain  -0.6590673E-01 Eh

generating ANC from exact Hessian ...
Using Lindh-Hessian (1995)
 Shifting diagonal of input Hessian by    9.8831239069821133E-003
 Lowest  eigenvalues of input Hessian
    0.000000    0.000000    0.000000    0.000000    0.000000    0.000000
    0.010000    0.010036    0.010386    0.010616    0.010790    0.010936
    0.011056    0.011334    0.011512    0.011889    0.012400    0.012599
 Highest eigenvalues
    1.981066    1.985476    2.030059    2.038179    2.058818    2.312717


........................................................................
.............................. CYCLE   21 ..............................
........................................................................

 iter      E             dE          RMSdq      gap      omega  full diag
   1    -91.3392259 -0.913392E+02  0.109E-01    2.49       0.0  T
   2    -91.3392290 -0.313221E-05  0.596E-02    2.50       1.0  T
   3    -91.3392277  0.133845E-05  0.123E-02    2.50       1.1  T
   4    -91.3392299 -0.218298E-05  0.537E-03    2.50       2.5  T
   5    -91.3392301 -0.224178E-06  0.120E-03    2.50      11.4  T
   6    -91.3392301 -0.171231E-07  0.681E-04    2.50      20.0  T
   7    -91.3392301 -0.514335E-08  0.447E-04    2.50      30.4  T
     SCC iter.                  ...        0 min,  0.023 sec
     gradient                   ...        0 min,  0.010 sec
 * total energy  :   -90.1833198 Eh     change       -0.4298877E-03 Eh
   gradient norm :     0.0064985 Eh/α   predicted     0.0000000E+00 (-100.00%)
   displ. norm   :     0.1088190 α      lambda       -0.2240200E-03
   maximum displ.:     0.0578759 α      in ANC's #2, #1, #8, ...

........................................................................
.............................. CYCLE   22 ..............................
........................................................................

 iter      E             dE          RMSdq      gap      omega  full diag
   1    -91.3404069 -0.913404E+02  0.380E-02    2.50       0.0  T
   2    -91.3404075 -0.547054E-06  0.210E-02    2.50       1.0  T
   3    -91.3404074  0.953663E-07  0.360E-03    2.50       3.8  T
   4    -91.3404076 -0.232857E-06  0.196E-03    2.50       6.9  T
   5    -91.3404076 -0.792686E-08  0.856E-04    2.50      15.9  T
   6    -91.3404076 -0.127138E-07  0.475E-04    2.50      28.7  T
     SCC iter.                  ...        0 min,  0.022 sec
     gradient                   ...        0 min,  0.011 sec
 * total energy  :   -90.1835019 Eh     change       -0.1821640E-03 Eh
   gradient norm :     0.0030536 Eh/α   predicted    -0.1139790E-03 ( -37.43%)
   displ. norm   :     0.2942873 α      lambda       -0.3806610E-03
   maximum displ.:     0.1565581 α      in ANC's #2, #1, #8, ...

........................................................................
.............................. CYCLE   23 ..............................
........................................................................

 iter      E             dE          RMSdq      gap      omega  full diag
   1    -91.3416064 -0.913416E+02  0.798E-02    2.51       0.0  T
   2    -91.3416082 -0.187451E-05  0.439E-02    2.52       1.0  T
   3    -91.3416078  0.438313E-06  0.796E-03    2.52       1.7  T
   4    -91.3416088 -0.101426E-05  0.430E-03    2.52       3.2  T
   5    -91.3416089 -0.902069E-07  0.189E-03    2.52       7.2  T
   6    -91.3416089 -0.350284E-07  0.118E-03    2.52      11.5  T
   7    -91.3416090 -0.145367E-07  0.769E-04    2.52      17.7  T
   8    -91.3416090 -0.966678E-08  0.452E-04    2.52      30.1  T
     SCC iter.                  ...        0 min,  0.029 sec
     gradient                   ...        0 min,  0.011 sec
 * total energy  :   -90.1837747 Eh     change       -0.2727853E-03 Eh
   gradient norm :     0.0038730 Eh/α   predicted    -0.2068212E-03 ( -24.18%)
   displ. norm   :     0.3176347 α      lambda       -0.2562865E-03
   maximum displ.:     0.1793410 α      in ANC's #2, #1, #8, ...

........................................................................
.............................. CYCLE   24 ..............................
........................................................................

 iter      E             dE          RMSdq      gap      omega  full diag
   1    -91.3415150 -0.913415E+02  0.655E-02    2.53       0.0  T
   2    -91.3415160 -0.100270E-05  0.365E-02    2.53       1.0  T
   3    -91.3415155  0.428654E-06  0.646E-03    2.53       2.1  T
   4    -91.3415164 -0.816823E-06  0.386E-03    2.53       3.5  T
   5    -91.3415164 -0.781561E-07  0.142E-03    2.53       9.6  T
   6    -91.3415165 -0.170811E-07  0.997E-04    2.53      13.6  T
   7    -91.3415165 -0.693322E-08  0.593E-04    2.53      22.9  T
     SCC iter.                  ...        0 min,  0.024 sec
     gradient                   ...        0 min,  0.012 sec
 * total energy  :   -90.1839885 Eh     change       -0.2138169E-03 Eh
   gradient norm :     0.0058094 Eh/α   predicted    -0.1410741E-03 ( -34.02%)
   displ. norm   :     0.4050751 α      lambda       -0.3179836E-03
   maximum displ.:     0.2311860 α      in ANC's #2, #1, #8, ...

........................................................................
.............................. CYCLE   25 ..............................
........................................................................

 iter      E             dE          RMSdq      gap      omega  full diag
   1    -91.3409416 -0.913409E+02  0.702E-02    2.55       0.0  T
   2    -91.3409428 -0.117419E-05  0.393E-02    2.55       1.0  T
   3    -91.3409424  0.390506E-06  0.699E-03    2.55       1.9  T
   4    -91.3409432 -0.775386E-06  0.465E-03    2.55       2.9  T
   5    -91.3409433 -0.182625E-06  0.161E-03    2.55       8.5  T
   6    -91.3409433 -0.141363E-07  0.116E-03    2.55      11.7  T
   7    -91.3409434 -0.639426E-08  0.604E-04    2.55      22.5  T
   8    -91.3409434 -0.480156E-08  0.241E-04    2.55      56.4  T
     SCC iter.                  ...        0 min,  0.034 sec
     gradient                   ...        0 min,  0.010 sec
 * total energy  :   -90.1842688 Eh     change       -0.2802417E-03 Eh
   gradient norm :     0.0055717 Eh/α   predicted    -0.1850823E-03 ( -33.96%)
   displ. norm   :     0.4977225 α      lambda       -0.3998601E-03
   maximum displ.:     0.2903141 α      in ANC's #2, #1, #3, ...

........................................................................
.............................. CYCLE   26 ..............................
........................................................................

 iter      E             dE          RMSdq      gap      omega  full diag
   1    -91.3403118 -0.913403E+02  0.788E-02    2.57       0.0  T
   2    -91.3403134 -0.162244E-05  0.438E-02    2.57       1.0  T
   3    -91.3403133  0.127949E-06  0.706E-03    2.57       1.9  T
   4    -91.3403137 -0.440036E-06  0.451E-03    2.57       3.0  T
   5    -91.3403140 -0.293972E-06  0.160E-03    2.57       8.5  T
   6    -91.3403140 -0.227760E-07  0.111E-03    2.57      12.3  T
   7    -91.3403141 -0.539458E-08  0.658E-04    2.57      20.7  T
   8    -91.3403141 -0.556885E-08  0.239E-04    2.57      57.0  T
     SCC iter.                  ...        0 min,  0.027 sec
     gradient                   ...        0 min,  0.012 sec
 * total energy  :   -90.1846148 Eh     change       -0.3460061E-03 Eh
   gradient norm :     0.0038222 Eh/α   predicted    -0.2494613E-03 ( -27.90%)
   displ. norm   :     0.5388028 α      lambda       -0.3927697E-03
   maximum displ.:     0.3215285 α      in ANC's #2, #1, #3, ...

........................................................................
.............................. CYCLE   27 ..............................
........................................................................

 iter      E             dE          RMSdq      gap      omega  full diag
   1    -91.3397943 -0.913398E+02  0.861E-02    2.59       0.0  T
   2    -91.3397960 -0.173198E-05  0.476E-02    2.59       1.0  T
   3    -91.3397959  0.107880E-06  0.767E-03    2.59       1.8  T
   4    -91.3397965 -0.590623E-06  0.374E-03    2.59       3.6  T
   5    -91.3397966 -0.106529E-06  0.131E-03    2.59      10.4  T
   6    -91.3397967 -0.180988E-07  0.739E-04    2.59      18.4  T
   7    -91.3397967 -0.246672E-08  0.523E-04    2.59      26.0  T
     SCC iter.                  ...        0 min,  0.026 sec
     gradient                   ...        0 min,  0.012 sec
 * total energy  :   -90.1849527 Eh     change       -0.3379364E-03 Eh
   gradient norm :     0.0034313 Eh/α   predicted    -0.2534067E-03 ( -25.01%)
   displ. norm   :     0.5414253 α      lambda       -0.3647212E-03
   maximum displ.:     0.3291144 α      in ANC's #2, #1, #3, ...

........................................................................
.............................. CYCLE   28 ..............................
........................................................................

 iter      E             dE          RMSdq      gap      omega  full diag
   1    -91.3396675 -0.913397E+02  0.886E-02    2.61       0.0  T
   2    -91.3396692 -0.170281E-05  0.493E-02    2.61       1.0  T
   3    -91.3396685  0.736490E-06  0.883E-03    2.61       1.5  T
   4    -91.3396699 -0.139456E-05  0.363E-03    2.61       3.7  T
   5    -91.3396699 -0.229147E-07  0.808E-04    2.61      16.8  T
   6    -91.3396699 -0.873872E-08  0.531E-04    2.61      25.7  T
     SCC iter.                  ...        0 min,  0.023 sec
     gradient                   ...        0 min,  0.013 sec
 * total energy  :   -90.1852750 Eh     change       -0.3222755E-03 Eh
   gradient norm :     0.0043866 Eh/α   predicted    -0.2358181E-03 ( -26.83%)
   displ. norm   :     0.5689565 α      lambda       -0.3812535E-03
   maximum displ.:     0.3509090 α      in ANC's #2, #1, #3, ...

........................................................................
.............................. CYCLE   29 ..............................
........................................................................

 iter      E             dE          RMSdq      gap      omega  full diag
   1    -91.3399092 -0.913399E+02  0.946E-02    2.62       0.0  T
   2    -91.3399110 -0.182825E-05  0.527E-02    2.62       1.0  T
   3    -91.3399103  0.735804E-06  0.864E-03    2.62       1.6  T
   4    -91.3399117 -0.143563E-05  0.390E-03    2.62       3.5  T
   5    -91.3399118 -0.590141E-07  0.933E-04    2.62      14.6  T
   6    -91.3399118 -0.729787E-08  0.720E-04    2.62      18.9  T
     SCC iter.                  ...        0 min,  0.021 sec
     gradient                   ...        0 min,  0.011 sec
 * total energy  :   -90.1856168 Eh     change       -0.3417707E-03 Eh
   gradient norm :     0.0048410 Eh/α   predicted    -0.2523351E-03 ( -26.17%)
   displ. norm   :     0.6094838 α      lambda       -0.4091848E-03
   maximum displ.:     0.3825856 α      in ANC's #2, #1, #3, ...

........................................................................
.............................. CYCLE   30 ..............................
........................................................................

 iter      E             dE          RMSdq      gap      omega  full diag
   1    -91.3406452 -0.913406E+02  0.102E-01    2.63       0.0  T
   2    -91.3406474 -0.211127E-05  0.567E-02    2.64       1.0  T
   3    -91.3406474 -0.891298E-08  0.716E-03    2.64       1.9  T
   4    -91.3406479 -0.528830E-06  0.445E-03    2.64       3.1  T
   5    -91.3406481 -0.190337E-06  0.116E-03    2.64      11.7  T
   6    -91.3406481 -0.894759E-08  0.822E-04    2.64      16.6  T
   7    -91.3406481 -0.354821E-08  0.548E-04    2.64      24.8  T
     SCC iter.                  ...        0 min,  0.030 sec
     gradient                   ...        0 min,  0.011 sec
 * total energy  :   -90.1859792 Eh     change       -0.3624945E-03 Eh
   gradient norm :     0.0043022 Eh/α   predicted    -0.2805933E-03 ( -22.59%)
   displ. norm   :     0.6329521 α      lambda       -0.3973798E-03
   maximum displ.:     0.4053750 α      in ANC's #2, #1, #3, ...

........................................................................
.............................. CYCLE   31 ..............................
........................................................................

 iter      E             dE          RMSdq      gap      omega  full diag
   1    -91.3413592 -0.913414E+02  0.105E-01    2.65       0.0  T
   2    -91.3413615 -0.237733E-05  0.583E-02    2.65       1.0  T
   3    -91.3413619 -0.373946E-06  0.693E-03    2.65       2.0  T
   4    -91.3413620 -0.116631E-06  0.365E-03    2.65       3.7  T
   5    -91.3413622 -0.164437E-06  0.125E-03    2.65      10.9  T
   6    -91.3413622 -0.279265E-07  0.648E-04    2.65      21.0  T
   7    -91.3413622 -0.227827E-08  0.430E-04    2.65      31.6  T
     SCC iter.                  ...        0 min,  0.025 sec
     gradient                   ...        0 min,  0.011 sec
 * total energy  :   -90.1863260 Eh     change       -0.3467426E-03 Eh
   gradient norm :     0.0032580 Eh/α   predicted    -0.2782910E-03 ( -19.74%)
   displ. norm   :     0.6193654 α      lambda       -0.3489543E-03
   maximum displ.:     0.4052318 α      in ANC's #2, #1, #3, ...

........................................................................
.............................. CYCLE   32 ..............................
........................................................................

 iter      E             dE          RMSdq      gap      omega  full diag
   1    -91.3426167 -0.913426E+02  0.103E-01    2.66       0.0  T
   2    -91.3426189 -0.225620E-05  0.568E-02    2.66       1.0  T
   3    -91.3426189  0.176016E-07  0.830E-03    2.66       1.6  T
   4    -91.3426194 -0.495329E-06  0.401E-03    2.66       3.4  T
   5    -91.3426196 -0.201373E-06  0.119E-03    2.66      11.5  T
   6    -91.3426196 -0.152125E-07  0.588E-04    2.66      23.2  T
   7    -91.3426196 -0.222262E-08  0.420E-04    2.66      32.4  T
     SCC iter.                  ...        0 min,  0.026 sec
     gradient                   ...        0 min,  0.012 sec
 * total energy  :   -90.1866343 Eh     change       -0.3082964E-03 Eh
   gradient norm :     0.0028599 Eh/α   predicted    -0.2414117E-03 ( -21.69%)
   displ. norm   :     0.6291467 α      lambda       -0.3322228E-03
   maximum displ.:     0.4176578 α      in ANC's #2, #1, #3, ...

........................................................................
.............................. CYCLE   33 ..............................
........................................................................

 iter      E             dE          RMSdq      gap      omega  full diag
   1    -91.3424057 -0.913424E+02  0.104E-01    2.67       0.0  T
   2    -91.3424079 -0.220592E-05  0.575E-02    2.67       1.0  T
   3    -91.3424078  0.193204E-06  0.849E-03    2.67       1.6  T
   4    -91.3424084 -0.644294E-06  0.416E-03    2.67       3.3  T
   5    -91.3424086 -0.240312E-06  0.144E-03    2.67       9.5  T
   6    -91.3424087 -0.199678E-07  0.617E-04    2.67      22.1  T
   7    -91.3424087 -0.295547E-08  0.427E-04    2.67      31.8  T
     SCC iter.                  ...        0 min,  0.029 sec
     gradient                   ...        0 min,  0.012 sec
 * total energy  :   -90.1869258 Eh     change       -0.2914672E-03 Eh
   gradient norm :     0.0037959 Eh/α   predicted    -0.2318658E-03 ( -20.45%)
   displ. norm   :     0.6280523 α      lambda       -0.3460278E-03
   maximum displ.:     0.4236376 α      in ANC's #2, #1, #7, ...

........................................................................
.............................. CYCLE   34 ..............................
........................................................................

 iter      E             dE          RMSdq      gap      omega  full diag
   1    -91.3449276 -0.913449E+02  0.106E-01    2.68       0.0  T
   2    -91.3449297 -0.211041E-05  0.585E-02    2.68       1.0  T
   3    -91.3449294  0.311074E-06  0.990E-03    2.68       1.4  T
   4    -91.3449304 -0.975084E-06  0.473E-03    2.68       2.9  T
   5    -91.3449305 -0.125629E-06  0.135E-03    2.68      10.1  T
   6    -91.3449305 -0.307346E-07  0.953E-04    2.68      14.3  T
   7    -91.3449305 -0.732680E-08  0.631E-04    2.68      21.6  T
     SCC iter.                  ...        0 min,  0.024 sec
     gradient                   ...        0 min,  0.012 sec
 * total energy  :   -90.1872166 Eh     change       -0.2908933E-03 Eh
   gradient norm :     0.0046328 Eh/α   predicted    -0.2412601E-03 ( -17.06%)
   displ. norm   :     0.6643129 α      lambda       -0.3486334E-03
   maximum displ.:     0.4525420 α      in ANC's #2, #1, #7, ...

........................................................................
.............................. CYCLE   35 ..............................
........................................................................

 iter      E             dE          RMSdq      gap      omega  full diag
   1    -91.3436180 -0.913436E+02  0.110E-01    2.68       0.0  T
   2    -91.3436199 -0.192071E-05  0.611E-02    2.69       1.0  T
   3    -91.3436198  0.105681E-06  0.853E-03    2.69       1.6  T
   4    -91.3436203 -0.503957E-06  0.442E-03    2.69       3.1  T
   5    -91.3436206 -0.310257E-06  0.132E-03    2.69      10.3  T
   6    -91.3436207 -0.155275E-07  0.696E-04    2.69      19.6  T
   7    -91.3436207 -0.398033E-08  0.476E-04    2.69      28.6  T
     SCC iter.                  ...        0 min,  0.033 sec
     gradient                   ...        0 min,  0.014 sec
 * total energy  :   -90.1875278 Eh     change       -0.3111880E-03 Eh
   gradient norm :     0.0044856 Eh/α   predicted    -0.2512513E-03 ( -19.26%)
   displ. norm   :     0.6416664 α      lambda       -0.3465211E-03
   maximum displ.:     0.4441659 α      in ANC's #2, #1, #7, ...

........................................................................
.............................. CYCLE   36 ..............................
........................................................................

 iter      E             dE          RMSdq      gap      omega  full diag
   1    -91.3438845 -0.913439E+02  0.106E-01    2.69       0.0  T
   2    -91.3438862 -0.171189E-05  0.593E-02    2.69       1.0  T
   3    -91.3438860  0.204673E-06  0.797E-03    2.69       1.7  T
   4    -91.3438867 -0.641108E-06  0.467E-03    2.69       2.9  T
   5    -91.3438870 -0.281248E-06  0.152E-03    2.69       9.0  T
   6    -91.3438870 -0.319583E-07  0.985E-04    2.69      13.8  T
   7    -91.3438870 -0.792703E-08  0.688E-04    2.69      19.8  T
     SCC iter.                  ...        0 min,  0.025 sec
     gradient                   ...        0 min,  0.011 sec
 * total energy  :   -90.1878364 Eh     change       -0.3085423E-03 Eh
   gradient norm :     0.0037273 Eh/α   predicted    -0.2445983E-03 ( -20.72%)
   displ. norm   :     0.6846340 α      lambda       -0.3626633E-03
   maximum displ.:     0.4774098 α      in ANC's #2, #1, #7, ...

........................................................................
.............................. CYCLE   37 ..............................
........................................................................

 iter      E             dE          RMSdq      gap      omega  full diag
   1    -91.3428530 -0.913429E+02  0.111E-01    2.69       0.0  T
   2    -91.3428548 -0.186215E-05  0.624E-02    2.70       1.0  T
   3    -91.3428552 -0.379894E-06  0.746E-03    2.70       1.8  T
   4    -91.3428552 -0.239087E-07  0.361E-03    2.70       3.8  T
   5    -91.3428555 -0.253276E-06  0.110E-03    2.70      12.4  T
   6    -91.3428555 -0.222593E-07  0.696E-04    2.70      19.5  T
   7    -91.3428555 -0.355438E-08  0.475E-04    2.70      28.6  T
     SCC iter.                  ...        0 min,  0.026 sec
     gradient                   ...        0 min,  0.013 sec
 * total energy  :   -90.1881520 Eh     change       -0.3155894E-03 Eh
   gradient norm :     0.0037224 Eh/α   predicted    -0.2663268E-03 ( -15.61%)
   displ. norm   :     0.6820499 α      lambda       -0.3570426E-03
   maximum displ.:     0.4797451 α      in ANC's #2, #1, #7, ...

........................................................................
.............................. CYCLE   38 ..............................
........................................................................

 iter      E             dE          RMSdq      gap      omega  full diag
   1    -91.3446125 -0.913446E+02  0.109E-01    2.69       0.0  T
   2    -91.3446149 -0.244645E-05  0.621E-02    2.70       1.0  T
   3    -91.3446137  0.119315E-05  0.100E-02    2.70       1.4  T
   4    -91.3446159 -0.211954E-05  0.567E-03    2.70       2.4  T
   5    -91.3446161 -0.251267E-06  0.209E-03    2.70       6.5  T
   6    -91.3446161 -0.259764E-07  0.159E-03    2.70       8.5  T
   7    -91.3446162 -0.181915E-07  0.938E-04    2.70      14.5  T
   8    -91.3446162 -0.121755E-07  0.403E-04    2.70      33.8  T
     SCC iter.                  ...        0 min,  0.030 sec
     gradient                   ...        0 min,  0.011 sec
 * total energy  :   -90.1884438 Eh     change       -0.2918703E-03 Eh
   gradient norm :     0.0039293 Eh/α   predicted    -0.2615720E-03 ( -10.38%)
   displ. norm   :     0.7380446 α      lambda       -0.3058952E-03
   maximum displ.:     0.5267415 α      in ANC's #2, #1, #7, ...

........................................................................
.............................. CYCLE   39 ..............................
........................................................................

 iter      E             dE          RMSdq      gap      omega  full diag
   1    -91.3414466 -0.913414E+02  0.118E-01    2.70       0.0  T
   2    -91.3414494 -0.283785E-05  0.664E-02    2.70       1.0  T
   3    -91.3414488  0.602223E-06  0.902E-03    2.70       1.5  T
   4    -91.3414500 -0.119957E-05  0.542E-03    2.70       2.5  T
   5    -91.3414504 -0.382965E-06  0.148E-03    2.70       9.2  T
   6    -91.3414504 -0.225401E-07  0.980E-04    2.70      13.9  T
   7    -91.3414504 -0.496112E-08  0.694E-04    2.70      19.6  T
     SCC iter.                  ...        0 min,  0.023 sec
     gradient                   ...        0 min,  0.012 sec
 * total energy  :   -90.1886806 Eh     change       -0.2367407E-03 Eh
   gradient norm :     0.0049342 Eh/α   predicted    -0.2362602E-03 (  -0.20%)
   displ. norm   :     0.5801690 α      lambda       -0.2396735E-03
   maximum displ.:     0.4235800 α      in ANC's #2, #1, #7, ...

........................................................................
.............................. CYCLE   40 ..............................
........................................................................

 iter      E             dE          RMSdq      gap      omega  full diag
   1    -91.3443592 -0.913444E+02  0.866E-02    2.71       0.0  T
   2    -91.3443610 -0.172523E-05  0.486E-02    2.71       1.0  T
   3    -91.3443611 -0.102834E-06  0.676E-03    2.71       2.0  T
   4    -91.3443613 -0.263123E-06  0.370E-03    2.71       3.7  T
   5    -91.3443615 -0.165295E-06  0.119E-03    2.71      11.5  T
   6    -91.3443615 -0.306474E-07  0.691E-04    2.71      19.7  T
   7    -91.3443615 -0.366877E-08  0.463E-04    2.71      29.4  T
     SCC iter.                  ...        0 min,  0.031 sec
     gradient                   ...        0 min,  0.012 sec
 * total energy  :   -90.1888537 Eh     change       -0.1731540E-03 Eh
   gradient norm :     0.0039163 Eh/α   predicted    -0.1601736E-03 (  -7.50%)
   displ. norm   :     0.6084533 α      lambda       -0.2025616E-03
   maximum displ.:     0.4522907 α      in ANC's #2, #1, #7, ...

........................................................................
.............................. CYCLE   41 ..............................
........................................................................

 iter      E             dE          RMSdq      gap      omega  full diag
   1    -91.3440871 -0.913441E+02  0.968E-02    2.71       0.0  T
   2    -91.3440894 -0.229732E-05  0.548E-02    2.72       1.0  T
   3    -91.3440870  0.243409E-05  0.109E-02    2.71       1.2  T
   4    -91.3440904 -0.344812E-05  0.535E-03    2.71       2.5  T
   5    -91.3440906 -0.190961E-06  0.220E-03    2.71       6.2  T
   6    -91.3440906 -0.144351E-07  0.158E-03    2.71       8.6  T
   7    -91.3440906 -0.117865E-07  0.911E-04    2.71      14.9  T
   8    -91.3440906 -0.814995E-08  0.258E-04    2.71      52.8  T
     SCC iter.                  ...        0 min,  0.027 sec
     gradient                   ...        0 min,  0.012 sec
 * total energy  :   -90.1890027 Eh     change       -0.1489360E-03 Eh
   gradient norm :     0.0039301 Eh/α   predicted    -0.1387818E-03 (  -6.82%)
   displ. norm   :     0.4085697 α      lambda       -0.1408195E-03
   maximum displ.:     0.3125459 α      in ANC's #2, #1, #6, ...

........................................................................
.............................. CYCLE   42 ..............................
........................................................................

 iter      E             dE          RMSdq      gap      omega  full diag
   1    -91.3452889 -0.913453E+02  0.598E-02    2.73       0.0  T
   2    -91.3452897 -0.779824E-06  0.330E-02    2.73       1.0  T
   3    -91.3452897 -0.490024E-07  0.461E-03    2.73       3.0  T
   4    -91.3452898 -0.736671E-07  0.246E-03    2.73       5.5  T
   5    -91.3452899 -0.952661E-07  0.737E-04    2.73      18.5  T
   6    -91.3452899 -0.118020E-07  0.334E-04    2.73      40.8  T
     SCC iter.                  ...        0 min,  0.024 sec
     gradient                   ...        0 min,  0.014 sec
 * total energy  :   -90.1891217 Eh     change       -0.1190248E-03 Eh
   gradient norm :     0.0032686 Eh/α   predicted    -0.8216683E-04 ( -30.97%)
   displ. norm   :     0.4212669 α      lambda       -0.1619950E-03
   maximum displ.:     0.3197819 α      in ANC's #2, #1, #6, ...
 * RMSD in coord.:     1.4903364 α      energy gain  -0.6231824E-02 Eh

generating ANC from exact Hessian ...
Using Lindh-Hessian (1995)
 Shifting diagonal of input Hessian by    9.8984411066135921E-003
 Lowest  eigenvalues of input Hessian
    0.000000    0.000000    0.000000    0.000000    0.000000    0.000000
    0.010000    0.010068    0.010335    0.010578    0.010772    0.010991
    0.011228    0.011338    0.011733    0.012201    0.012317    0.012774
 Highest eigenvalues
    1.982847    1.986941    2.032271    2.040380    2.061658    2.311682


........................................................................
.............................. CYCLE   43 ..............................
........................................................................

 iter      E             dE          RMSdq      gap      omega  full diag
   1    -91.3466438 -0.913466E+02  0.612E-02    2.73       0.0  T
   2    -91.3466452 -0.136390E-05  0.338E-02    2.74       1.0  T
   3    -91.3466439  0.132199E-05  0.781E-03    2.74       1.7  T
   4    -91.3466457 -0.181038E-05  0.305E-03    2.74       4.5  T
   5    -91.3466457 -0.417244E-07  0.986E-04    2.74      13.8  T
   6    -91.3466457 -0.159223E-07  0.423E-04    2.74      32.2  T
     SCC iter.                  ...        0 min,  0.021 sec
     gradient                   ...        0 min,  0.011 sec
 * total energy  :   -90.1892494 Eh     change       -0.1276839E-03 Eh
   gradient norm :     0.0037555 Eh/α   predicted     0.0000000E+00 (-100.00%)
   displ. norm   :     0.0518756 α      lambda       -0.5467788E-04
   maximum displ.:     0.0271058 α      in ANC's #2, #10, #8, ...

........................................................................
.............................. CYCLE   44 ..............................
........................................................................

 iter      E             dE          RMSdq      gap      omega  full diag
   1    -91.3458449 -0.913458E+02  0.189E-02    2.73       0.0  T
   2    -91.3458451 -0.121291E-06  0.103E-02    2.73       1.3  T
   3    -91.3458450  0.102399E-06  0.223E-03    2.73       6.1  T
   4    -91.3458451 -0.150324E-06  0.987E-04    2.73      13.8  T
   5    -91.3458451 -0.520008E-08  0.421E-04    2.73      32.4  T
     SCC iter.                  ...        0 min,  0.019 sec
     gradient                   ...        0 min,  0.012 sec
 * total energy  :   -90.1892938 Eh     change       -0.4442019E-04 Eh
   gradient norm :     0.0017354 Eh/α   predicted    -0.2786107E-04 ( -37.28%)
   displ. norm   :     0.2156315 α      lambda       -0.9124145E-04
   maximum displ.:     0.1121964 α      in ANC's #2, #8, #10, ...

........................................................................
.............................. CYCLE   45 ..............................
........................................................................

 iter      E             dE          RMSdq      gap      omega  full diag
   1    -91.3440811 -0.913441E+02  0.601E-02    2.73       0.0  T
   2    -91.3440820 -0.973482E-06  0.337E-02    2.73       1.0  T
   3    -91.3440815  0.579719E-06  0.675E-03    2.72       2.0  T
   4    -91.3440824 -0.930484E-06  0.291E-03    2.73       4.7  T
   5    -91.3440824 -0.521401E-07  0.138E-03    2.73       9.9  T
   6    -91.3440825 -0.205146E-07  0.895E-04    2.73      15.2  T
   7    -91.3440825 -0.900771E-08  0.602E-04    2.73      22.6  T
     SCC iter.                  ...        0 min,  0.025 sec
     gradient                   ...        0 min,  0.013 sec
 * total energy  :   -90.1893682 Eh     change       -0.7444611E-04 Eh
   gradient norm :     0.0042479 Eh/α   predicted    -0.4656464E-04 ( -37.45%)
   displ. norm   :     0.0886480 α      lambda       -0.4235379E-04
   maximum displ.:     0.0501155 α      in ANC's #2, #8, #9, ...

........................................................................
.............................. CYCLE   46 ..............................
........................................................................

 iter      E             dE          RMSdq      gap      omega  full diag
   1    -91.3445574 -0.913446E+02  0.213E-02    2.73       0.0  T
   2    -91.3445575 -0.804424E-07  0.125E-02    2.73       1.1  T
   3    -91.3445573  0.212504E-06  0.238E-03    2.73       5.7  T
   4    -91.3445575 -0.261332E-06  0.529E-04    2.73      25.7  T
   5    -91.3445575 -0.130493E-08  0.300E-04    2.73      45.4  T
     SCC iter.                  ...        0 min,  0.018 sec
     gradient                   ...        0 min,  0.011 sec
 * total energy  :   -90.1894068 Eh     change       -0.3859598E-04 Eh
   gradient norm :     0.0036710 Eh/α   predicted    -0.2134400E-04 ( -44.70%)
   displ. norm   :     0.2705098 α      lambda       -0.1253277E-03
   maximum displ.:     0.1504263 α      in ANC's #2, #8, #4, ...

........................................................................
.............................. CYCLE   47 ..............................
........................................................................

 iter      E             dE          RMSdq      gap      omega  full diag
   1    -91.3456717 -0.913457E+02  0.657E-02    2.73       0.0  T
   2    -91.3456724 -0.713744E-06  0.385E-02    2.73       1.0  T
   3    -91.3456703  0.208735E-05  0.748E-03    2.73       1.8  T
   4    -91.3456729 -0.253396E-05  0.146E-03    2.73       9.3  T
   5    -91.3456729 -0.657117E-08  0.622E-04    2.73      21.9  T
   6    -91.3456729 -0.367133E-08  0.351E-04    2.73      38.8  T
     SCC iter.                  ...        0 min,  0.026 sec
     gradient                   ...        0 min,  0.012 sec
 * total energy  :   -90.1895009 Eh     change       -0.9408335E-04 Eh
   gradient norm :     0.0019640 Eh/α   predicted    -0.6725224E-04 ( -28.52%)
   displ. norm   :     0.4088274 α      lambda       -0.7600608E-04
   maximum displ.:     0.2375846 α      in ANC's #2, #4, #8, ...

........................................................................
.............................. CYCLE   48 ..............................
........................................................................

 iter      E             dE          RMSdq      gap      omega  full diag
   1    -91.3454154 -0.913454E+02  0.992E-02    2.74       0.0  T
   2    -91.3454166 -0.122698E-05  0.580E-02    2.74       1.0  T
   3    -91.3454141  0.253734E-05  0.841E-03    2.74       1.6  T
   4    -91.3454173 -0.322582E-05  0.216E-03    2.74       6.3  T
   5    -91.3454173 -0.188904E-07  0.915E-04    2.74      14.9  T
   6    -91.3454173 -0.879015E-08  0.517E-04    2.74      26.3  T
     SCC iter.                  ...        0 min,  0.020 sec
     gradient                   ...        0 min,  0.011 sec
 * total energy  :   -90.1895732 Eh     change       -0.7226734E-04 Eh
   gradient norm :     0.0029540 Eh/α   predicted    -0.4082679E-04 ( -43.51%)
   displ. norm   :     0.1179863 α      lambda       -0.3716722E-04
   maximum displ.:     0.0770656 α      in ANC's #2, #6, #4, ...

........................................................................
.............................. CYCLE   49 ..............................
........................................................................

 iter      E             dE          RMSdq      gap      omega  full diag
   1    -91.3460675 -0.913461E+02  0.291E-02    2.74       0.0  T
   2    -91.3460676 -0.997846E-07  0.168E-02    2.74       1.0  T
   3    -91.3460676  0.547610E-08  0.243E-03    2.74       5.6  T
   4    -91.3460677 -0.543078E-07  0.126E-03    2.74      10.8  T
   5    -91.3460677  0.674206E-09  0.561E-04    2.74      24.2  T
   6    -91.3460677 -0.377175E-08  0.351E-04    2.74      38.8  T
     SCC iter.                  ...        0 min,  0.022 sec
     gradient                   ...        0 min,  0.011 sec
 * total energy  :   -90.1896065 Eh     change       -0.3329867E-04 Eh
   gradient norm :     0.0021359 Eh/α   predicted    -0.1884595E-04 ( -43.40%)
   displ. norm   :     0.1752747 α      lambda       -0.6752605E-04
   maximum displ.:     0.1155942 α      in ANC's #2, #6, #4, ...

........................................................................
.............................. CYCLE   50 ..............................
........................................................................

 iter      E             dE          RMSdq      gap      omega  full diag
   1    -91.3467016 -0.913467E+02  0.417E-02    2.73       0.0  T
   2    -91.3467019 -0.297830E-06  0.242E-02    2.74       1.0  T
   3    -91.3467017  0.202856E-06  0.433E-03    2.74       3.1  T
   4    -91.3467020 -0.349963E-06  0.204E-03    2.74       6.7  T
   5    -91.3467020  0.827971E-08  0.106E-03    2.74      12.8  T
   6    -91.3467021 -0.175668E-07  0.529E-04    2.74      25.7  T
   7    -91.3467021 -0.145886E-08  0.234E-04    2.74      58.1  T
     SCC iter.                  ...        0 min,  0.031 sec
     gradient                   ...        0 min,  0.012 sec
 * total energy  :   -90.1896635 Eh     change       -0.5696433E-04 Eh
   gradient norm :     0.0015319 Eh/α   predicted    -0.3480014E-04 ( -38.91%)
   displ. norm   :     0.3716819 α      lambda       -0.7681755E-04
   maximum displ.:     0.2448977 α      in ANC's #2, #6, #4, ...

........................................................................
.............................. CYCLE   51 ..............................
........................................................................

 iter      E             dE          RMSdq      gap      omega  full diag
   1    -91.3457466 -0.913457E+02  0.864E-02    2.73       0.0  T
   2    -91.3457478 -0.114524E-05  0.500E-02    2.73       1.0  T
   3    -91.3457473  0.494609E-06  0.731E-03    2.73       1.9  T
   4    -91.3457483 -0.105990E-05  0.394E-03    2.73       3.5  T
   5    -91.3457484 -0.348200E-07  0.173E-03    2.73       7.9  T
   6    -91.3457484 -0.300717E-07  0.101E-03    2.73      13.4  T
   7    -91.3457484 -0.586795E-08  0.516E-04    2.73      26.4  T
   8    -91.3457484 -0.248001E-08  0.207E-04    2.73      65.9  T
     SCC iter.                  ...        0 min,  0.028 sec
     gradient                   ...        0 min,  0.011 sec
 * total energy  :   -90.1897484 Eh     change       -0.8494399E-04 Eh
   gradient norm :     0.0034587 Eh/α   predicted    -0.4076861E-04 ( -52.01%)
   displ. norm   :     0.1860866 α      lambda       -0.4977033E-04
   maximum displ.:     0.1263901 α      in ANC's #2, #6, #4, ...

........................................................................
.............................. CYCLE   52 ..............................
........................................................................

 iter      E             dE          RMSdq      gap      omega  full diag
   1    -91.3454724 -0.913455E+02  0.402E-02    2.73       0.0  T
   2    -91.3454727 -0.289963E-06  0.235E-02    2.73       1.0  T
   3    -91.3454727 -0.384431E-07  0.277E-03    2.73       4.9  T
   4    -91.3454728 -0.830434E-07  0.185E-03    2.73       7.4  T
   5    -91.3454728 -0.267674E-08  0.979E-04    2.73      13.9  T
   6    -91.3454728 -0.846012E-08  0.515E-04    2.73      26.4  T
     SCC iter.                  ...        0 min,  0.026 sec
     gradient                   ...        0 min,  0.013 sec
 * total energy  :   -90.1897937 Eh     change       -0.4531875E-04 Eh
   gradient norm :     0.0032045 Eh/α   predicted    -0.2575158E-04 ( -43.18%)
   displ. norm   :     0.2410589 α      lambda       -0.7201819E-04
   maximum displ.:     0.1648399 α      in ANC's #2, #6, #4, ...

........................................................................
.............................. CYCLE   53 ..............................
........................................................................

 iter      E             dE          RMSdq      gap      omega  full diag
   1    -91.3453373 -0.913453E+02  0.500E-02    2.73       0.0  T
   2    -91.3453378 -0.549952E-06  0.293E-02    2.73       1.0  T
   3    -91.3453376  0.258225E-06  0.416E-03    2.73       3.3  T
   4    -91.3453381 -0.487895E-06  0.240E-03    2.73       5.7  T
   5    -91.3453381 -0.234059E-07  0.137E-03    2.73      10.0  T
   6    -91.3453381 -0.567925E-08  0.688E-04    2.73      19.8  T
   7    -91.3453381 -0.273521E-08  0.359E-04    2.73      37.9  T
     SCC iter.                  ...        0 min,  0.024 sec
     gradient                   ...        0 min,  0.011 sec
 * total energy  :   -90.1898561 Eh     change       -0.6238525E-04 Eh
   gradient norm :     0.0018643 Eh/α   predicted    -0.3810195E-04 ( -38.92%)
   displ. norm   :     0.4136028 α      lambda       -0.6996476E-04
   maximum displ.:     0.2888057 α      in ANC's #2, #6, #4, ...

........................................................................
.............................. CYCLE   54 ..............................
........................................................................

 iter      E             dE          RMSdq      gap      omega  full diag
   1    -91.3447308 -0.913447E+02  0.833E-02    2.73       0.0  T
   2    -91.3447326 -0.172507E-05  0.488E-02    2.74       1.0  T
   3    -91.3447314  0.116061E-05  0.765E-03    2.74       1.8  T
   4    -91.3447333 -0.186111E-05  0.410E-03    2.74       3.3  T
   5    -91.3447333 -0.680252E-07  0.237E-03    2.74       5.7  T
   6    -91.3447333 -0.182187E-07  0.116E-03    2.74      11.7  T
   7    -91.3447333 -0.768280E-08  0.627E-04    2.74      21.7  T
   8    -91.3447333 -0.332368E-08  0.269E-04    2.74      50.5  T
     SCC iter.                  ...        0 min,  0.029 sec
     gradient                   ...        0 min,  0.013 sec
 * total energy  :   -90.1899335 Eh     change       -0.7740648E-04 Eh
   gradient norm :     0.0015779 Eh/α   predicted    -0.3764584E-04 ( -51.37%)
   displ. norm   :     0.2314105 α      lambda       -0.3131099E-04
   maximum displ.:     0.1708434 α      in ANC's #2, #4, #6, ...

........................................................................
.............................. CYCLE   55 ..............................
........................................................................

 iter      E             dE          RMSdq      gap      omega  full diag
   1    -91.3454172 -0.913454E+02  0.436E-02    2.74       0.0  T
   2    -91.3454176 -0.378845E-06  0.256E-02    2.74       1.0  T
   3    -91.3454175  0.101610E-06  0.333E-03    2.74       4.1  T
   4    -91.3454178 -0.259540E-06  0.200E-03    2.74       6.8  T
   5    -91.3454178 -0.173541E-07  0.108E-03    2.74      12.6  T
   6    -91.3454178 -0.590070E-08  0.632E-04    2.74      21.5  T
   7    -91.3454178 -0.242397E-08  0.294E-04    2.74      46.3  T
     SCC iter.                  ...        0 min,  0.030 sec
     gradient                   ...        0 min,  0.011 sec
 * total energy  :   -90.1899743 Eh     change       -0.4077853E-04 Eh
   gradient norm :     0.0017759 Eh/α   predicted    -0.1603231E-04 ( -60.68%)
   displ. norm   :     0.1873955 α      lambda       -0.3065548E-04
   maximum displ.:     0.1398217 α      in ANC's #2, #4, #6, ...

........................................................................
.............................. CYCLE   56 ..............................
........................................................................

 iter      E             dE          RMSdq      gap      omega  full diag
   1    -91.3459297 -0.913459E+02  0.347E-02    2.74       0.0  T
   2    -91.3459299 -0.193416E-06  0.201E-02    2.74       1.0  T
   3    -91.3459299  0.567924E-07  0.246E-03    2.74       5.5  T
   4    -91.3459300 -0.121459E-06  0.159E-03    2.74       8.5  T
   5    -91.3459300 -0.282240E-07  0.654E-04    2.74      20.8  T
   6    -91.3459300 -0.216430E-08  0.412E-04    2.74      33.0  T
     SCC iter.                  ...        0 min,  0.021 sec
     gradient                   ...        0 min,  0.011 sec
 * total energy  :   -90.1900157 Eh     change       -0.4137082E-04 Eh
   gradient norm :     0.0014779 Eh/α   predicted    -0.1556779E-04 ( -62.37%)
   displ. norm   :     0.2159876 α      lambda       -0.4053361E-04
   maximum displ.:     0.1617259 α      in ANC's #2, #4, #10, ...

........................................................................
.............................. CYCLE   57 ..............................
........................................................................

 iter      E             dE          RMSdq      gap      omega  full diag
   1    -91.3469839 -0.913470E+02  0.374E-02    2.74       0.0  T
   2    -91.3469842 -0.284161E-06  0.215E-02    2.74       1.0  T
   3    -91.3469840  0.164523E-06  0.438E-03    2.74       3.1  T
   4    -91.3469843 -0.298068E-06  0.193E-03    2.74       7.1  T
   5    -91.3469843 -0.724198E-08  0.808E-04    2.74      16.8  T
   6    -91.3469843 -0.480391E-08  0.559E-04    2.74      24.4  T
     SCC iter.                  ...        0 min,  0.023 sec
     gradient                   ...        0 min,  0.012 sec
 * total energy  :   -90.1900665 Eh     change       -0.5082103E-04 Eh
   gradient norm :     0.0016373 Eh/α   predicted    -0.2069084E-04 ( -59.29%)
   displ. norm   :     0.2674229 α      lambda       -0.4630489E-04
   maximum displ.:     0.1956433 α      in ANC's #2, #4, #10, ...

........................................................................
.............................. CYCLE   58 ..............................
........................................................................

 iter      E             dE          RMSdq      gap      omega  full diag
   1    -91.3463358 -0.913463E+02  0.475E-02    2.74       0.0  T
   2    -91.3463364 -0.516922E-06  0.274E-02    2.74       1.0  T
   3    -91.3463363  0.746302E-07  0.331E-03    2.74       4.1  T
   4    -91.3463365 -0.189530E-06  0.170E-03    2.74       8.0  T
   5    -91.3463365 -0.413319E-07  0.995E-04    2.74      13.7  T
   6    -91.3463365 -0.378509E-08  0.479E-04    2.74      28.4  T
     SCC iter.                  ...        0 min,  0.021 sec
     gradient                   ...        0 min,  0.011 sec
 * total energy  :   -90.1901247 Eh     change       -0.5821740E-04 Eh
   gradient norm :     0.0014909 Eh/α   predicted    -0.2388921E-04 ( -58.97%)
   displ. norm   :     0.2832484 α      lambda       -0.4802711E-04
   maximum displ.:     0.2102968 α      in ANC's #2, #4, #1, ...

........................................................................
.............................. CYCLE   59 ..............................
........................................................................

 iter      E             dE          RMSdq      gap      omega  full diag
   1    -91.3463389 -0.913463E+02  0.467E-02    2.74       0.0  T
   2    -91.3463393 -0.420026E-06  0.272E-02    2.74       1.0  T
   3    -91.3463394 -0.759006E-07  0.332E-03    2.74       4.1  T
   4    -91.3463395 -0.776630E-07  0.192E-03    2.74       7.1  T
   5    -91.3463395 -0.990180E-08  0.977E-04    2.74      13.9  T
   6    -91.3463395 -0.104653E-07  0.604E-04    2.74      22.5  T
     SCC iter.                  ...        0 min,  0.022 sec
     gradient                   ...        0 min,  0.011 sec
 * total energy  :   -90.1901906 Eh     change       -0.6593657E-04 Eh
   gradient norm :     0.0016829 Eh/α   predicted    -0.2487329E-04 ( -62.28%)
   displ. norm   :     0.3253200 α      lambda       -0.5867432E-04
   maximum displ.:     0.2407182 α      in ANC's #2, #4, #3, ...

........................................................................
.............................. CYCLE   60 ..............................
........................................................................

 iter      E             dE          RMSdq      gap      omega  full diag
   1    -91.3464995 -0.913465E+02  0.531E-02    2.74       0.0  T
   2    -91.3465001 -0.601324E-06  0.309E-02    2.74       1.0  T
   3    -91.3465001 -0.943396E-08  0.337E-03    2.74       4.0  T
   4    -91.3465003 -0.186747E-06  0.206E-03    2.74       6.6  T
   5    -91.3465003 -0.343207E-07  0.113E-03    2.74      12.1  T
   6    -91.3465003 -0.992698E-08  0.666E-04    2.74      20.4  T
   7    -91.3465003 -0.272517E-08  0.398E-04    2.74      34.2  T
     SCC iter.                  ...        0 min,  0.030 sec
     gradient                   ...        0 min,  0.012 sec
 * total energy  :   -90.1902764 Eh     change       -0.8577659E-04 Eh
   gradient norm :     0.0019255 Eh/α   predicted    -0.3071733E-04 ( -64.19%)
   displ. norm   :     0.4575659 α      lambda       -0.9108615E-04
   maximum displ.:     0.3367414 α      in ANC's #2, #4, #3, ...

........................................................................
.............................. CYCLE   61 ..............................
........................................................................

 iter      E             dE          RMSdq      gap      omega  full diag
   1    -91.3463362 -0.913463E+02  0.747E-02    2.74       0.0  T
   2    -91.3463376 -0.140009E-05  0.432E-02    2.75       1.0  T
   3    -91.3463373  0.249614E-06  0.549E-03    2.75       2.5  T
   4    -91.3463380 -0.686691E-06  0.279E-03    2.75       4.9  T
   5    -91.3463380 -0.600219E-07  0.148E-03    2.75       9.2  T
   6    -91.3463381 -0.159906E-07  0.895E-04    2.75      15.2  T
   7    -91.3463381 -0.501950E-08  0.545E-04    2.75      25.0  T
     SCC iter.                  ...        0 min,  0.025 sec
     gradient                   ...        0 min,  0.011 sec
 * total energy  :   -90.1904066 Eh     change       -0.1302148E-03 Eh
   gradient norm :     0.0023116 Eh/α   predicted    -0.4978174E-04 ( -61.77%)
   displ. norm   :     0.3743405 α      lambda       -0.1139706E-03
   maximum displ.:     0.2762649 α      in ANC's #2, #4, #3, ...

........................................................................
.............................. CYCLE   62 ..............................
........................................................................

 iter      E             dE          RMSdq      gap      omega  full diag
   1    -91.3460522 -0.913461E+02  0.621E-02    2.75       0.0  T
   2    -91.3460533 -0.113462E-05  0.356E-02    2.75       1.0  T
   3    -91.3460530  0.271230E-06  0.519E-03    2.76       2.6  T
   4    -91.3460536 -0.582545E-06  0.238E-03    2.76       5.7  T
   5    -91.3460537 -0.426699E-07  0.117E-03    2.76      11.7  T
   6    -91.3460537 -0.123479E-07  0.717E-04    2.76      19.0  T
   7    -91.3460537 -0.347201E-08  0.458E-04    2.76      29.7  T
     SCC iter.                  ...        0 min,  0.028 sec
     gradient                   ...        0 min,  0.012 sec
 * total energy  :   -90.1905150 Eh     change       -0.1083525E-03 Eh
   gradient norm :     0.0022975 Eh/α   predicted    -0.6497139E-04 ( -40.04%)
   displ. norm   :     0.4278963 α      lambda       -0.1308380E-03
   maximum displ.:     0.3163125 α      in ANC's #2, #4, #3, ...

........................................................................
.............................. CYCLE   63 ..............................
........................................................................

 iter      E             dE          RMSdq      gap      omega  full diag
   1    -91.3459392 -0.913459E+02  0.714E-02    2.76       0.0  T
   2    -91.3459407 -0.145203E-05  0.405E-02    2.76       1.0  T
   3    -91.3459403  0.405678E-06  0.626E-03    2.76       2.2  T
   4    -91.3459411 -0.807207E-06  0.287E-03    2.76       4.7  T
   5    -91.3459411 -0.737258E-07  0.122E-03    2.76      11.1  T
   6    -91.3459412 -0.162396E-07  0.752E-04    2.76      18.1  T
   7    -91.3459412 -0.470153E-08  0.507E-04    2.76      26.8  T
     SCC iter.                  ...        0 min,  0.029 sec
     gradient                   ...        0 min,  0.012 sec
 * total energy  :   -90.1906377 Eh     change       -0.1227372E-03 Eh
   gradient norm :     0.0024387 Eh/α   predicted    -0.7740163E-04 ( -36.94%)
   displ. norm   :     0.4396113 α      lambda       -0.1311097E-03
   maximum displ.:     0.3273605 α      in ANC's #2, #4, #3, ...

........................................................................
.............................. CYCLE   64 ..............................
........................................................................

 iter      E             dE          RMSdq      gap      omega  full diag
   1    -91.3456569 -0.913457E+02  0.750E-02    2.77       0.0  T
   2    -91.3456586 -0.173694E-05  0.422E-02    2.77       1.0  T
   3    -91.3456582  0.431936E-06  0.683E-03    2.77       2.0  T
   4    -91.3456591 -0.864720E-06  0.317E-03    2.77       4.3  T
   5    -91.3456592 -0.837552E-07  0.129E-03    2.77      10.6  T
   6    -91.3456592 -0.235566E-07  0.763E-04    2.77      17.8  T
   7    -91.3456592 -0.555517E-08  0.540E-04    2.77      25.2  T
     SCC iter.                  ...        0 min,  0.024 sec
     gradient                   ...        0 min,  0.013 sec
 * total energy  :   -90.1907573 Eh     change       -0.1196254E-03 Eh
   gradient norm :     0.0023837 Eh/α   predicted    -0.7822660E-04 ( -34.61%)
   displ. norm   :     0.3871735 α      lambda       -0.1107552E-03
   maximum displ.:     0.2904361 α      in ANC's #2, #4, #3, ...

........................................................................
.............................. CYCLE   65 ..............................
........................................................................

 iter      E             dE          RMSdq      gap      omega  full diag
   1    -91.3458635 -0.913459E+02  0.673E-02    2.77       0.0  T
   2    -91.3458648 -0.134028E-05  0.374E-02    2.78       1.0  T
   3    -91.3458646  0.260022E-06  0.604E-03    2.78       2.3  T
   4    -91.3458652 -0.594703E-06  0.313E-03    2.78       4.4  T
   5    -91.3458652 -0.858471E-07  0.123E-03    2.78      11.0  T
   6    -91.3458653 -0.251832E-07  0.795E-04    2.78      17.1  T
   7    -91.3458653 -0.665864E-08  0.571E-04    2.78      23.9  T
     SCC iter.                  ...        0 min,  0.033 sec
     gradient                   ...        0 min,  0.012 sec
 * total energy  :   -90.1908559 Eh     change       -0.9854448E-04 Eh
   gradient norm :     0.0021647 Eh/α   predicted    -0.6368124E-04 ( -35.38%)
   displ. norm   :     0.3198655 α      lambda       -0.8834674E-04
   maximum displ.:     0.2408000 α      in ANC's #2, #4, #3, ...

........................................................................
.............................. CYCLE   66 ..............................
........................................................................

 iter      E             dE          RMSdq      gap      omega  full diag
   1    -91.3461471 -0.913461E+02  0.578E-02    2.78       0.0  T
   2    -91.3461482 -0.105508E-05  0.319E-02    2.78       1.0  T
   3    -91.3461480  0.186399E-06  0.542E-03    2.79       2.5  T
   4    -91.3461485 -0.461134E-06  0.302E-03    2.79       4.5  T
   5    -91.3461485 -0.555014E-07  0.129E-03    2.79      10.5  T
   6    -91.3461486 -0.325436E-07  0.842E-04    2.79      16.2  T
   7    -91.3461486 -0.730989E-08  0.581E-04    2.79      23.4  T
     SCC iter.                  ...        0 min,  0.025 sec
     gradient                   ...        0 min,  0.012 sec
 * total energy  :   -90.1909343 Eh     change       -0.7841214E-04 Eh
   gradient norm :     0.0018093 Eh/α   predicted    -0.4869367E-04 ( -37.90%)
   displ. norm   :     0.4141540 α      lambda       -0.7882891E-04
   maximum displ.:     0.3069880 α      in ANC's #2, #3, #6, ...
 * RMSD in coord.:     0.8055232 α      energy gain  -0.1812602E-02 Eh

generating ANC from exact Hessian ...
Using Lindh-Hessian (1995)
 Shifting diagonal of input Hessian by    9.9485754040327824E-003
 Lowest  eigenvalues of input Hessian
    0.000000    0.000000    0.000000    0.000000    0.000000    0.000000
    0.010000    0.010240    0.010326    0.010661    0.010865    0.010938
    0.011170    0.011384    0.011991    0.012133    0.012516    0.012857
 Highest eigenvalues
    1.981179    1.986673    2.031609    2.040848    2.051197    2.302871


........................................................................
.............................. CYCLE   67 ..............................
........................................................................

 iter      E             dE          RMSdq      gap      omega  full diag
   1    -91.3466922 -0.913467E+02  0.791E-02    2.79       0.0  T
   2    -91.3466942 -0.207416E-05  0.432E-02    2.79       1.0  T
   3    -91.3466937  0.497871E-06  0.810E-03    2.80       1.7  T
   4    -91.3466949 -0.111429E-05  0.490E-03    2.79       2.8  T
   5    -91.3466950 -0.117376E-06  0.218E-03    2.79       6.2  T
   6    -91.3466950 -0.719631E-07  0.141E-03    2.80       9.7  T
   7    -91.3466951 -0.179555E-07  0.893E-04    2.80      15.2  T
   8    -91.3466951 -0.134535E-07  0.434E-04    2.80      31.3  T
     SCC iter.                  ...        0 min,  0.027 sec
     gradient                   ...        0 min,  0.011 sec
 * total energy  :   -90.1910349 Eh     change       -0.1005842E-03 Eh
   gradient norm :     0.0017390 Eh/α   predicted     0.0000000E+00 (-100.00%)
   displ. norm   :     0.0628122 α      lambda       -0.2424176E-04
   maximum displ.:     0.0405999 α      in ANC's #2, #11, #8, ...

........................................................................
.............................. CYCLE   68 ..............................
........................................................................

 iter      E             dE          RMSdq      gap      omega  full diag
   1    -91.3461799 -0.913462E+02  0.157E-02    2.79       0.0  T
   2    -91.3461802 -0.231634E-06  0.850E-03    2.79       1.6  T
   3    -91.3461801  0.771293E-07  0.250E-03    2.79       5.4  T
   4    -91.3461802 -0.114952E-06  0.106E-03    2.79      12.8  T
   5    -91.3461802 -0.168293E-07  0.454E-04    2.79      30.0  T
   6    -91.3461802 -0.104461E-08  0.247E-04    2.79      55.0  T
     SCC iter.                  ...        0 min,  0.020 sec
     gradient                   ...        0 min,  0.012 sec
 * total energy  :   -90.1910660 Eh     change       -0.3115111E-04 Eh
   gradient norm :     0.0007610 Eh/α   predicted    -0.1228661E-04 ( -60.56%)
   displ. norm   :     0.2049025 α      lambda       -0.5982586E-04
   maximum displ.:     0.1193720 α      in ANC's #2, #11, #8, ...

........................................................................
.............................. CYCLE   69 ..............................
........................................................................

 iter      E             dE          RMSdq      gap      omega  full diag
   1    -91.3454523 -0.913455E+02  0.476E-02    2.79       0.0  T
   2    -91.3454539 -0.161344E-05  0.262E-02    2.79       1.0  T
   3    -91.3454531  0.840534E-06  0.746E-03    2.79       1.8  T
   4    -91.3454543 -0.123439E-05  0.314E-03    2.79       4.3  T
   5    -91.3454544 -0.826347E-07  0.156E-03    2.79       8.7  T
   6    -91.3454544 -0.967984E-08  0.936E-04    2.79      14.5  T
   7    -91.3454544 -0.432037E-08  0.506E-04    2.79      26.9  T
     SCC iter.                  ...        0 min,  0.030 sec
     gradient                   ...        0 min,  0.011 sec
 * total energy  :   -90.1911349 Eh     change       -0.6882127E-04 Eh
   gradient norm :     0.0021799 Eh/α   predicted    -0.3047931E-04 ( -55.71%)
   displ. norm   :     0.1773529 α      lambda       -0.5547441E-04
   maximum displ.:     0.1051425 α      in ANC's #2, #8, #11, ...

........................................................................
.............................. CYCLE   70 ..............................
........................................................................

 iter      E             dE          RMSdq      gap      omega  full diag
   1    -91.3455007 -0.913455E+02  0.409E-02    2.79       0.0  T
   2    -91.3455015 -0.815409E-06  0.219E-02    2.79       1.0  T
   3    -91.3455012  0.264912E-06  0.525E-03    2.79       2.6  T
   4    -91.3455017 -0.442793E-06  0.264E-03    2.79       5.2  T
   5    -91.3455017 -0.557306E-07  0.132E-03    2.79      10.3  T
   6    -91.3455018 -0.958154E-08  0.769E-04    2.79      17.7  T
   7    -91.3455018 -0.327657E-08  0.341E-04    2.79      39.9  T
     SCC iter.                  ...        0 min,  0.024 sec
     gradient                   ...        0 min,  0.011 sec
 * total energy  :   -90.1911807 Eh     change       -0.4588923E-04 Eh
   gradient norm :     0.0023431 Eh/α   predicted    -0.2860984E-04 ( -37.65%)
   displ. norm   :     0.2237711 α      lambda       -0.5985629E-04
   maximum displ.:     0.1346306 α      in ANC's #2, #8, #1, ...

........................................................................
.............................. CYCLE   71 ..............................
........................................................................

 iter      E             dE          RMSdq      gap      omega  full diag
   1    -91.3455728 -0.913456E+02  0.480E-02    2.79       0.0  T
   2    -91.3455735 -0.763435E-06  0.266E-02    2.79       1.0  T
   3    -91.3455734  0.168638E-06  0.535E-03    2.79       2.5  T
   4    -91.3455738 -0.379254E-06  0.298E-03    2.79       4.6  T
   5    -91.3455738 -0.368194E-07  0.158E-03    2.79       8.6  T
   6    -91.3455738 -0.195938E-07  0.920E-04    2.79      14.8  T
   7    -91.3455738 -0.446515E-08  0.368E-04    2.79      37.0  T
     SCC iter.                  ...        0 min,  0.025 sec
     gradient                   ...        0 min,  0.012 sec
 * total energy  :   -90.1912311 Eh     change       -0.5031499E-04 Eh
   gradient norm :     0.0022447 Eh/α   predicted    -0.3142826E-04 ( -37.54%)
   displ. norm   :     0.2452367 α      lambda       -0.6422016E-04
   maximum displ.:     0.1511247 α      in ANC's #2, #1, #8, ...

........................................................................
.............................. CYCLE   72 ..............................
........................................................................

 iter      E             dE          RMSdq      gap      omega  full diag
   1    -91.3459040 -0.913459E+02  0.501E-02    2.80       0.0  T
   2    -91.3459045 -0.591523E-06  0.278E-02    2.79       1.0  T
   3    -91.3459046 -0.845415E-08  0.470E-03    2.79       2.9  T
   4    -91.3459047 -0.163846E-06  0.273E-03    2.79       5.0  T
   5    -91.3459047 -0.220651E-07  0.129E-03    2.79      10.5  T
   6    -91.3459048 -0.249745E-07  0.830E-04    2.79      16.4  T
   7    -91.3459048 -0.424680E-08  0.355E-04    2.80      38.4  T
     SCC iter.                  ...        0 min,  0.027 sec
     gradient                   ...        0 min,  0.012 sec
 * total energy  :   -90.1912875 Eh     change       -0.5647492E-04 Eh
   gradient norm :     0.0018099 Eh/α   predicted    -0.3404223E-04 ( -39.72%)
   displ. norm   :     0.4613136 α      lambda       -0.8350812E-04
   maximum displ.:     0.2894062 α      in ANC's #2, #1, #8, ...

........................................................................
.............................. CYCLE   73 ..............................
........................................................................

 iter      E             dE          RMSdq      gap      omega  full diag
   1    -91.3461421 -0.913461E+02  0.887E-02    2.80       0.0  T
   2    -91.3461437 -0.160679E-05  0.497E-02    2.80       1.0  T
   3    -91.3461439 -0.186783E-06  0.815E-03    2.80       1.7  T
   4    -91.3461443 -0.353288E-06  0.456E-03    2.80       3.0  T
   5    -91.3461443 -0.249304E-07  0.197E-03    2.80       6.9  T
   6    -91.3461444 -0.745422E-07  0.130E-03    2.80      10.5  T
   7    -91.3461444 -0.112004E-07  0.612E-04    2.80      22.2  T
   8    -91.3461444 -0.565367E-08  0.269E-04    2.80      50.6  T
     SCC iter.                  ...        0 min,  0.027 sec
     gradient                   ...        0 min,  0.012 sec
 * total energy  :   -90.1913898 Eh     change       -0.1022789E-03 Eh
   gradient norm :     0.0022213 Eh/α   predicted    -0.4570800E-04 ( -55.31%)
   displ. norm   :     0.2809508 α      lambda       -0.7974886E-04
   maximum displ.:     0.1831420 α      in ANC's #2, #1, #6, ...

........................................................................
.............................. CYCLE   74 ..............................
........................................................................

 iter      E             dE          RMSdq      gap      omega  full diag
   1    -91.3468165 -0.913468E+02  0.497E-02    2.80       0.0  T
   2    -91.3468170 -0.481786E-06  0.278E-02    2.80       1.0  T
   3    -91.3468170  0.275036E-07  0.406E-03    2.80       3.3  T
   4    -91.3468171 -0.166612E-06  0.222E-03    2.80       6.1  T
   5    -91.3468172 -0.436771E-07  0.739E-04    2.80      18.4  T
   6    -91.3468172 -0.787536E-08  0.530E-04    2.80      25.7  T
     SCC iter.                  ...        0 min,  0.028 sec
     gradient                   ...        0 min,  0.011 sec
 * total energy  :   -90.1914588 Eh     change       -0.6895345E-04 Eh
   gradient norm :     0.0020255 Eh/α   predicted    -0.4302485E-04 ( -37.60%)
   displ. norm   :     0.3838670 α      lambda       -0.9643969E-04
   maximum displ.:     0.2467019 α      in ANC's #2, #1, #5, ...

........................................................................
.............................. CYCLE   75 ..............................
........................................................................

 iter      E             dE          RMSdq      gap      omega  full diag
   1    -91.3463549 -0.913464E+02  0.671E-02    2.80       0.0  T
   2    -91.3463559 -0.105298E-05  0.379E-02    2.80       1.0  T
   3    -91.3463558  0.174940E-06  0.685E-03    2.80       2.0  T
   4    -91.3463563 -0.563344E-06  0.358E-03    2.80       3.8  T
   5    -91.3463563  0.126939E-07  0.150E-03    2.80       9.1  T
   6    -91.3463564 -0.557143E-07  0.862E-04    2.80      15.8  T
   7    -91.3463564 -0.514764E-08  0.478E-04    2.80      28.4  T
     SCC iter.                  ...        0 min,  0.024 sec
     gradient                   ...        0 min,  0.012 sec
 * total energy  :   -90.1915417 Eh     change       -0.8295754E-04 Eh
   gradient norm :     0.0023566 Eh/α   predicted    -0.5532827E-04 ( -33.31%)
   displ. norm   :     0.4221534 α      lambda       -0.1122838E-03
   maximum displ.:     0.2777856 α      in ANC's #2, #1, #4, ...

........................................................................
.............................. CYCLE   76 ..............................
........................................................................

 iter      E             dE          RMSdq      gap      omega  full diag
   1    -91.3466744 -0.913467E+02  0.672E-02    2.80       0.0  T
   2    -91.3466755 -0.107910E-05  0.378E-02    2.80       1.0  T
   3    -91.3466752  0.292473E-06  0.570E-03    2.80       2.4  T
   4    -91.3466758 -0.621428E-06  0.303E-03    2.80       4.5  T
   5    -91.3466759 -0.825274E-07  0.109E-03    2.80      12.4  T
   6    -91.3466759 -0.196694E-07  0.674E-04    2.80      20.2  T
   7    -91.3466759 -0.366728E-08  0.483E-04    2.80      28.2  T
     SCC iter.                  ...        0 min,  0.026 sec
     gradient                   ...        0 min,  0.014 sec
 * total energy  :   -90.1916333 Eh     change       -0.9153539E-04 Eh
   gradient norm :     0.0018785 Eh/α   predicted    -0.6614753E-04 ( -27.74%)
   displ. norm   :     0.6339549 α      lambda       -0.8840755E-04
   maximum displ.:     0.4164698 α      in ANC's #2, #1, #4, ...

........................................................................
.............................. CYCLE   77 ..............................
........................................................................

 iter      E             dE          RMSdq      gap      omega  full diag
   1    -91.3448632 -0.913449E+02  0.990E-02    2.80       0.0  T
   2    -91.3448657 -0.254715E-05  0.559E-02    2.79       1.0  T
   3    -91.3448651  0.659982E-06  0.918E-03    2.79       1.5  T
   4    -91.3448666 -0.150438E-05  0.478E-03    2.80       2.8  T
   5    -91.3448666 -0.446370E-07  0.226E-03    2.80       6.0  T
   6    -91.3448667 -0.104405E-06  0.117E-03    2.80      11.6  T
   7    -91.3448667 -0.103842E-07  0.762E-04    2.80      17.9  T
   8    -91.3448667 -0.103158E-07  0.320E-04    2.80      42.5  T
     SCC iter.                  ...        0 min,  0.030 sec
     gradient                   ...        0 min,  0.011 sec
 * total energy  :   -90.1917187 Eh     change       -0.8546324E-04 Eh
   gradient norm :     0.0032232 Eh/α   predicted    -0.5210439E-04 ( -39.03%)
   displ. norm   :     0.2206243 α      lambda       -0.8077693E-04
   maximum displ.:     0.1454805 α      in ANC's #2, #1, #4, ...

........................................................................
.............................. CYCLE   78 ..............................
........................................................................

 iter      E             dE          RMSdq      gap      omega  full diag
   1    -91.3472888 -0.913473E+02  0.318E-02    2.80       0.0  T
   2    -91.3472894 -0.556118E-06  0.176E-02    2.80       1.0  T
   3    -91.3472893  0.973580E-07  0.583E-03    2.80       2.3  T
   4    -91.3472896 -0.306764E-06  0.201E-03    2.80       6.8  T
   5    -91.3472896 -0.461338E-08  0.140E-03    2.80       9.7  T
   6    -91.3472896 -0.185328E-07  0.712E-04    2.80      19.1  T
   7    -91.3472896 -0.278834E-08  0.396E-04    2.80      34.4  T
     SCC iter.                  ...        0 min,  0.024 sec
     gradient                   ...        0 min,  0.012 sec
 * total energy  :   -90.1917632 Eh     change       -0.4448714E-04 Eh
   gradient norm :     0.0021310 Eh/α   predicted    -0.4235427E-04 (  -4.79%)
   displ. norm   :     0.1743002 α      lambda       -0.3999308E-04
   maximum displ.:     0.1137776 α      in ANC's #2, #1, #4, ...

........................................................................
.............................. CYCLE   79 ..............................
........................................................................

 iter      E             dE          RMSdq      gap      omega  full diag
   1    -91.3474933 -0.913475E+02  0.253E-02    2.80       0.0  T
   2    -91.3474935 -0.174310E-06  0.142E-02    2.80       1.0  T
   3    -91.3474934  0.122995E-06  0.308E-03    2.80       4.4  T
   4    -91.3474936 -0.209462E-06  0.137E-03    2.80       9.9  T
   5    -91.3474936 -0.725097E-08  0.590E-04    2.80      23.1  T
   6    -91.3474936 -0.292101E-08  0.457E-04    2.80      29.7  T
     SCC iter.                  ...        0 min,  0.028 sec
     gradient                   ...        0 min,  0.013 sec
 * total energy  :   -90.1917969 Eh     change       -0.3370232E-04 Eh
   gradient norm :     0.0017405 Eh/α   predicted    -0.2060436E-04 ( -38.86%)
   displ. norm   :     0.4193993 α      lambda       -0.6916076E-04
   maximum displ.:     0.2596529 α      in ANC's #2, #1, #4, ...

........................................................................
.............................. CYCLE   80 ..............................
........................................................................

 iter      E             dE          RMSdq      gap      omega  full diag
   1    -91.3472847 -0.913473E+02  0.617E-02    2.80       0.0  T
   2    -91.3472859 -0.117458E-05  0.346E-02    2.80       1.0  T
   3    -91.3472853  0.588862E-06  0.741E-03    2.80       1.8  T
   4    -91.3472864 -0.106199E-05  0.317E-03    2.80       4.3  T
   5    -91.3472865 -0.118101E-06  0.193E-03    2.80       7.1  T
   6    -91.3472865 -0.324124E-07  0.121E-03    2.80      11.2  T
   7    -91.3472866 -0.186846E-07  0.657E-04    2.80      20.7  T
   8    -91.3472866 -0.104733E-07  0.325E-04    2.80      41.9  T
     SCC iter.                  ...        0 min,  0.026 sec
     gradient                   ...        0 min,  0.011 sec
 * total energy  :   -90.1918487 Eh     change       -0.5178047E-04 Eh
   gradient norm :     0.0024583 Eh/α   predicted    -0.3728843E-04 ( -27.99%)
   displ. norm   :     0.0543469 α      lambda       -0.2179633E-04
   maximum displ.:     0.0219954 α      in ANC's #3, #9, #8, ...

........................................................................
.............................. CYCLE   81 ..............................
........................................................................

 iter      E             dE          RMSdq      gap      omega  full diag
   1    -91.3475868 -0.913476E+02  0.130E-02    2.80       0.0  T
   2    -91.3475869 -0.108018E-06  0.742E-03    2.80       1.8  T
   3    -91.3475869  0.205486E-08  0.210E-03    2.80       6.5  T
   4    -91.3475869 -0.251089E-07  0.811E-04    2.80      16.8  T
   5    -91.3475869  0.928381E-09  0.486E-04    2.80      28.0  T
     SCC iter.                  ...        0 min,  0.020 sec
     gradient                   ...        0 min,  0.012 sec
 * total energy  :   -90.1918648 Eh     change       -0.1615138E-04 Eh
   gradient norm :     0.0013569 Eh/α   predicted    -0.1093227E-04 ( -32.31%)
   displ. norm   :     0.1305255 α      lambda       -0.2384147E-04
   maximum displ.:     0.0568222 α      in ANC's #3, #8, #9, ...

........................................................................
.............................. CYCLE   82 ..............................
........................................................................

 iter      E             dE          RMSdq      gap      omega  full diag
   1    -91.3477230 -0.913477E+02  0.331E-02    2.79       0.0  T
   2    -91.3477233 -0.331050E-06  0.193E-02    2.80       1.0  T
   3    -91.3477232  0.114611E-06  0.341E-03    2.79       4.0  T
   4    -91.3477234 -0.239096E-06  0.227E-03    2.80       6.0  T
   5    -91.3477235 -0.454169E-07  0.118E-03    2.79      11.6  T
   6    -91.3477235 -0.885741E-08  0.736E-04    2.79      18.5  T
   7    -91.3477235 -0.535665E-08  0.431E-04    2.79      31.6  T
     SCC iter.                  ...        0 min,  0.029 sec
     gradient                   ...        0 min,  0.011 sec
 * total energy  :   -90.1918851 Eh     change       -0.2028406E-04 Eh
   gradient norm :     0.0019929 Eh/α   predicted    -0.1201504E-04 ( -40.77%)
   displ. norm   :     0.0684987 α      lambda       -0.1031181E-04
   maximum displ.:     0.0323510 α      in ANC's #3, #1, #9, ...

........................................................................
.............................. CYCLE   83 ..............................
........................................................................

 iter      E             dE          RMSdq      gap      omega  full diag
   1    -91.3472857 -0.913473E+02  0.163E-02    2.79       0.0  T
   2    -91.3472858 -0.853397E-07  0.932E-03    2.79       1.5  T
   3    -91.3472858  0.185563E-07  0.155E-03    2.79       8.8  T
   4    -91.3472858 -0.439709E-07  0.940E-04    2.79      14.5  T
   5    -91.3472858 -0.974299E-08  0.512E-04    2.79      26.6  T
     SCC iter.                  ...        0 min,  0.017 sec
     gradient                   ...        0 min,  0.012 sec
 * total energy  :   -90.1918973 Eh     change       -0.1218702E-04 Eh
   gradient norm :     0.0015054 Eh/α   predicted    -0.5169193E-05 ( -57.58%)
   displ. norm   :     0.1188718 α      lambda       -0.1575978E-04
   maximum displ.:     0.0622176 α      in ANC's #1, #3, #8, ...

........................................................................
.............................. CYCLE   84 ..............................
........................................................................

 iter      E             dE          RMSdq      gap      omega  full diag
   1    -91.3472685 -0.913473E+02  0.272E-02    2.80       0.0  T
   2    -91.3472688 -0.298884E-06  0.154E-02    2.80       1.0  T
   3    -91.3472688  0.250176E-07  0.277E-03    2.80       4.9  T
   4    -91.3472689 -0.945108E-07  0.160E-03    2.80       8.5  T
   5    -91.3472689 -0.181510E-07  0.810E-04    2.80      16.8  T
   6    -91.3472689 -0.504708E-08  0.479E-04    2.80      28.4  T
     SCC iter.                  ...        0 min,  0.025 sec
     gradient                   ...        0 min,  0.013 sec
 * total energy  :   -90.1919123 Eh     change       -0.1495540E-04 Eh
   gradient norm :     0.0010274 Eh/α   predicted    -0.7933752E-05 ( -46.95%)
   displ. norm   :     0.1015813 α      lambda       -0.7288444E-05
   maximum displ.:     0.0666256 α      in ANC's #1, #3, #2, ...

........................................................................
.............................. CYCLE   85 ..............................
........................................................................

 iter      E             dE          RMSdq      gap      omega  full diag
   1    -91.3470902 -0.913471E+02  0.178E-02    2.80       0.0  T
   2    -91.3470903 -0.147213E-06  0.103E-02    2.80       1.3  T
   3    -91.3470903  0.690616E-07  0.277E-03    2.80       4.9  T
   4    -91.3470904 -0.114016E-06  0.962E-04    2.80      14.1  T
   5    -91.3470904  0.324705E-08  0.692E-04    2.80      19.7  T
     SCC iter.                  ...        0 min,  0.018 sec
     gradient                   ...        0 min,  0.011 sec
 * total energy  :   -90.1919198 Eh     change       -0.7502859E-05 Eh
   gradient norm :     0.0006975 Eh/α   predicted    -0.3661282E-05 ( -51.20%)
   displ. norm   :     0.0645132 α      lambda       -0.4480503E-05
   maximum displ.:     0.0460686 α      in ANC's #1, #3, #2, ...

........................................................................
.............................. CYCLE   86 ..............................
........................................................................

 iter      E             dE          RMSdq      gap      omega  full diag
   1    -91.3473666 -0.913474E+02  0.105E-02    2.80       0.0  T
   2    -91.3473667 -0.342873E-07  0.600E-03    2.80       2.3  T
   3    -91.3473667  0.113847E-07  0.108E-03    2.80      12.6  T
   4    -91.3473667 -0.258856E-07  0.540E-04    2.80      25.2  T
   5    -91.3473667 -0.225478E-08  0.311E-04    2.80      43.8  T
     SCC iter.                  ...        0 min,  0.017 sec
     gradient                   ...        0 min,  0.012 sec
 * total energy  :   -90.1919254 Eh     change       -0.5674965E-05 Eh
   gradient norm :     0.0005265 Eh/α   predicted    -0.2247715E-05 ( -60.39%)
   displ. norm   :     0.0697101 α      lambda       -0.5849799E-05
   maximum displ.:     0.0508295 α      in ANC's #1, #3, #2, ...

........................................................................
.............................. CYCLE   87 ..............................
........................................................................

 iter      E             dE          RMSdq      gap      omega  full diag
   1    -91.3477325 -0.913477E+02  0.119E-02    2.80       0.0  T
   2    -91.3477325 -0.418058E-07  0.681E-03    2.80       2.0  T
   3    -91.3477325  0.245407E-07  0.165E-03    2.80       8.3  T
   4    -91.3477325 -0.462190E-07  0.665E-04    2.80      20.5  T
   5    -91.3477325 -0.373646E-09  0.399E-04    2.80      34.1  T
     SCC iter.                  ...        0 min,  0.020 sec
     gradient                   ...        0 min,  0.012 sec
 * total energy  :   -90.1919328 Eh     change       -0.7335856E-05 Eh
   gradient norm :     0.0007532 Eh/α   predicted    -0.2934112E-05 ( -60.00%)
   displ. norm   :     0.0969373 α      lambda       -0.8104445E-05
   maximum displ.:     0.0690286 α      in ANC's #1, #3, #7, ...

........................................................................
.............................. CYCLE   88 ..............................
........................................................................

 iter      E             dE          RMSdq      gap      omega  full diag
   1    -91.3477128 -0.913477E+02  0.188E-02    2.80       0.0  T
   2    -91.3477128 -0.552994E-07  0.108E-02    2.80       1.3  T
   3    -91.3477128 -0.115085E-07  0.121E-03    2.80      11.3  T
   4    -91.3477128 -0.845493E-08  0.707E-04    2.80      19.2  T
   5    -91.3477128 -0.760500E-08  0.324E-04    2.80      42.0  T
     SCC iter.                  ...        0 min,  0.019 sec
     gradient                   ...        0 min,  0.011 sec
 * total energy  :   -90.1919429 Eh     change       -0.1013885E-04 Eh
   gradient norm :     0.0011379 Eh/α   predicted    -0.4071458E-05 ( -59.84%)
   displ. norm   :     0.1255517 α      lambda       -0.9498159E-05
   maximum displ.:     0.0823874 α      in ANC's #1, #3, #7, ...

........................................................................
.............................. CYCLE   89 ..............................
........................................................................

 iter      E             dE          RMSdq      gap      omega  full diag
   1    -91.3476047 -0.913476E+02  0.253E-02    2.80       0.0  T
   2    -91.3476048 -0.923606E-07  0.145E-02    2.80       1.0  T
   3    -91.3476049 -0.280796E-07  0.153E-03    2.80       8.9  T
   4    -91.3476049 -0.649794E-08  0.772E-04    2.80      17.6  T
   5    -91.3476049 -0.321191E-08  0.314E-04    2.80      43.4  T
     SCC iter.                  ...        0 min,  0.017 sec
     gradient                   ...        0 min,  0.012 sec
 * total energy  :   -90.1919551 Eh     change       -0.1220198E-04 Eh
   gradient norm :     0.0010110 Eh/α   predicted    -0.4785977E-05 ( -60.78%)
   displ. norm   :     0.1638832 α      lambda       -0.1118029E-04
   maximum displ.:     0.1025329 α      in ANC's #1, #3, #7, ...

........................................................................
.............................. CYCLE   90 ..............................
........................................................................

 iter      E             dE          RMSdq      gap      omega  full diag
   1    -91.3474253 -0.913474E+02  0.338E-02    2.80       0.0  T
   2    -91.3474255 -0.159308E-06  0.194E-02    2.80       1.0  T
   3    -91.3474255 -0.203162E-07  0.220E-03    2.80       6.2  T
   4    -91.3474255 -0.234248E-07  0.114E-03    2.80      11.9  T
   5    -91.3474255 -0.252190E-07  0.480E-04    2.80      28.3  T
   6    -91.3474255 -0.163219E-08  0.282E-04    2.80      48.3  T
     SCC iter.                  ...        0 min,  0.026 sec
     gradient                   ...        0 min,  0.012 sec
 * total energy  :   -90.1919687 Eh     change       -0.1356176E-04 Eh
   gradient norm :     0.0007553 Eh/α   predicted    -0.5661848E-05 ( -58.25%)
   displ. norm   :     0.1580441 α      lambda       -0.8777110E-05
   maximum displ.:     0.1009279 α      in ANC's #1, #3, #7, ...

........................................................................
.............................. CYCLE   91 ..............................
........................................................................

 iter      E             dE          RMSdq      gap      omega  full diag
   1    -91.3469718 -0.913470E+02  0.315E-02    2.80       0.0  T
   2    -91.3469719 -0.163694E-06  0.181E-02    2.80       1.0  T
   3    -91.3469719  0.202246E-07  0.228E-03    2.80       6.0  T
   4    -91.3469720 -0.809701E-07  0.128E-03    2.80      10.7  T
   5    -91.3469720 -0.168456E-07  0.474E-04    2.80      28.7  T
   6    -91.3469720 -0.248016E-08  0.344E-04    2.80      39.6  T
     SCC iter.                  ...        0 min,  0.021 sec
     gradient                   ...        0 min,  0.011 sec
 * total energy  :   -90.1919788 Eh     change       -0.1010602E-04 Eh
   gradient norm :     0.0006293 Eh/α   predicted    -0.4441162E-05 ( -56.05%)
   displ. norm   :     0.1032927 α      lambda       -0.4728495E-05
   maximum displ.:     0.0702813 α      in ANC's #1, #3, #10, ...

........................................................................
.............................. CYCLE   92 ..............................
........................................................................

 iter      E             dE          RMSdq      gap      omega  full diag
   1    -91.3472143 -0.913472E+02  0.195E-02    2.80       0.0  T
   2    -91.3472144 -0.792330E-07  0.112E-02    2.80       1.2  T
   3    -91.3472144  0.165200E-07  0.191E-03    2.80       7.1  T
   4    -91.3472145 -0.491558E-07  0.923E-04    2.80      14.7  T
   5    -91.3472145 -0.492895E-08  0.438E-04    2.80      31.1  T
     SCC iter.                  ...        0 min,  0.017 sec
     gradient                   ...        0 min,  0.011 sec
 * total energy  :   -90.1919845 Eh     change       -0.5719233E-05 Eh
   gradient norm :     0.0004456 Eh/α   predicted    -0.2376732E-05 ( -58.44%)
   displ. norm   :     0.0723920 α      lambda       -0.3425356E-05
   maximum displ.:     0.0548620 α      in ANC's #1, #3, #10, ...
 * RMSD in coord.:     0.4810011 α      energy gain  -0.1050214E-02 Eh

generating ANC from exact Hessian ...
Using Lindh-Hessian (1995)
 Shifting diagonal of input Hessian by    9.9397473859598479E-003
 Lowest  eigenvalues of input Hessian
    0.000000    0.000000    0.000000    0.000000    0.000000    0.000000
    0.010000    0.010324    0.010471    0.010735    0.010986    0.011105
    0.011304    0.011497    0.011985    0.012334    0.012483    0.012761
 Highest eigenvalues
    1.980456    1.986235    2.030483    2.039792    2.051972    2.299364


........................................................................
.............................. CYCLE   93 ..............................
........................................................................

 iter      E             dE          RMSdq      gap      omega  full diag
   1    -91.3472940 -0.913473E+02  0.122E-02    2.80       0.0  T
   2    -91.3472940 -0.481685E-07  0.703E-03    2.80       1.9  T
   3    -91.3472940  0.223304E-07  0.150E-03    2.80       9.1  T
   4    -91.3472940 -0.467416E-07  0.675E-04    2.80      20.2  T
   5    -91.3472940 -0.207413E-08  0.384E-04    2.80      35.4  T
     SCC iter.                  ...        0 min,  0.017 sec
     gradient                   ...        0 min,  0.011 sec
 * total energy  :   -90.1919888 Eh     change       -0.4312748E-05 Eh
   gradient norm :     0.0004384 Eh/α   predicted     0.0000000E+00 (-100.00%)
   displ. norm   :     0.0176894 α      lambda       -0.1585747E-06
   maximum displ.:     0.0141443 α      in ANC's #1, #3, #9, ...

   *** GEOMETRY OPTIMIZATION CONVERGED AFTER 93 ITERATIONS ***

------------------------------------------------------------------------
 total energy gain   :        -0.0750057 Eh      -47.0668 kcal/mol
 total RMSD          :         3.2425178 a0        1.7159 Å
 total power (kW/mol):        -2.1174987 (step)  -44.0713 (real)
------------------------------------------------------------------------

 ANCopt (total)                0 d,  0 h,  0 min,  4.468 sec
 optimizer setup                ...        0 min,  0.000 sec (  0.009%)
 model hessian                  ...        0 min,  0.204 sec (  4.561%)
 ANC generation                 ...        0 min,  0.010 sec (  0.234%)
 coordinate transformation      ...        0 min,  0.003 sec (  0.073%)
 single point calculation       ...        0 min,  4.180 sec ( 93.555%)
 optimization log               ...        0 min,  0.037 sec (  0.830%)
 hessian update                 ...        0 min,  0.011 sec (  0.254%)
 rational function              ...        0 min,  0.015 sec (  0.335%)

================
 final structure:
================
54
 xtb: 6.7.1 (edcfbbe)
C            2.74548118413787        3.46564986341976        0.87280151285113
Se           2.22369683131238        2.03002535159093       -0.32829042382752
C            3.37180914643967        0.70297695133750        0.32593189690936
N            4.18556416470500        0.92700336070735        1.32620344677389
O            4.87046756948260       -0.23394204462208        1.54315897332742
C            4.46697975447711       -1.16993500698532        0.66008272837082
C            5.08041984298518       -2.51501816803297        0.72168539368610
C            3.49340421858617       -0.64019751901436       -0.14102848290368
C            2.81297771536459       -1.15982652259223       -1.35826436491804
O            3.30895133430304       -0.94065121798512       -2.46528949812630
N            1.67719123415561       -1.84583520821541       -1.18260932961482
C            0.97237238536412       -1.96248886468966        0.07461748717366
C           -0.13644577694292       -0.90934474680850        0.12433481024081
N           -1.02606223709552       -1.07722321655691       -1.00775618478172
C           -2.21501348870147       -0.21978364799297       -0.96386942104643
C           -1.83062913232352        1.24549276099623       -0.88563303948907
C           -1.66531341299757        1.97710151531592       -2.05619635126406
C           -1.17641742029245        3.27174021309644       -2.02914253949834
C           -0.84651869378923        3.83920468231269       -0.81185236405599
Cl          -0.21041786501271        5.46309431657044       -0.76969088234115
C           -1.02077092683625        3.14252209067074        0.37196990477398
C           -1.51004899056635        1.84908898067483        0.32695048459312
C           -3.16410842375690       -0.66210268741385        0.12880270222927
C           -4.12563299986615        0.21117679862099        0.62326520636474
C           -5.02242811935564       -0.19740783666120        1.59472157098955
C           -4.95915470419639       -1.49559688849851        2.06971323238836
Cl          -6.08162817690223       -2.01382141847480        3.30189241660832
C           -4.02636974026535       -2.39000961369232        1.57492427469965
C           -3.13769239995060       -1.96835518653422        0.60196966904202
C           -0.29517307168158       -0.97246457896294       -2.25689573406294
C            0.78712750681889       -2.05262916743041       -2.30732423717923
H            2.12760564487607        4.32302460542892        0.62074974395218
H            3.79704556228839        3.68413767543660        0.71655723521750
H            2.56921078885559        3.14226742749122        1.89400738911613
H            6.09734170967209       -2.43104454111604        1.09459329278152
H            5.07827265668789       -2.96111610480658       -0.26844655070245
H            4.51525108223860       -3.15381005849458        1.39861179816365
H            1.65952609349723       -1.82349913501402        0.90800908778928
H            0.54042561824454       -2.96414121147493        0.12125688701603
H            0.34673977330352        0.08644592656374        0.11943460652631
H           -0.70908657529124       -1.02042713138842        1.04500668700035
H           -2.73408636704483       -0.38650282930904       -1.91694000045920
H           -1.92138528529267        1.53691702314338       -3.00802994124293
H           -1.04745859829724        3.82995441976107       -2.94266190727164
H           -0.77572286659697        3.60469345258789        1.31472913966699
H           -1.65075357426167        1.31028883652622        1.25078742551407
H           -4.18010177369676        1.22121406374470        0.24781220940573
H           -5.76363615400590        0.48492652965139        1.97819428688539
H           -3.99943129017239       -3.40232822444431        1.94385238041055
H           -2.41709845580313       -2.65917534202343        0.19671139007072
H            0.20071542048134        0.01113134473814       -2.36487165251709
H           -0.98745074893210       -1.11428236838327       -3.08739824035349
H            0.34140036651851       -3.04445033113088       -2.22575009775664
H            1.36605966514624       -1.97266537146407       -3.22758902711668

 Bond Distances (Angstroems)
 ---------------------------
C1-Se2=1.9432        C1-H32=1.0865        C1-H33=1.0853        C1-H34=1.0856        Se2-C1=1.9432        Se2-C3=1.8728        
C3-Se2=1.8728        C3-N4=1.3088         C3-C8=1.4272         N4-C3=1.3088         N4-O5=1.3653         O5-N4=1.3653         
O5-C6=1.3486         C6-O5=1.3486         C6-C7=1.4796         C6-C8=1.3676         C7-C6=1.4796         C7-H35=1.0864        
C7-H36=1.0860        C7-H37=1.0889        C8-C3=1.4272         C8-C6=1.3676         C8-C9=1.4882         C9-C8=1.4882         
C9-O10=1.2327        C9-N11=1.3385        O10-C9=1.2327        N11-C9=1.3385        N11-C12=1.4460       N11-C31=1.4491       
C12-N11=1.4460       C12-C13=1.5301       C12-H38=1.0891       C12-H39=1.0918       C13-C12=1.5301       C13-N14=1.4496       
C13-H40=1.1068       C13-H41=1.0899       N14-C13=1.4496       N14-C15=1.4665       N14-C30=1.4510       C15-N14=1.4665       
C15-C16=1.5169       C15-C23=1.5134       C15-H42=1.0980       C16-C15=1.5169       C16-C17=1.3903       C16-C22=1.3919       
C17-C16=1.3903       C17-C18=1.3841       C17-H43=1.0795       C18-C17=1.3841       C18-C19=1.3830       C18-H44=1.0783       
C19-C18=1.3830       C19-Cl20=1.7445      C19-C21=1.3846       Cl20-C19=1.7445      C21-C19=1.3846       C21-C22=1.3836       
C21-H45=1.0782       C22-C16=1.3919       C22-C21=1.3836       C22-H46=1.0787       C23-C15=1.5134       C23-C24=1.3898       
C23-C29=1.3896       C24-C23=1.3898       C24-C25=1.3838       C24-H47=1.0789       C25-C24=1.3838       C25-C26=1.3838       
C25-H48=1.0780       C26-C25=1.3838       C26-Cl27=1.7455      C26-C28=1.3838       Cl27-C26=1.7455      C28-C26=1.3838       
C28-C29=1.3835       C28-H49=1.0778       C29-C23=1.3896       C29-C28=1.3835       C29-H50=1.0774       C30-N14=1.4510       
C30-C31=1.5299       C30-H51=1.1068       C30-H52=1.0905       C31-N11=1.4491       C31-C30=1.5299       C31-H53=1.0904       
C31-H54=1.0902       H32-C1=1.0865        H33-C1=1.0853        H34-C1=1.0856        H35-C7=1.0864        H36-C7=1.0860        
H37-C7=1.0889        H38-C12=1.0891       H39-C12=1.0918       H40-C13=1.1068       H41-C13=1.0899       H42-C15=1.0980       
H43-C17=1.0795       H44-C18=1.0783       H45-C21=1.0782       H46-C22=1.0787       H47-C24=1.0789       H48-C25=1.0780       
H49-C28=1.0778       H50-C29=1.0774       H51-C30=1.1068       H52-C30=1.0905       H53-C31=1.0904       H54-C31=1.0902       
 C  H  Rav=1.0869 sigma=0.0083  Rmin=1.0774  Rmax=1.1068    23
 C  C  Rav=1.4242 sigma=0.0579  Rmin=1.3676  Rmax=1.5301    20
 N  C  Rav=1.4156 sigma=0.0591  Rmin=1.3088  Rmax=1.4665     7
 O  C  Rav=1.2906 sigma=0.0580  Rmin=1.2327  Rmax=1.3486     2
 O  N  Rav=1.3653 sigma=0.0000  Rmin=1.3653  Rmax=1.3653     1
 Cl C  Rav=1.7450 sigma=0.0005  Rmin=1.7445  Rmax=1.7455     2
 Se C  Rav=1.9080 sigma=0.0352  Rmin=1.8728  Rmax=1.9432     2

 selected bond angles (degree)
 --------------------
H32-C1-Se2=106.67              H33-C1-Se2=108.66              H33-C1-H32=111.02              H34-C1-Se2=108.53              
H34-C1-H32=111.16              H34-C1-H33=110.65              C3-Se2-C1= 98.22               N4-C3-Se2=121.79               
C8-C3-Se2=127.22               C8-C3-N4=110.99                O5-N4-C3=106.73                C6-O5-N4=109.64                
C7-C6-O5=118.66                C8-C6-O5=109.13                C8-C6-C7=132.20                H35-C7-C6=109.40               
H36-C7-C6=109.55               H36-C7-H35=110.28              H37-C7-C6=110.12               H37-C7-H35=108.53              
H37-C7-H36=108.95              C6-C8-C3=103.51                C9-C8-C3=123.87                C9-C8-C6=132.02                
O10-C9-C8=119.24               N11-C9-C8=117.36               N11-C9-O10=123.40              

 selected dihedral angles (degree)
 ---------------------------------
C3-Se2-C1-H32=181.31          C3-Se2-C1-H33= 61.55          C3-Se2-C1-H34=301.16          N4-C3-Se2-C1=  0.68           
C8-C3-Se2-C1=180.10           O5-N4-C3-Se2=180.09           O5-N4-C3-C8=  0.58            C6-O5-N4-C3=  0.15            
C7-C6-O5-N4=180.27            C8-C6-O5-N4=359.16            H35-C7-C6-O5=330.14           H35-C7-C6-C8=151.56           
H36-C7-C6-O5=209.14           H36-C7-C6-C8= 30.56           H37-C7-C6-O5= 89.33           H37-C7-C6-C8=270.75           
C6-C8-C3-Se2=179.46           C6-C8-C3-N4=358.94            C9-C8-C3-Se2=  7.45           C9-C8-C3-N4=186.93            
C3-C8-C6-O5=  1.12            C3-C8-C6-C7=179.80            C9-C8-C6-O5=172.18            C9-C8-C6-C7=350.86            
O10-C9-C8-C3= 81.15           O10-C9-C8-C6=271.63           N11-C9-C8-C3=261.34           N11-C9-C8-C6= 91.83           
           -------------------------------------------------
          |                Final Singlepoint                |
           -------------------------------------------------

          ...................................................
          :                      SETUP                      :
          :.................................................:
          :  # basis functions                 165          :
          :  # atomic orbitals                 162          :
          :  # shells                           88          :
          :  # electrons                       162          :
          :  max. iterations                   250          :
          :  Hamiltonian                  GFN2-xTB          :
          :  restarted?                      false          :
          :  GBSA solvation                   true          :
          :  PC potential                    false          :
          :  electronic temp.          300.0000000     K    :
          :  accuracy                    1.0000000          :
          :  -> integral cutoff          0.2500000E+02      :
          :  -> integral neglect         0.1000000E-07      :
          :  -> SCF convergence          0.1000000E-05 Eh   :
          :  -> wf. convergence          0.1000000E-03 e    :
          :  Broyden damping             0.4000000          :
          :  net charge                          0          :
          :  unpaired electrons                  0          :
          ...................................................

 iter      E             dE          RMSdq      gap      omega  full diag
   1    -91.3472940 -0.913473E+02  0.259E-04    2.80       0.0  T
   2    -91.3472940 -0.461796E-09  0.220E-04    2.80      61.9  T
   3    -91.3472940 -0.382528E-09  0.171E-04    2.80      79.4  T

   *** convergence criteria satisfied after 3 iterations ***

         #    Occupation            Energy/Eh            Energy/eV
      -------------------------------------------------------------
         1        2.0000           -1.0673530             -29.0442
       ...           ...                  ...                  ...
        75        2.0000           -0.4118474             -11.2069
        76        2.0000           -0.4081629             -11.1067
        77        2.0000           -0.4010745             -10.9138
        78        2.0000           -0.3988926             -10.8544
        79        2.0000           -0.3915298             -10.6541
        80        2.0000           -0.3782481             -10.2927
        81        2.0000           -0.3588918              -9.7659 (HOMO)
        82                         -0.2560209              -6.9667 (LUMO)
        83                         -0.2380462              -6.4776
        84                         -0.2364680              -6.4346
        85                         -0.2313228              -6.2946
        86                         -0.2311718              -6.2905
       ...                                ...                  ...
       162                          0.8304590              22.5979
      -------------------------------------------------------------
                  HL-Gap            0.1028709 Eh            2.7993 eV
             Fermi-level           -0.3074564 Eh           -8.3663 eV

 SCC (total)                   0 d,  0 h,  0 min,  0.030 sec
 SCC setup                      ...        0 min,  0.001 sec (  2.832%)
 Dispersion                     ...        0 min,  0.001 sec (  3.244%)
 classical contributions        ...        0 min,  0.000 sec (  0.416%)
 integral evaluation            ...        0 min,  0.004 sec ( 13.149%)
 iterations                     ...        0 min,  0.012 sec ( 38.704%)
 molecular gradient             ...        0 min,  0.012 sec ( 39.710%)
 printout                       ...        0 min,  0.001 sec (  1.853%)

         :::::::::::::::::::::::::::::::::::::::::::::::::::::
         ::                     SUMMARY                     ::
         :::::::::::::::::::::::::::::::::::::::::::::::::::::
         :: total energy             -90.191988822614 Eh    ::
         :: total w/o Gsasa/hb       -90.187455913189 Eh    ::
         :: gradient norm              0.000444074065 Eh/a0 ::
         :: HOMO-LUMO gap              2.799258801157 eV    ::
         ::.................................................::
         :: SCC energy               -91.345234228003 Eh    ::
         :: -> isotropic ES            0.096483807052 Eh    ::
         :: -> anisotropic ES         -0.013831704086 Eh    ::
         :: -> anisotropic XC          0.043809721476 Eh    ::
         :: -> dispersion             -0.075616922642 Eh    ::
         :: -> Gsolv                  -0.029837356194 Eh    ::
         ::    -> Gelec               -0.025304446769 Eh    ::
         ::    -> Gsasa               -0.001339610090 Eh    ::
         ::    -> Ghb                 -0.004274059033 Eh    ::
         ::    -> Gshift               0.001080759698 Eh    ::
         :: repulsion energy           1.153245405388 Eh    ::
         :: add. restraining           0.000000000000 Eh    ::
         :: total charge               0.000000000000 e     ::
         :::::::::::::::::::::::::::::::::::::::::::::::::::::

           -------------------------------------------------
          |                Property Printout                |
           -------------------------------------------------

    * Orbital Energies and Occupations

         #    Occupation            Energy/Eh            Energy/eV
      -------------------------------------------------------------
         1        2.0000           -1.0673530             -29.0442
       ...           ...                  ...                  ...
        69        2.0000           -0.4318846             -11.7522
        70        2.0000           -0.4292668             -11.6809
        71        2.0000           -0.4232876             -11.5182
        72        2.0000           -0.4226681             -11.5014
        73        2.0000           -0.4180246             -11.3750
        74        2.0000           -0.4162699             -11.3273
        75        2.0000           -0.4118474             -11.2069
        76        2.0000           -0.4081629             -11.1067
        77        2.0000           -0.4010745             -10.9138
        78        2.0000           -0.3988926             -10.8544
        79        2.0000           -0.3915298             -10.6541
        80        2.0000           -0.3782481             -10.2927
        81        2.0000           -0.3588918              -9.7659 (HOMO)
        82                         -0.2560209              -6.9667 (LUMO)
        83                         -0.2380462              -6.4776
        84                         -0.2364680              -6.4346
        85                         -0.2313228              -6.2946
        86                         -0.2311718              -6.2905
        87                         -0.2297805              -6.2526
        88                         -0.2092498              -5.6940
        89                         -0.1970702              -5.3626
        90                         -0.1527637              -4.1569
        91                         -0.1453251              -3.9545
        92                         -0.1383111              -3.7636
       ...                                ...                  ...
       162                          0.8304590              22.5979
      -------------------------------------------------------------
                  HL-Gap            0.1028709 Eh            2.7993 eV
             Fermi-level           -0.3074564 Eh           -8.3663 eV

     #   Z          covCN         q      C6AA      α(0)
     1   6 C        3.744    -0.071    21.941     6.682
     2  34 Se       2.005    -0.209   242.836    27.153
     3   6 C        3.047     0.106    25.609     8.300
     4   7 N        1.976    -0.187    25.833     7.538
     5   8 O        1.818    -0.152    16.578     5.498
     6   6 C        3.024     0.140    24.929     8.190
     7   6 C        3.754    -0.143    23.324     6.887
     8   6 C        3.016    -0.072    29.774     8.951
     9   6 C        2.766     0.274    22.376     7.747
    10   8 O        0.859    -0.527    24.398     6.623
    11   7 N        2.742    -0.075    22.694     7.075
    12   6 C        3.760    -0.017    20.920     6.520
    13   6 C        3.762    -0.001    20.643     6.477
    14   7 N        2.733    -0.159    24.442     7.343
    15   6 C        3.812     0.022    20.197     6.397
    16   6 C        2.967     0.007    27.867     8.659
    17   6 C        2.928    -0.036    28.887     8.814
    18   6 C        2.949    -0.042    29.030     8.837
    19   6 C        2.891     0.100    25.780     8.324
    20  17 Cl       0.958    -0.230   106.437    15.784
    21   6 C        2.948    -0.039    28.961     8.826
    22   6 C        2.927    -0.030    28.756     8.794
    23   6 C        2.969     0.013    27.730     8.638
    24   6 C        2.927    -0.037    28.914     8.818
    25   6 C        2.949    -0.043    29.059     8.842
    26   6 C        2.890     0.099    25.812     8.330
    27  17 Cl       0.957    -0.235   106.580    15.794
    28   6 C        2.949    -0.043    29.064     8.842
    29   6 C        2.927    -0.038    28.943     8.823
    30   6 C        3.764     0.003    20.564     6.464
    31   6 C        3.768    -0.015    20.872     6.511
    32   1 H        0.925     0.081     1.970     2.195
    33   1 H        0.925     0.082     1.963     2.191
    34   1 H        0.925     0.091     1.868     2.137
    35   1 H        0.925     0.095     1.827     2.114
    36   1 H        0.925     0.084     1.936     2.176
    37   1 H        0.925     0.105     1.736     2.061
    38   1 H        0.925     0.061     2.186     2.312
    39   1 H        0.924     0.093     1.848     2.126
    40   1 H        0.922     0.027     2.631     2.537
    41   1 H        0.925     0.068     2.104     2.268
    42   1 H        0.923     0.075     2.029     2.227
    43   1 H        0.926     0.062     2.178     2.308
    44   1 H        0.926     0.060     2.194     2.317
    45   1 H        0.926     0.067     2.123     2.279
    46   1 H        0.926     0.066     2.133     2.284
    47   1 H        0.926     0.059     2.215     2.328
    48   1 H        0.926     0.063     2.168     2.302
    49   1 H        0.926     0.070     2.087     2.259
    50   1 H        0.926     0.084     1.935     2.175
    51   1 H        0.922     0.016     2.795     2.615
    52   1 H        0.924     0.064     2.155     2.296
    53   1 H        0.924     0.087     1.906     2.159
    54   1 H        0.925     0.076     2.021     2.223

 Mol. C6AA /au·bohr⁶  :      43685.715126
 Mol. C8AA /au·bohr⁸  :    1238249.464682
 Mol. α(0) /au        :        328.367888


Wiberg/Mayer (AO) data.
largest (>0.10) Wiberg bond orders for each atom

 ---------------------------------------------------------------------------
     #   Z sym  total        # sym  WBO       # sym  WBO       # sym  WBO
 ---------------------------------------------------------------------------
     1   6 C    3.969 --     2 Se   1.058    33 H    0.966    32 H    0.962
                            34 H    0.961
     2  34 Se   2.541 --     3 C    1.073     1 C    1.058     4 N    0.117
     3   6 C    3.964 --     4 N    1.537     8 C    1.215     2 Se   1.073
     4   7 N    2.943 --     3 C    1.537     5 O    1.059     6 C    0.142
                             2 Se   0.117
     5   8 O    2.417 --     6 C    1.135     4 N    1.059
     6   6 C    3.918 --     8 C    1.532     5 O    1.135     7 C    1.034
                             4 N    0.142
     7   6 C    3.978 --     6 C    1.034    36 H    0.972    35 H    0.970
                            37 H    0.949
     8   6 C    3.971 --     6 C    1.532     3 C    1.215     9 C    0.963
     9   6 C    3.952 --    10 O    1.584    11 N    1.305     8 C    0.963
    10   8 O    1.926 --     9 C    1.584    11 N    0.198
    11   7 N    3.535 --     9 C    1.305    12 C    0.983    31 C    0.976
                            10 O    0.198
    12   6 C    3.961 --    13 C    0.989    11 N    0.983    38 H    0.967
                            39 H    0.962
    13   6 C    3.984 --    14 N    1.010    12 C    0.989    41 H    0.964
                            40 H    0.935
    14   7 N    3.158 --    13 C    1.010    30 C    1.007    15 C    0.972
    15   6 C    3.981 --    23 C    0.991    16 C    0.981    14 N    0.972
                            42 H    0.938
    16   6 C    3.985 --    17 C    1.410    22 C    1.400    15 C    0.981
    17   6 C    3.988 --    18 C    1.437    16 C    1.410    43 H    0.965
                            21 C    0.107
    18   6 C    3.987 --    17 C    1.437    19 C    1.410    44 H    0.966
                            22 C    0.108
    19   6 C    3.896 --    18 C    1.410    21 C    1.400    20 Cl   0.935
    20  17 Cl   1.063 --    19 C    0.935
    21   6 C    3.986 --    22 C    1.440    19 C    1.400    45 H    0.964
                            17 C    0.107
    22   6 C    3.988 --    21 C    1.440    16 C    1.400    46 H    0.963
                            18 C    0.108
    23   6 C    3.988 --    24 C    1.409    29 C    1.408    15 C    0.991
    24   6 C    3.989 --    25 C    1.442    23 C    1.409    47 H    0.964
                            28 C    0.108
    25   6 C    3.987 --    24 C    1.442    26 C    1.409    48 H    0.966
                            29 C    0.108
    26   6 C    3.895 --    25 C    1.409    28 C    1.408    27 Cl   0.936
    27  17 Cl   1.057 --    26 C    0.936
    28   6 C    3.986 --    29 C    1.442    26 C    1.408    49 H    0.965
                            24 C    0.108
    29   6 C    3.986 --    28 C    1.442    23 C    1.408    50 H    0.960
                            25 C    0.108
    30   6 C    3.985 --    14 N    1.007    31 C    0.990    52 H    0.967
                            51 H    0.957
    31   6 C    3.959 --    30 C    0.990    11 N    0.976    54 H    0.967
                            53 H    0.964
    32   1 H    0.993 --     1 C    0.962
    33   1 H    0.993 --     1 C    0.966
    34   1 H    0.992 --     1 C    0.961
    35   1 H    0.990 --     7 C    0.970
    36   1 H    0.993 --     7 C    0.972
    37   1 H    0.988 --     7 C    0.949
    38   1 H    0.996 --    12 C    0.967
    39   1 H    0.991 --    12 C    0.962
    40   1 H    0.999 --    13 C    0.935
    41   1 H    0.995 --    13 C    0.964
    42   1 H    0.993 --    15 C    0.938
    43   1 H    0.996 --    17 C    0.965
    44   1 H    0.996 --    18 C    0.966
    45   1 H    0.995 --    21 C    0.964
    46   1 H    0.996 --    22 C    0.963
    47   1 H    0.997 --    24 C    0.964
    48   1 H    0.996 --    25 C    0.966
    49   1 H    0.995 --    28 C    0.965
    50   1 H    0.993 --    29 C    0.960
    51   1 H    1.000 --    30 C    0.957
    52   1 H    0.995 --    30 C    0.967
    53   1 H    0.991 --    31 C    0.964
    54   1 H    0.994 --    31 C    0.967
 ---------------------------------------------------------------------------

Topologies differ in total number of bonds
Writing topology from bond orders to xtbtopo.mol

molecular dipole:
                 x           y           z       tot (Debye)
 q only:       -1.407      -2.374       0.268
   full:       -1.095      -1.727       0.427       5.310
molecular quadrupole (traceless):
                xx          xy          yy          xz          yz          zz
 q only:      -19.111     -20.762      16.373      35.608       9.120       2.737
  q+dip:      -18.756     -16.908      18.778      27.488       2.703      -0.021
   full:      -16.643     -18.171      17.795      27.970       3.368      -1.152

           -------------------------------------------------
          |                Geometry Summary                 |
           -------------------------------------------------

      molecular mass/u    :      523.3137461
   center of mass at/Å    :        0.0318335       0.4754129      -0.0002303
  moments of inertia/u·Å² :        0.3471090E+04   0.6428939E+04   0.8198112E+04
rotational constants/cm⁻¹ :        0.4856582E-02   0.2622148E-02   0.2056282E-02

 * 54 selected distances

     #   Z          #   Z                                           value/Å
     1   6 C        2  34 Se                                      1.9431673 (max)
     2  34 Se       3   6 C                                       1.8727592
     3   6 C        4   7 N                                       1.3087890
     4   7 N        5   8 O                                       1.3652681
     5   8 O        6   6 C                                       1.3485953
     6   6 C        7   6 C                                       1.4796462
     3   6 C        8   6 C                                       1.4272195
     6   6 C        8   6 C                                       1.3675711
     9   6 C       10   8 O                                       1.2326932
     9   6 C       11   7 N                                       1.3384595
    11   7 N       12   6 C                                       1.4460281
    12   6 C       13   6 C                                       1.5300531
    13   6 C       14   7 N                                       1.4495624
    14   7 N       15   6 C                                       1.4665381
    16   6 C       17   6 C                                       1.3902516
    17   6 C       18   6 C                                       1.3841391
    18   6 C       19   6 C                                       1.3829840
    19   6 C       20  17 Cl                                      1.7445400
    19   6 C       21   6 C                                       1.3846176
    16   6 C       22   6 C                                       1.3919264
    21   6 C       22   6 C                                       1.3836146
    23   6 C       24   6 C                                       1.3898346
    24   6 C       25   6 C                                       1.3838030
    25   6 C       26   6 C                                       1.3838048
    26   6 C       27  17 Cl                                      1.7454998
    26   6 C       28   6 C                                       1.3837913
    23   6 C       29   6 C                                       1.3895613
    28   6 C       29   6 C                                       1.3835393
    14   7 N       30   6 C                                       1.4510422
    11   7 N       31   6 C                                       1.4491243
    30   6 C       31   6 C                                       1.5299260
     1   6 C       32   1 H                                       1.0864584
     1   6 C       33   1 H                                       1.0853281
     1   6 C       34   1 H                                       1.0855916
     7   6 C       35   1 H                                       1.0863895
     7   6 C       36   1 H                                       1.0859878
     7   6 C       37   1 H                                       1.0888987
    12   6 C       38   1 H                                       1.0890547
    12   6 C       39   1 H                                       1.0918154
    13   6 C       40   1 H                                       1.1068386
    13   6 C       41   1 H                                       1.0899054
    15   6 C       42   1 H                                       1.0979871
    17   6 C       43   1 H                                       1.0795011
    18   6 C       44   1 H                                       1.0783095
    21   6 C       45   1 H                                       1.0781679
    22   6 C       46   1 H                                       1.0786929
    24   6 C       47   1 H                                       1.0789380
    25   6 C       48   1 H                                       1.0779708
    28   6 C       49   1 H                                       1.0777861
    29   6 C       50   1 H                                       1.0773684 (min)
    30   6 C       51   1 H                                       1.1068086
    30   6 C       52   1 H                                       1.0904565
    31   6 C       53   1 H                                       1.0904295
    31   6 C       54   1 H                                       1.0901579

 * 7 distinct bonds (by element types)

   Z      Z             #   av. dist./Å        max./Å        min./Å
   1 H    6 C          23     1.0869062     1.1068386     1.0773684
   6 C    6 C          17     1.4097814     1.5300531     1.3675711
   6 C    7 N           7     1.4156491     1.4665381     1.3087890
   6 C    8 O           2     1.2906443     1.3485953     1.2326932
   7 N    8 O           1     1.3652681     1.3652681     1.3652681
   6 C   17 Cl          2     1.7450199     1.7454998     1.7445400
   6 C   34 Se          2     1.9079632     1.9431673     1.8727592


optimized geometry written to: xtbopt.xyz


           -------------------------------------------------
          | TOTAL ENERGY              -90.191988822614 Eh   |
          | GRADIENT NORM               0.000444074065 Eh/α |
          | HOMO-LUMO GAP               2.799258801157 eV   |
           -------------------------------------------------

------------------------------------------------------------------------
 * finished run on 2026/08/28 at 18:51:16.495     
------------------------------------------------------------------------
 total:
 * wall-time:     0 d,  0 h,  0 min,  4.633 sec
 *  cpu-time:     0 d,  0 h,  0 min, 31.828 sec
 * ratio c/w:     6.870 speedup
 SCF:
 * wall-time:     0 d,  0 h,  0 min,  0.083 sec
 *  cpu-time:     0 d,  0 h,  0 min,  0.562 sec
 * ratio c/w:     6.743 speedup
 ANC optimizer:
 * wall-time:     0 d,  0 h,  0 min,  4.503 sec
 *  cpu-time:     0 d,  0 h,  0 min, 31.172 sec
 * ratio c/w:     6.923 speedup

