119
GPX4 active-site cluster (heavy atoms, pre-H)
C      -4.031000    -0.307000    -2.386000
C      -5.327000    -0.751000    -1.717000
C      -6.235000     0.385000    -1.284000
O      -5.831000     1.234000    -0.472000
N      -7.475000     0.376000    -1.743000
C      -4.113000     0.498000    -6.103000
C      -2.753000     0.512000    -6.808000
C      -1.701000     1.150000    -5.882000
C      -2.287000    -0.873000    -7.236000
C      -6.471000     0.210000    -9.041000
C      -7.901000     0.529000    -8.620000
C      -6.051000     0.913000   -12.757000
C      -5.706000    -0.197000   -13.738000
O      -4.629000    -1.004000   -13.279000
C      -9.549000     2.253000   -13.609000
C     -10.543000     1.196000   -14.120000
C      -9.937000     0.108000   -14.960000
C     -10.948000    -0.818000   -15.573000
O     -12.124000    -0.853000   -15.176000
N     -10.472000    -1.629000   -16.499000
N      -9.594000     3.774000   -11.707000
C     -10.184000     4.702000   -10.730000
C      -9.474000     4.476000    -9.380000
SE    -10.012000     5.642000    -7.950000
C      -9.960000     6.149000   -11.205000
O      -8.977000     6.463000   -11.913000
C     -10.696000     8.426000   -11.210000
C      -7.644000     9.021000    -9.033000
C      -7.798000     9.311000    -7.549000
C      -8.790000    10.468000    -7.309000
C      -8.921000    10.897000    -5.848000
C      -9.605000    12.233000    -5.736000
N     -11.064000    12.051000    -6.001000
C      -5.386000     6.406000   -10.694000
C      -5.794000     5.395000   -11.792000
O      -6.728000     4.469000   -11.218000
C      -4.627000     4.683000   -12.368000
C      -3.367000     8.928000   -12.655000
C      -3.854000     9.769000   -13.825000
C      -2.776000    10.556000   -14.524000
C      -3.324000    11.216000   -15.798000
O      -2.549000    11.756000   -16.557000
O      -4.537000    11.269000   -16.023000
C      -2.593000    11.326000    -9.854000
C      -3.446000    12.363000    -9.185000
C      -4.128000    13.224000   -10.259000
C      -4.332000    11.724000    -8.121000
C      -1.804000     8.527000    -7.400000
C      -2.736000     7.482000    -6.776000
C      -3.539000     8.075000    -5.643000
O      -3.126000     8.082000    -4.504000
N      -4.682000     8.672000    -5.986000
C      -7.368000    -4.583000    -5.253000
C      -7.468000    -3.934000    -3.870000
S      -8.944000    -4.435000    -2.930000
C     -13.845000    -0.790000    -5.058000
C     -12.841000     0.193000    -4.479000
C     -12.371000    -0.234000    -3.125000
C     -13.227000    -0.162000    -2.027000
C     -11.105000    -0.769000    -2.939000
C     -12.828000    -0.612000    -0.783000
C     -10.709000    -1.226000    -1.686000
C     -11.576000    -1.145000    -0.622000
C     -16.089000    -0.420000    -8.081000
C     -11.696000    -0.914000   -10.800000
C     -11.723000     0.490000   -10.173000
C     -13.056000     1.190000   -10.478000
C     -13.316000     2.532000    -9.808000
O     -14.286000     3.217000   -10.143000
N     -12.511000     2.951000    -8.995000
C      -8.875000    -3.474000   -10.879000
C      -7.956000    -3.559000    -9.659000
C      -6.542000    -4.043000    -9.914000
C      -5.673000    -3.007000   -10.561000
O      -6.024000    -2.600000   -11.714000
O      -4.682000    -2.578000    -9.951000
C     -11.872000     3.119000    -1.688000
C     -12.399000     4.480000    -2.219000
C     -12.921000     4.431000    -3.630000
C     -12.371000     5.038000    -4.746000
C     -14.089000     3.713000    -4.085000
N     -13.126000     4.694000    -5.847000
C     -14.165000     3.877000    -5.466000
C     -15.056000     2.928000    -3.458000
C     -15.183000     3.272000    -6.232000
C     -16.042000     2.345000    -4.189000
C     -16.123000     2.510000    -5.577000
C      -8.874000     2.746000    -3.955000
C      -8.935000     2.837000    -5.482000
C      -9.928000     1.875000    -6.082000
O     -10.899000     2.359000    -6.770000
N      -9.793000     0.625000    -5.869000
C      -5.623000     4.485000    -2.925000
C      -5.455000     5.592000    -3.975000
C      -5.136000     5.035000    -5.344000
C      -3.858000     4.548000    -5.603000
C      -6.077000     4.971000    -6.355000
C      -3.527000     4.082000    -6.875000
C      -5.743000     4.463000    -7.609000
C      -4.464000     4.039000    -7.851000
C      -5.676000     4.457000     0.820000
C      -6.510000     3.614000     1.797000
O      -7.908000     3.891000     1.528000
C      -6.242000     3.893000     3.231000
C      -2.077000     4.907000     2.052000
C      -1.316000     6.127000     1.520000
C      -1.463000     6.416000     0.044000
C      -2.652000     7.504000    -0.080000
C      -2.785000     7.833000    -1.517000
N      -4.016000     8.460000    -1.862000
C      -8.492000     7.930000    -1.000000
C      -9.853000     7.275000    -1.259000
C     -10.025000     6.300000    -0.117000
C      -9.432000     7.055000     1.062000
C      -8.930000    11.660000    -1.400000
C     -10.149000    12.415000    -0.847000
C     -11.515000    11.786000    -1.129000
S     -12.943000    12.688000    -0.496000
C     -12.841000    12.617000     1.301000
