66
 energy: -111.858982165487 gnorm: 0.000438743390 xtb: 6.7.1 (edcfbbe)
C            7.75449441473585       -2.71954243928257       -0.62490190730797
C            6.89038631677241       -1.96819946314300        0.29023808711999
O            6.88153024629798       -2.25774207357193        1.58195383326139
N            6.02194726662358       -1.43943828489328        2.26095390871983
C            5.46960589215370       -0.64656359045070        1.39183176972466
C            4.61681146277332        0.53703215121063        1.73838736501527
O            5.18863707548220        1.61794402398846        1.86744000221799
N            3.31605387756351        0.33211338395477        1.89882019784753
C            2.62341321373143       -0.89023498230573        1.55900506305179
C            1.79645325163072       -0.65856525193426        0.29179364300660
N            0.84482999195728        0.40795222731357        0.54805780035900
C           -0.11681668030974        0.56793750223704       -0.53596704346103
C           -1.12492712677860        1.65164914053188       -0.21888098776689
C           -1.55513242563669        2.52613108505650       -1.20764271748085
C           -2.51068253611404        3.48376714228712       -0.92612107659974
C           -3.06691972833924        3.57658510060112        0.34556424918963
C           -4.08432753063475        4.63725912197011        0.59343420088974
O           -4.06066117820393        5.71107327876025       -0.01151118190987
N           -5.02251606837238        4.33583435926574        1.50379837569112
C           -6.08930439457456        5.23699045440302        1.87201924622166
C           -2.62643000370359        2.70739669951290        1.34098241563956
C           -1.66778435926500        1.75481259046719        1.05718994909375
C           -0.93472322700716       -0.68735488999430       -0.74996558440305
C           -1.36834009905775       -1.02429868359331       -2.02570593451545
C           -2.17975124701139       -2.12523794084351       -2.22995188608931
C           -2.56324904099857       -2.91922947919009       -1.15351296253215
C           -3.41781795608017       -4.12983086988183       -1.31485338227649
O           -3.25956796117779       -5.13277854783585       -0.61719099266162
N           -4.36967574919761       -4.03959311130934       -2.25614757082114
C           -5.30034092333487       -5.10519562798307       -2.54706367168259
C           -2.10607435029439       -2.59723527909745        0.12131973591764
C           -1.31422471447407       -1.48491372356379        0.32405850324082
C            1.57611530968413        1.63546297731126        0.82082740692819
C            2.41263944469120        1.44972585305993        2.08569896081074
C            5.98712595683109       -0.92800987604214        0.08687012232012
N            5.60193718792401       -0.31377152213182       -1.10543050766857
O            6.22871149734944       -0.56780623742238       -2.12196975519280
O            4.63502993557137        0.43596288565007       -1.07167730971106
H            7.88257101661822       -3.73533233584525       -0.26216209240401
H            8.73593789112279       -2.24565324717806       -0.66094129134738
H            7.34219759797434       -2.69952380695605       -1.63027382894359
H            3.33553871098706       -1.70064619982883        1.41293389093450
H            1.95441204735743       -1.14168977228443        2.38466503007136
H            1.26047986233314       -1.57182536628659        0.03288690118680
H            2.47496144155664       -0.39542147585173       -0.54108620536897
H            0.39834679053206        0.82568795798585       -1.48080021731791
H           -1.13573572654749        2.46664549627685       -2.20097473711701
H           -2.84098497897891        4.17703513521845       -1.68545459020325
H           -5.02776119982082        3.41827038563749        1.92133526375904
H           -5.93763567048626        6.17062193693235        1.33275025743814
H           -6.06625002650327        5.42921784834393        2.94439173279135
H           -7.05696060383113        4.81560920417549        1.59925617004052
H           -3.00540190614916        2.78969390700929        2.34783169759625
H           -1.31895934050594        1.09068628744863        1.83048367766792
H           -1.06777784122906       -0.42090080885438       -2.86942877487339
H           -2.48138530619625       -2.37961602197514       -3.23454107364357
H           -4.48876407940400       -3.17210704908803       -2.75548414460334
H           -5.04341130475387       -5.95269535644922       -1.91375170031808
H           -6.32131856855982       -4.78970238604776       -2.33239307397470
H           -5.22404581011268       -5.39791057794228       -3.59396723649059
H           -2.39044605555840       -3.23404876962627        0.94547925132591
H           -0.97138608248939       -1.23618040306362        1.31465385525966
H            0.87176942076739        2.45370268593041        0.96981288138975
H            2.24741273359221        1.89642027960846       -0.01732317437579
H            3.00635903253822        2.34081814496949        2.28993417952624
H            1.76178391452051        1.22875520465518        2.93340498757798
