      -----------------------------------------------------------      
     |                   =====================                   |     
     |                           x T B                           |     
     |                   =====================                   |     
     |                         S. Grimme                         |     
     |          Mulliken Center for Theoretical Chemistry        |     
     |                    University of Bonn                     |     
      -----------------------------------------------------------      

   * xtb version 6.7.1 (edcfbbe) compiled by 'VssAdministrator@runnervm171ch' on 2026-06-10

   xtb is free software: you can redistribute it and/or modify it under
   the terms of the GNU Lesser General Public License as published by
   the Free Software Foundation, either version 3 of the License, or
   (at your option) any later version.
   
   xtb is distributed in the hope that it will be useful,
   but WITHOUT ANY WARRANTY; without even the implied warranty of
   MERCHANTABILITY or FITNESS FOR A PARTICULAR PURPOSE.  See the
   GNU Lesser General Public License for more details.
   
   Cite this work as:
   * C. Bannwarth, E. Caldeweyher, S. Ehlert, A. Hansen, P. Pracht,
     J. Seibert, S. Spicher, S. Grimme, WIREs Comput. Mol. Sci., 2020, 11,
     e01493. DOI: 10.1002/wcms.1493
   
   for GFN2-xTB:
   * C. Bannwarth, S. Ehlert and S. Grimme., J. Chem. Theory Comput., 2019,
     15, 1652-1671. DOI: 10.1021/acs.jctc.8b01176
   for GFN1-xTB:
   * S. Grimme, C. Bannwarth, P. Shushkov, J. Chem. Theory Comput., 2017,
     13, 1989-2009. DOI: 10.1021/acs.jctc.7b00118
   for GFN0-xTB:
   * P. Pracht, E. Caldeweyher, S. Ehlert, S. Grimme, ChemRxiv, 2019, preprint.
     DOI: 10.26434/chemrxiv.8326202.v1
   for GFN-FF:
   * S. Spicher and S. Grimme, Angew. Chem. Int. Ed., 2020, 59, 15665-15673.
     DOI: 10.1002/anie.202004239
   
   for ALPB and GBSA implicit solvation:
   * S. Ehlert, M. Stahn, S. Spicher, S. Grimme, J. Chem. Theory Comput.,
     2021, 17, 4250-4261. DOI: 10.1021/acs.jctc.1c00471
   
   for ddCOSMO and CPCM-X implicit solvation:
   * M. Stahn, S. Ehlert, S. Grimme, J. Phys. Chem. A,
     2023, XX, XXXX-XXXX. DOI: 10.1021/acs.jpca.3c04382
   
   for DFT-D4:
   * E. Caldeweyher, C. Bannwarth and S. Grimme, J. Chem. Phys., 2017,
     147, 034112. DOI: 10.1063/1.4993215
   * E. Caldeweyher, S. Ehlert, A. Hansen, H. Neugebauer, S. Spicher,
     C. Bannwarth and S. Grimme, J. Chem. Phys., 2019, 150, 154122.
     DOI: 10.1063/1.5090222
   * E. Caldeweyher, J.-M. Mewes, S. Ehlert and S. Grimme, Phys. Chem. Chem. Phys.
     2020, 22, 8499-8512. DOI: 10.1039/D0CP00502A
   
   for sTDA-xTB:
   * S. Grimme and C. Bannwarth, J. Chem. Phys., 2016, 145, 054103.
     DOI: 10.1063/1.4959605
   
   in the mass-spec context:
   * V. Asgeirsson, C. Bauer and S. Grimme, Chem. Sci., 2017, 8, 4879.
     DOI: 10.1039/c7sc00601b
   * J. Koopman and S. Grimme, ACS Omega 2019, 4, 12, 15120-15133.
     DOI: 10.1021/acsomega.9b02011
   
   for metadynamics refer to:
   * S. Grimme, J. Chem. Theory Comput., 2019, 155, 2847-2862
     DOI: 10.1021/acs.jctc.9b00143
   
   for SPH calculations refer to:
   * S. Spicher and S. Grimme, J. Chem. Theory Comput., 2021, 17, 1701-1714
     DOI: 10.1021/acs.jctc.0c01306
   
   for ONIOM refer to:
   * C. Plett, A. Katbashev, S. Ehlert, S. Grimme, M. Bursch,
     Phys. Chem. Chem. Phys., 2023, 25, 17860-17868. DOI: 10.1039/D3CP02178E
   
   for DIPRO refer to:
   * J. Kohn, N. Gildemeister, S. Grimme, D. Fazzi, A. Hansen,
     J. Chem. Phys., 2023, just accepted.
   
   for PTB refer to:
   * S. Grimme, M. Mueller, A. Hansen, J. Chem. Phys., 2023, 158, 124111.
     DOI: 10.1063/5.0137838
   
   with help from (in alphabetical order)
   P. Atkinson, C. Bannwarth, F. Bohle, G. Brandenburg, E. Caldeweyher
   M. Checinski, S. Dohm, S. Ehlert, S. Ehrlich, I. Gerasimov, C. Hölzer
   A. Katbashev, J. Kohn, J. Koopman, C. Lavigne, S. Lehtola, F. März, M. Müller,
   F. Musil, H. Neugebauer, J. Pisarek, C. Plett, P. Pracht, F. Pultar,
   J. Seibert, P. Shushkov, S. Spicher, M. Stahn, M. Steiner, T. Strunk,
   J. Stückrath, T. Rose, and J. Unsleber
   
 * started run on 2026/08/28 at 18:24:43.925     
   ID    Z sym.   atoms
    1    6 C      1, 2, 5, 6, 9, 10, 12-17, 20-27, 30-35
    2    8 O      3, 7, 18, 28, 37, 38
    3    7 N      4, 8, 11, 19, 29, 36
    4    1 H      39-66

           -------------------------------------------------
          |                Calculation Setup                |
           -------------------------------------------------

          program call               : C:\Users\Christian\Miniconda3\Library\bin\xtb.exe M1_bisCONHMe.xyz --gfn 2 --opt --alpb water
          coordinate file            : M1_bisCONHMe.xyz
          omp threads                :                    12


           -------------------------------------------------
          |                 G F N 2 - x T B                 |
           -------------------------------------------------

        Reference                      10.1021/acs.jctc.8b01176
      * Hamiltonian:
        H0-scaling (s, p, d)           1.850000    2.230000    2.230000
        zeta-weighting                 0.500000
      * Dispersion:
        s8                             2.700000
        a1                             0.520000
        a2                             5.000000
        s9                             5.000000
      * Repulsion:
        kExp                           1.500000    1.000000
        rExp                           1.000000
      * Coulomb:
        alpha                          2.000000
        third order                    shell-resolved
        anisotropic                    true
        a3                             3.000000
        a5                             4.000000
        cn-shift                       1.200000
        cn-exp                         4.000000
        max-rad                        5.000000

      * Solvation model:               ALPB
        Solvent                        water
        Parameter file                 internal GFN2-xTB/ALPB
        Dielectric constant                8.0200E+01
        Reference state                gsolv [1 M gas/solution]
        Free energy shift                  1.0808E-03 Eh       6.7819E-01 kcal/mol
        Temperature                        2.9815E+02 K
        Density                            1.0000E+00 kg/L
        Solvent mass                       1.8000E+01 g/mol
        Interaction kernel             P16
        Born radius scaling (c1)           1.4744E+00
        Born radii integrator          GBOBC
        Born offset                        0.0000E+00 a0       0.0000E+00 AA
        H-bond correction              true
        Ion screening                  false
        Surface tension                    1.0000E-05 Eh       1.5569E+01 dyn/cm
        Grid points                               230 per atom

          ...................................................
          :                      SETUP                      :
          :.................................................:
          :  # basis functions                 180          :
          :  # atomic orbitals                 180          :
          :  # shells                          104          :
          :  # electrons                       198          :
          :  max. iterations                   250          :
          :  Hamiltonian                  GFN2-xTB          :
          :  restarted?                      false          :
          :  GBSA solvation                   true          :
          :  PC potential                    false          :
          :  electronic temp.          300.0000000     K    :
          :  accuracy                    1.0000000          :
          :  -> integral cutoff          0.2500000E+02      :
          :  -> integral neglect         0.1000000E-07      :
          :  -> SCF convergence          0.1000000E-05 Eh   :
          :  -> wf. convergence          0.1000000E-03 e    :
          :  Broyden damping             0.4000000          :
          :  net charge                          0          :
          :  unpaired electrons                  0          :
          ...................................................

 iter      E             dE          RMSdq      gap      omega  full diag
   1   -112.8579749 -0.112858E+03  0.465E+00    1.81       0.0  T
   2   -113.1335754 -0.275600E+00  0.251E+00    1.15       1.0  T
   3   -113.1430639 -0.948844E-02  0.123E+00    0.72       1.0  T
   4   -113.1502592 -0.719534E-02  0.499E-01    0.53       1.0  T
   5   -113.1582178 -0.795864E-02  0.101E-01    0.43       1.0  T
   6   -113.1583524 -0.134520E-03  0.547E-02    0.44       1.0  T
   7   -113.1583885 -0.361287E-04  0.282E-02    0.45       1.0  T
   8   -113.1583999 -0.114436E-04  0.923E-03    0.47       1.3  T
   9   -113.1584016 -0.163348E-05  0.457E-03    0.47       2.7  T
  10   -113.1584018 -0.223751E-06  0.230E-03    0.47       5.4  T
  11   -113.1584019 -0.747961E-07  0.918E-04    0.47      13.4  T
  12   -113.1584019 -0.173269E-07  0.404E-04    0.47      30.5  T

   *** convergence criteria satisfied after 12 iterations ***

         #    Occupation            Energy/Eh            Energy/eV
      -------------------------------------------------------------
         1        2.0000           -0.7944479             -21.6180
       ...           ...                  ...                  ...
        93        2.0000           -0.4075754             -11.0907
        94        2.0000           -0.4018753             -10.9356
        95        2.0000           -0.4009996             -10.9118
        96        2.0000           -0.3958138             -10.7706
        97        2.0000           -0.3939332             -10.7195
        98        2.0000           -0.3934118             -10.7053
        99        1.9998           -0.3638829              -9.9018 (HOMO)
       100        0.0002           -0.3466256              -9.4322 (LUMO)
       101                         -0.3056166              -8.3162
       102                         -0.2650313              -7.2119
       103                         -0.2563778              -6.9764
       104                         -0.2529615              -6.8834
       ...                                ...                  ...
       180                          0.6454448              17.5634
      -------------------------------------------------------------
                  HL-Gap            0.0172573 Eh            0.4696 eV
             Fermi-level           -0.3552542 Eh           -9.6670 eV

 SCC (total)                   0 d,  0 h,  0 min,  0.089 sec
 SCC setup                      ...        0 min,  0.001 sec (  1.493%)
 Dispersion                     ...        0 min,  0.002 sec (  2.175%)
 classical contributions        ...        0 min,  0.000 sec (  0.191%)
 integral evaluation            ...        0 min,  0.005 sec (  5.820%)
 iterations                     ...        0 min,  0.063 sec ( 70.985%)
 molecular gradient             ...        0 min,  0.017 sec ( 18.626%)
 printout                       ...        0 min,  0.001 sec (  0.678%)

         :::::::::::::::::::::::::::::::::::::::::::::::::::::
         ::                     SUMMARY                     ::
         :::::::::::::::::::::::::::::::::::::::::::::::::::::
         :: total energy            -111.822501849547 Eh    ::
         :: total w/o Gsasa/hb      -111.818118791330 Eh    ::
         :: gradient norm              0.130751851766 Eh/a0 ::
         :: HOMO-LUMO gap              0.469594837446 eV    ::
         ::.................................................::
         :: SCC energy              -113.158269326684 Eh    ::
         :: -> isotropic ES            0.237785648857 Eh    ::
         :: -> anisotropic ES          0.009856307739 Eh    ::
         :: -> anisotropic XC          0.046908720232 Eh    ::
         :: -> dispersion             -0.073671029937 Eh    ::
         :: -> Gsolv                  -0.053706682530 Eh    ::
         ::    -> Gelec               -0.049323624313 Eh    ::
         ::    -> Gsasa                0.004370994779 Eh    ::
         ::    -> Ghb                 -0.009834812695 Eh    ::
         ::    -> Gshift               0.001080759698 Eh    ::
         :: repulsion energy           1.335767477136 Eh    ::
         :: add. restraining           0.000000000000 Eh    ::
         :: total charge               0.000000000000 e     ::
         :::::::::::::::::::::::::::::::::::::::::::::::::::::

      ----------------------------------------------------------- 
     |                   =====================                   |
     |                        A N C O P T                        |
     |                   =====================                   |
     |               Approximate Normal Coordinate               |
     |                Rational Function Optimizer                |
      ----------------------------------------------------------- 
      ----------------------------------------------------------- 
     |                   =====================                   |
     |                        A N C O P T                        |
     |                   =====================                   |
     |               Approximate Normal Coordinate               |
     |                Rational Function Optimizer                |
      ----------------------------------------------------------- 

          ...................................................
          :                      SETUP                      :
          :.................................................:
          :   optimization level            normal          :
          :   max. optcycles                   200          :
          :   ANC micro-cycles                  20          :
          :   degrees of freedom               192          :
          :.................................................:
          :   RF solver                   davidson          :
          :   write xtbopt.log                true          :
          :   linear?                        false          :
          :   energy convergence         0.5000000E-05 Eh   :
          :   grad. convergence          0.1000000E-02 Eh/α :
          :   maxmium RF displ.          1.0000000          :
          :   Hlow (freq-cutoff)         0.1000000E-01      :
          :   Hmax (freq-cutoff)         5.0000000          :
          :   S6 in model hess.         20.0000000          :
          ...................................................

generating ANC from exact Hessian ...
Using Lindh-Hessian (1995)
 Shifting diagonal of input Hessian by    9.9209158680555083E-003
 Lowest  eigenvalues of input Hessian
    0.000000    0.000000    0.000000    0.000000    0.000000    0.000000
    0.010000    0.010024    0.010037    0.010284    0.010535    0.010699
    0.010831    0.011037    0.011144    0.011427    0.011687    0.012669
 Highest eigenvalues
    1.973096    2.176630    2.247678    2.269607    2.270289    2.522049


........................................................................
.............................. CYCLE    1 ..............................
........................................................................

 iter      E             dE          RMSdq      gap      omega  full diag
   1   -113.1584019 -0.113158E+03  0.186E-04    0.47       0.0  T
   2   -113.1584019 -0.527905E-09  0.122E-04    0.47     100.9  T
   3   -113.1584019 -0.192827E-09  0.839E-05    0.47     146.6  T
     SCC iter.                  ...        0 min,  0.017 sec
     gradient                   ...        0 min,  0.015 sec
 * total energy  :  -111.8225019 Eh     change       -0.1875151E-08 Eh
   gradient norm :     0.1307499 Eh/α   predicted     0.0000000E+00 (-100.00%)
   displ. norm   :     0.3519299 α      lambda       -0.2363246E-01
   maximum displ.:     0.1065843 α      in ANC's #18, #62, #102, ...

........................................................................
.............................. CYCLE    2 ..............................
........................................................................

 iter      E             dE          RMSdq      gap      omega  full diag
   1   -113.2245469 -0.113225E+03  0.208E-01    0.71       0.0  T
   2   -113.2250981 -0.551178E-03  0.123E-01    0.76       1.0  T
   3   -113.2251315 -0.334250E-04  0.608E-02    0.76       1.0  T
   4   -113.2251451 -0.135803E-04  0.169E-02    0.77       1.0  T
   5   -113.2251568 -0.116724E-04  0.504E-03    0.77       2.4  T
   6   -113.2251572 -0.396708E-06  0.256E-03    0.77       4.8  T
   7   -113.2251572 -0.354108E-07  0.114E-03    0.77      10.8  T
   8   -113.2251572 -0.220786E-07  0.411E-04    0.77      29.9  T
   9   -113.2251573 -0.384978E-08  0.194E-04    0.77      63.4  T
     SCC iter.                  ...        0 min,  0.037 sec
     gradient                   ...        0 min,  0.015 sec
 * total energy  :  -111.8389275 Eh     change       -0.1642568E-01 Eh
   gradient norm :     0.0570818 Eh/α   predicted    -0.1329742E-01 ( -19.04%)
   displ. norm   :     0.3949740 α      lambda       -0.8593087E-02
   maximum displ.:     0.1700180 α      in ANC's #18, #16, #23, ...

........................................................................
.............................. CYCLE    3 ..............................
........................................................................

 iter      E             dE          RMSdq      gap      omega  full diag
   1   -113.2637465 -0.113264E+03  0.151E-01    0.84       0.0  T
   2   -113.2641954 -0.448873E-03  0.881E-02    0.90       1.0  T
   3   -113.2642324 -0.370111E-04  0.469E-02    0.90       1.0  T
   4   -113.2642324  0.474796E-07  0.157E-02    0.91       1.0  T
   5   -113.2642421 -0.968876E-05  0.374E-03    0.91       3.3  T
   6   -113.2642423 -0.190420E-06  0.194E-03    0.91       6.3  T
   7   -113.2642423 -0.283078E-07  0.921E-04    0.91      13.4  T
   8   -113.2642423 -0.118538E-07  0.343E-04    0.91      35.9  T
     SCC iter.                  ...        0 min,  0.039 sec
     gradient                   ...        0 min,  0.016 sec
 * total energy  :  -111.8437923 Eh     change       -0.4864770E-02 Eh
   gradient norm :     0.0202974 Eh/α   predicted    -0.4966824E-02 (   2.10%)
   displ. norm   :     0.3901918 α      lambda       -0.3299217E-02
   maximum displ.:     0.1709522 α      in ANC's #18, #16, #12, ...

........................................................................
.............................. CYCLE    4 ..............................
........................................................................

 iter      E             dE          RMSdq      gap      omega  full diag
   1   -113.2724262 -0.113272E+03  0.987E-02    0.84       0.0  T
   2   -113.2724957 -0.694888E-04  0.567E-02    0.88       1.0  T
   3   -113.2724958 -0.143790E-06  0.236E-02    0.89       1.0  T
   4   -113.2725018 -0.598936E-05  0.705E-03    0.90       1.7  T
   5   -113.2725039 -0.207180E-05  0.254E-03    0.90       4.8  T
   6   -113.2725039 -0.573296E-07  0.122E-03    0.90      10.1  T
   7   -113.2725040 -0.141208E-07  0.541E-04    0.90      22.8  T
   8   -113.2725040 -0.570286E-08  0.221E-04    0.90      55.6  T
     SCC iter.                  ...        0 min,  0.032 sec
     gradient                   ...        0 min,  0.015 sec
 * total energy  :  -111.8456366 Eh     change       -0.1844291E-02 Eh
   gradient norm :     0.0235629 Eh/α   predicted    -0.1900760E-02 (   3.06%)
   displ. norm   :     0.4102906 α      lambda       -0.2414653E-02
   maximum displ.:     0.1837304 α      in ANC's #16, #18, #7, ...

........................................................................
.............................. CYCLE    5 ..............................
........................................................................

 iter      E             dE          RMSdq      gap      omega  full diag
   1   -113.2725407 -0.113273E+03  0.769E-02    0.85       0.0  T
   2   -113.2725626 -0.219199E-04  0.447E-02    0.86       1.0  T
   3   -113.2725620  0.668551E-06  0.135E-02    0.87       1.0  T
   4   -113.2725657 -0.368939E-05  0.453E-03    0.88       2.7  T
   5   -113.2725663 -0.676873E-06  0.212E-03    0.88       5.8  T
   6   -113.2725664 -0.261968E-07  0.845E-04    0.88      14.6  T
   7   -113.2725664 -0.106555E-07  0.336E-04    0.88      36.6  T
     SCC iter.                  ...        0 min,  0.036 sec
     gradient                   ...        0 min,  0.019 sec
 * total energy  :  -111.8474380 Eh     change       -0.1801367E-02 Eh
   gradient norm :     0.0141704 Eh/α   predicted    -0.1410570E-02 ( -21.69%)
   displ. norm   :     0.4795678 α      lambda       -0.1701160E-02
   maximum displ.:     0.2140832 α      in ANC's #16, #7, #8, ...

........................................................................
.............................. CYCLE    6 ..............................
........................................................................

 iter      E             dE          RMSdq      gap      omega  full diag
   1   -113.2733943 -0.113273E+03  0.867E-02    0.82       0.0  T
   2   -113.2734178 -0.234592E-04  0.508E-02    0.83       1.0  T
   3   -113.2734178  0.150939E-07  0.147E-02    0.84       1.0  T
   4   -113.2734215 -0.376313E-05  0.404E-03    0.84       3.0  T
   5   -113.2734218 -0.307301E-06  0.216E-03    0.84       5.7  T
   6   -113.2734219 -0.256199E-07  0.612E-04    0.84      20.1  T
   7   -113.2734219 -0.772694E-08  0.242E-04    0.84      50.9  T
     SCC iter.                  ...        0 min,  0.029 sec
     gradient                   ...        0 min,  0.016 sec
 * total energy  :  -111.8486773 Eh     change       -0.1239332E-02 Eh
   gradient norm :     0.0129434 Eh/α   predicted    -0.1046237E-02 ( -15.58%)
   displ. norm   :     0.4791909 α      lambda       -0.1147965E-02
   maximum displ.:     0.2154942 α      in ANC's #7, #8, #16, ...

........................................................................
.............................. CYCLE    7 ..............................
........................................................................

 iter      E             dE          RMSdq      gap      omega  full diag
   1   -113.2751701 -0.113275E+03  0.788E-02    0.83       0.0  T
   2   -113.2751805 -0.103716E-04  0.461E-02    0.83       1.0  T
   3   -113.2751792  0.130415E-05  0.110E-02    0.83       1.1  T
   4   -113.2751828 -0.359425E-05  0.328E-03    0.83       3.7  T
   5   -113.2751830 -0.203531E-06  0.167E-03    0.83       7.4  T
   6   -113.2751830 -0.137401E-07  0.534E-04    0.83      23.1  T
   7   -113.2751830 -0.574596E-08  0.215E-04    0.83      57.4  T
     SCC iter.                  ...        0 min,  0.036 sec
     gradient                   ...        0 min,  0.016 sec
 * total energy  :  -111.8495961 Eh     change       -0.9187578E-03 Eh
   gradient norm :     0.0137405 Eh/α   predicted    -0.7057881E-03 ( -23.18%)
   displ. norm   :     0.5347509 α      lambda       -0.1188908E-02
   maximum displ.:     0.2694855 α      in ANC's #8, #7, #16, ...

........................................................................
.............................. CYCLE    8 ..............................
........................................................................

 iter      E             dE          RMSdq      gap      omega  full diag
   1   -113.2781411 -0.113278E+03  0.839E-02    0.85       0.0  T
   2   -113.2781506 -0.949501E-05  0.491E-02    0.84       1.0  T
   3   -113.2781488  0.179410E-05  0.110E-02    0.84       1.1  T
   4   -113.2781530 -0.416955E-05  0.343E-03    0.84       3.6  T
   5   -113.2781532 -0.224051E-06  0.165E-03    0.84       7.5  T
   6   -113.2781532 -0.150924E-07  0.641E-04    0.84      19.2  T
   7   -113.2781532 -0.650084E-08  0.241E-04    0.84      51.0  T
     SCC iter.                  ...        0 min,  0.029 sec
     gradient                   ...        0 min,  0.017 sec
 * total energy  :  -111.8505592 Eh     change       -0.9631510E-03 Eh
   gradient norm :     0.0112024 Eh/α   predicted    -0.7644515E-03 ( -20.63%)
   displ. norm   :     0.5561059 α      lambda       -0.1064156E-02
   maximum displ.:     0.2954525 α      in ANC's #8, #7, #16, ...

........................................................................
.............................. CYCLE    9 ..............................
........................................................................

 iter      E             dE          RMSdq      gap      omega  full diag
   1   -113.2803810 -0.113280E+03  0.859E-02    0.83       0.0  T
   2   -113.2803930 -0.119799E-04  0.500E-02    0.83       1.0  T
   3   -113.2803928  0.233190E-06  0.106E-02    0.83       1.2  T
   4   -113.2803955 -0.267680E-05  0.350E-03    0.83       3.5  T
   5   -113.2803957 -0.248474E-06  0.181E-03    0.83       6.8  T
   6   -113.2803957 -0.256146E-07  0.550E-04    0.83      22.4  T
   7   -113.2803957 -0.483028E-08  0.222E-04    0.83      55.5  T
     SCC iter.                  ...        0 min,  0.036 sec
     gradient                   ...        0 min,  0.016 sec
 * total energy  :  -111.8513988 Eh     change       -0.8396451E-03 Eh
   gradient norm :     0.0088540 Eh/α   predicted    -0.6966364E-03 ( -17.03%)
   displ. norm   :     0.5259593 α      lambda       -0.7830549E-03
   maximum displ.:     0.2932419 α      in ANC's #8, #7, #31, ...

........................................................................
.............................. CYCLE   10 ..............................
........................................................................

 iter      E             dE          RMSdq      gap      omega  full diag
   1   -113.2817964 -0.113282E+03  0.792E-02    0.84       0.0  T
   2   -113.2818061 -0.962761E-05  0.461E-02    0.83       1.0  T
   3   -113.2818064 -0.310386E-06  0.863E-03    0.83       1.4  T
   4   -113.2818080 -0.162217E-05  0.278E-03    0.83       4.4  T
   5   -113.2818081 -0.917685E-07  0.151E-03    0.83       8.1  T
   6   -113.2818081 -0.323039E-07  0.520E-04    0.83      23.7  T
   7   -113.2818081 -0.369171E-08  0.195E-04    0.83      63.2  T
     SCC iter.                  ...        0 min,  0.030 sec
     gradient                   ...        0 min,  0.016 sec
 * total energy  :  -111.8519969 Eh     change       -0.5980479E-03 Eh
   gradient norm :     0.0082209 Eh/α   predicted    -0.4998383E-03 ( -16.42%)
   displ. norm   :     0.5152295 α      lambda       -0.5866208E-03
   maximum displ.:     0.2793263 α      in ANC's #7, #8, #5, ...

........................................................................
.............................. CYCLE   11 ..............................
........................................................................

 iter      E             dE          RMSdq      gap      omega  full diag
   1   -113.2800567 -0.113280E+03  0.769E-02    0.77       0.0  T
   2   -113.2800687 -0.120842E-04  0.446E-02    0.78       1.0  T
   3   -113.2800697 -0.918452E-06  0.876E-03    0.79       1.4  T
   4   -113.2800709 -0.126182E-05  0.306E-03    0.79       4.0  T
   5   -113.2800711 -0.145683E-06  0.159E-03    0.79       7.7  T
   6   -113.2800711 -0.278560E-07  0.642E-04    0.79      19.2  T
   7   -113.2800711 -0.468405E-08  0.200E-04    0.79      61.5  T
     SCC iter.                  ...        0 min,  0.034 sec
     gradient                   ...        0 min,  0.016 sec
 * total energy  :  -111.8524304 Eh     change       -0.4334690E-03 Eh
   gradient norm :     0.0085447 Eh/α   predicted    -0.3711771E-03 ( -14.37%)
   displ. norm   :     0.5204298 α      lambda       -0.7040168E-03
   maximum displ.:     0.2845093 α      in ANC's #7, #8, #5, ...

........................................................................
.............................. CYCLE   12 ..............................
........................................................................

 iter      E             dE          RMSdq      gap      omega  full diag
   1   -113.2843855 -0.113284E+03  0.820E-02    0.84       0.0  T
   2   -113.2844107 -0.251742E-04  0.470E-02    0.83       1.0  T
   3   -113.2844109 -0.272438E-06  0.135E-02    0.83       1.0  T
   4   -113.2844132 -0.226410E-05  0.396E-03    0.83       3.1  T
   5   -113.2844136 -0.405990E-06  0.174E-03    0.83       7.1  T
   6   -113.2844136 -0.273084E-07  0.820E-04    0.83      15.0  T
   7   -113.2844136 -0.539472E-08  0.277E-04    0.83      44.4  T
     SCC iter.                  ...        0 min,  0.029 sec
     gradient                   ...        0 min,  0.014 sec
 * total energy  :  -111.8528429 Eh     change       -0.4125365E-03 Eh
   gradient norm :     0.0119155 Eh/α   predicted    -0.4473496E-03 (   8.44%)
   displ. norm   :     0.4827264 α      lambda       -0.5051030E-03
   maximum displ.:     0.2649585 α      in ANC's #7, #8, #5, ...

........................................................................
.............................. CYCLE   13 ..............................
........................................................................

 iter      E             dE          RMSdq      gap      omega  full diag
   1   -113.2799655 -0.113280E+03  0.712E-02    0.76       0.0  T
   2   -113.2799755 -0.100277E-04  0.413E-02    0.77       1.0  T
   3   -113.2799765 -0.962299E-06  0.698E-03    0.78       1.8  T
   4   -113.2799773 -0.763489E-06  0.270E-03    0.78       4.6  T
   5   -113.2799774 -0.110800E-06  0.132E-03    0.78       9.3  T
   6   -113.2799774 -0.963193E-08  0.531E-04    0.78      23.2  T
   7   -113.2799774 -0.539005E-08  0.168E-04    0.78      73.5  T
     SCC iter.                  ...        0 min,  0.032 sec
     gradient                   ...        0 min,  0.017 sec
 * total energy  :  -111.8532000 Eh     change       -0.3571221E-03 Eh
   gradient norm :     0.0075334 Eh/α   predicted    -0.3114053E-03 ( -12.80%)
   displ. norm   :     0.3771557 α      lambda       -0.4851646E-03
   maximum displ.:     0.1808263 α      in ANC's #5, #7, #8, ...

........................................................................
.............................. CYCLE   14 ..............................
........................................................................

 iter      E             dE          RMSdq      gap      omega  full diag
   1   -113.2845791 -0.113285E+03  0.617E-02    0.72       0.0  T
   2   -113.2845931 -0.140277E-04  0.352E-02    0.73       1.0  T
   3   -113.2845935 -0.368841E-06  0.949E-03    0.73       1.3  T
   4   -113.2845947 -0.127791E-05  0.256E-03    0.73       4.8  T
   5   -113.2845949 -0.112546E-06  0.133E-03    0.73       9.3  T
   6   -113.2845949 -0.165998E-07  0.556E-04    0.73      22.1  T
   7   -113.2845949 -0.490650E-08  0.197E-04    0.73      62.3  T
     SCC iter.                  ...        0 min,  0.029 sec
     gradient                   ...        0 min,  0.014 sec
 * total energy  :  -111.8534749 Eh     change       -0.2748334E-03 Eh
   gradient norm :     0.0104591 Eh/α   predicted    -0.2770898E-03 (   0.82%)
   displ. norm   :     0.4339344 α      lambda       -0.4252525E-03
   maximum displ.:     0.2114307 α      in ANC's #7, #5, #8, ...

........................................................................
.............................. CYCLE   15 ..............................
........................................................................

 iter      E             dE          RMSdq      gap      omega  full diag
   1   -113.2806021 -0.113281E+03  0.670E-02    0.75       0.0  T
   2   -113.2806105 -0.846018E-05  0.386E-02    0.75       1.0  T
   3   -113.2806111 -0.537992E-06  0.670E-03    0.75       1.8  T
   4   -113.2806117 -0.568376E-06  0.237E-03    0.75       5.2  T
   5   -113.2806117 -0.919563E-07  0.119E-03    0.75      10.3  T
   6   -113.2806118 -0.171083E-07  0.441E-04    0.75      27.9  T
   7   -113.2806118 -0.181171E-08  0.162E-04    0.75      75.9  T
     SCC iter.                  ...        0 min,  0.033 sec
     gradient                   ...        0 min,  0.017 sec
 * total energy  :  -111.8536996 Eh     change       -0.2247077E-03 Eh
   gradient norm :     0.0100022 Eh/α   predicted    -0.2526728E-03 (  12.45%)
   displ. norm   :     0.2213646 α      lambda       -0.3098935E-03
   maximum displ.:     0.1254488 α      in ANC's #5, #7, #8, ...

........................................................................
.............................. CYCLE   16 ..............................
........................................................................

 iter      E             dE          RMSdq      gap      omega  full diag
   1   -113.2844123 -0.113284E+03  0.402E-02    0.77       0.0  T
   2   -113.2844187 -0.637120E-05  0.232E-02    0.77       1.0  T
   3   -113.2844187 -0.233505E-07  0.710E-03    0.77       1.7  T
   4   -113.2844195 -0.710515E-06  0.220E-03    0.77       5.6  T
   5   -113.2844196 -0.123719E-06  0.960E-04    0.77      12.8  T
   6   -113.2844196 -0.420404E-08  0.341E-04    0.77      36.1  T
     SCC iter.                  ...        0 min,  0.025 sec
     gradient                   ...        0 min,  0.016 sec
 * total energy  :  -111.8539156 Eh     change       -0.2160616E-03 Eh
   gradient norm :     0.0058355 Eh/α   predicted    -0.1625407E-03 ( -24.77%)
   displ. norm   :     0.4046244 α      lambda       -0.3731007E-03
   maximum displ.:     0.2255396 α      in ANC's #5, #7, #8, ...

........................................................................
.............................. CYCLE   17 ..............................
........................................................................

 iter      E             dE          RMSdq      gap      omega  full diag
   1   -113.2874658 -0.113287E+03  0.670E-02    0.76       0.0  T
   2   -113.2874740 -0.813372E-05  0.386E-02    0.75       1.0  T
   3   -113.2874742 -0.195950E-06  0.724E-03    0.75       1.7  T
   4   -113.2874753 -0.113784E-05  0.265E-03    0.75       4.7  T
   5   -113.2874754 -0.122641E-06  0.120E-03    0.75      10.3  T
   6   -113.2874754 -0.104533E-07  0.366E-04    0.75      33.7  T
   7   -113.2874754 -0.104602E-08  0.144E-04    0.75      85.4  T
     SCC iter.                  ...        0 min,  0.030 sec
     gradient                   ...        0 min,  0.015 sec
 * total energy  :  -111.8541838 Eh     change       -0.2682247E-03 Eh
   gradient norm :     0.0074087 Eh/α   predicted    -0.2170975E-03 ( -19.06%)
   displ. norm   :     0.4386445 α      lambda       -0.3371603E-03
   maximum displ.:     0.2564546 α      in ANC's #5, #7, #8, ...

........................................................................
.............................. CYCLE   18 ..............................
........................................................................

 iter      E             dE          RMSdq      gap      omega  full diag
   1   -113.2871917 -0.113287E+03  0.741E-02    0.75       0.0  T
   2   -113.2872058 -0.141257E-04  0.422E-02    0.75       1.0  T
   3   -113.2872068 -0.937146E-06  0.957E-03    0.75       1.3  T
   4   -113.2872074 -0.672865E-06  0.229E-03    0.75       5.4  T
   5   -113.2872075 -0.211017E-07  0.123E-03    0.75      10.0  T
   6   -113.2872075 -0.372373E-07  0.384E-04    0.75      32.1  T
   7   -113.2872075 -0.301360E-08  0.183E-04    0.75      67.4  T
     SCC iter.                  ...        0 min,  0.034 sec
     gradient                   ...        0 min,  0.015 sec
 * total energy  :  -111.8544172 Eh     change       -0.2333450E-03 Eh
   gradient norm :     0.0082287 Eh/α   predicted    -0.2010217E-03 ( -13.85%)
   displ. norm   :     0.4482278 α      lambda       -0.2943019E-03
   maximum displ.:     0.2580135 α      in ANC's #5, #7, #14, ...

........................................................................
.............................. CYCLE   19 ..............................
........................................................................

 iter      E             dE          RMSdq      gap      omega  full diag
   1   -113.2860106 -0.113286E+03  0.719E-02    0.73       0.0  T
   2   -113.2860153 -0.476084E-05  0.416E-02    0.74       1.0  T
   3   -113.2860162 -0.827058E-06  0.476E-03    0.74       2.6  T
   4   -113.2860166 -0.425322E-06  0.240E-03    0.74       5.1  T
   5   -113.2860167 -0.678023E-07  0.117E-03    0.74      10.5  T
   6   -113.2860167 -0.254716E-07  0.320E-04    0.74      38.5  T
   7   -113.2860167 -0.161985E-08  0.158E-04    0.74      77.9  T
     SCC iter.                  ...        0 min,  0.031 sec
     gradient                   ...        0 min,  0.017 sec
 * total energy  :  -111.8546135 Eh     change       -0.1963435E-03 Eh
   gradient norm :     0.0084887 Eh/α   predicted    -0.1767153E-03 ( -10.00%)
   displ. norm   :     0.2911332 α      lambda       -0.2754478E-03
   maximum displ.:     0.1726330 α      in ANC's #5, #14, #12, ...

........................................................................
.............................. CYCLE   20 ..............................
........................................................................

 iter      E             dE          RMSdq      gap      omega  full diag
   1   -113.2883625 -0.113288E+03  0.547E-02    0.75       0.0  T
   2   -113.2883686 -0.611302E-05  0.315E-02    0.75       1.0  T
   3   -113.2883682  0.364515E-06  0.709E-03    0.75       1.7  T
   4   -113.2883695 -0.130640E-05  0.234E-03    0.75       5.3  T
   5   -113.2883697 -0.127499E-06  0.996E-04    0.75      12.4  T
   6   -113.2883697 -0.296797E-08  0.446E-04    0.75      27.6  T
     SCC iter.                  ...        0 min,  0.026 sec
     gradient                   ...        0 min,  0.014 sec
 * total energy  :  -111.8547417 Eh     change       -0.1281771E-03 Eh
   gradient norm :     0.0080162 Eh/α   predicted    -0.1493965E-03 (  16.55%)
   displ. norm   :     0.3929777 α      lambda       -0.2742276E-03
   maximum displ.:     0.2084162 α      in ANC's #5, #7, #8, ...
 * RMSD in coord.:     0.8494055 α      energy gain  -0.3223987E-01 Eh

generating ANC from exact Hessian ...
Using Lindh-Hessian (1995)
 Shifting diagonal of input Hessian by    9.9080198608043294E-003
 Lowest  eigenvalues of input Hessian
    0.000000    0.000000    0.000000    0.000000    0.000000    0.000000
    0.010000    0.010027    0.010031    0.010294    0.010472    0.010769
    0.010877    0.011078    0.011290    0.011815    0.011955    0.012665
 Highest eigenvalues
    2.076489    2.294475    2.313629    2.319205    2.355016    2.630427


........................................................................
.............................. CYCLE   21 ..............................
........................................................................

 iter      E             dE          RMSdq      gap      omega  full diag
   1   -113.2840024 -0.113284E+03  0.691E-02    0.72       0.0  T
   2   -113.2840088 -0.643078E-05  0.399E-02    0.72       1.0  T
   3   -113.2840074  0.141816E-05  0.935E-03    0.72       1.3  T
   4   -113.2840106 -0.313644E-05  0.263E-03    0.73       4.7  T
   5   -113.2840106 -0.757006E-07  0.129E-03    0.73       9.5  T
   6   -113.2840106 -0.890273E-08  0.368E-04    0.73      33.5  T
   7   -113.2840106 -0.251825E-08  0.179E-04    0.73      68.6  T
     SCC iter.                  ...        0 min,  0.039 sec
     gradient                   ...        0 min,  0.015 sec
 * total energy  :  -111.8548705 Eh     change       -0.1288198E-03 Eh
   gradient norm :     0.0090532 Eh/α   predicted     0.0000000E+00 (-100.00%)
   displ. norm   :     0.0698769 α      lambda       -0.1994673E-03
   maximum displ.:     0.0313444 α      in ANC's #28, #4, #10, ...

........................................................................
.............................. CYCLE   22 ..............................
........................................................................

 iter      E             dE          RMSdq      gap      omega  full diag
   1   -113.2876488 -0.113288E+03  0.193E-02    0.74       0.0  T
   2   -113.2876504 -0.163103E-05  0.113E-02    0.74       1.1  T
   3   -113.2876502  0.190691E-06  0.529E-03    0.74       2.3  T
   4   -113.2876509 -0.738943E-06  0.127E-03    0.74       9.7  T
   5   -113.2876510 -0.165037E-07  0.632E-04    0.74      19.5  T
   6   -113.2876510 -0.841666E-09  0.253E-04    0.74      48.7  T
     SCC iter.                  ...        0 min,  0.025 sec
     gradient                   ...        0 min,  0.014 sec
 * total energy  :  -111.8550257 Eh     change       -0.1551978E-03 Eh
   gradient norm :     0.0037307 Eh/α   predicted    -0.1010131E-03 ( -34.91%)
   displ. norm   :     0.1621662 α      lambda       -0.2236508E-03
   maximum displ.:     0.0724256 α      in ANC's #28, #4, #10, ...

........................................................................
.............................. CYCLE   23 ..............................
........................................................................

 iter      E             dE          RMSdq      gap      omega  full diag
   1   -113.2905766 -0.113291E+03  0.354E-02    0.74       0.0  T
   2   -113.2905810 -0.444905E-05  0.208E-02    0.73       1.0  T
   3   -113.2905803  0.762404E-06  0.912E-03    0.74       1.3  T
   4   -113.2905830 -0.271474E-05  0.238E-03    0.74       5.2  T
   5   -113.2905830 -0.199782E-07  0.108E-03    0.74      11.4  T
   6   -113.2905830 -0.101662E-07  0.307E-04    0.74      40.1  T
   7   -113.2905830 -0.206734E-08  0.123E-04    0.74     100.0  T
     SCC iter.                  ...        0 min,  0.038 sec
     gradient                   ...        0 min,  0.016 sec
 * total energy  :  -111.8551796 Eh     change       -0.1539061E-03 Eh
   gradient norm :     0.0039925 Eh/α   predicted    -0.1147686E-03 ( -25.43%)
   displ. norm   :     0.1822039 α      lambda       -0.1364565E-03
   maximum displ.:     0.0744508 α      in ANC's #4, #28, #10, ...

........................................................................
.............................. CYCLE   24 ..............................
........................................................................

 iter      E             dE          RMSdq      gap      omega  full diag
   1   -113.2905477 -0.113291E+03  0.367E-02    0.72       0.0  T
   2   -113.2905519 -0.416478E-05  0.214E-02    0.72       1.0  T
   3   -113.2905516  0.305885E-06  0.770E-03    0.72       1.6  T
   4   -113.2905536 -0.201447E-05  0.251E-03    0.72       4.9  T
   5   -113.2905537 -0.316422E-07  0.112E-03    0.72      11.0  T
   6   -113.2905537 -0.978334E-08  0.316E-04    0.72      39.0  T
   7   -113.2905537 -0.180727E-08  0.119E-04    0.72     103.3  T
     SCC iter.                  ...        0 min,  0.028 sec
     gradient                   ...        0 min,  0.015 sec
 * total energy  :  -111.8552819 Eh     change       -0.1022964E-03 Eh
   gradient norm :     0.0062669 Eh/α   predicted    -0.7049393E-04 ( -31.09%)
   displ. norm   :     0.2526709 α      lambda       -0.1617855E-03
   maximum displ.:     0.1080844 α      in ANC's #4, #28, #2, ...

........................................................................
.............................. CYCLE   25 ..............................
........................................................................

 iter      E             dE          RMSdq      gap      omega  full diag
   1   -113.2887699 -0.113289E+03  0.495E-02    0.70       0.0  T
   2   -113.2887753 -0.544015E-05  0.286E-02    0.70       1.0  T
   3   -113.2887754 -0.124311E-06  0.786E-03    0.71       1.6  T
   4   -113.2887776 -0.214442E-05  0.308E-03    0.71       4.0  T
   5   -113.2887776 -0.543543E-07  0.132E-03    0.71       9.3  T
   6   -113.2887776 -0.158446E-07  0.392E-04    0.71      31.4  T
   7   -113.2887777 -0.294503E-08  0.168E-04    0.71      73.4  T
     SCC iter.                  ...        0 min,  0.037 sec
     gradient                   ...        0 min,  0.017 sec
 * total energy  :  -111.8553902 Eh     change       -0.1082262E-03 Eh
   gradient norm :     0.0073446 Eh/α   predicted    -0.8606342E-04 ( -20.48%)
   displ. norm   :     0.2303881 α      lambda       -0.1626538E-03
   maximum displ.:     0.1052689 α      in ANC's #4, #8, #2, ...

........................................................................
.............................. CYCLE   26 ..............................
........................................................................

 iter      E             dE          RMSdq      gap      omega  full diag
   1   -113.2867995 -0.113287E+03  0.449E-02    0.70       0.0  T
   2   -113.2868026 -0.303604E-05  0.259E-02    0.70       1.0  T
   3   -113.2868031 -0.504601E-06  0.467E-03    0.70       2.6  T
   4   -113.2868037 -0.572063E-06  0.234E-03    0.70       5.3  T
   5   -113.2868037 -0.727498E-07  0.115E-03    0.70      10.8  T
   6   -113.2868037 -0.133953E-07  0.316E-04    0.70      38.9  T
   7   -113.2868037 -0.214554E-08  0.136E-04    0.70      90.3  T
     SCC iter.                  ...        0 min,  0.028 sec
     gradient                   ...        0 min,  0.015 sec
 * total energy  :  -111.8555041 Eh     change       -0.1139735E-03 Eh
   gradient norm :     0.0060938 Eh/α   predicted    -0.8565861E-04 ( -24.84%)
   displ. norm   :     0.2784988 α      lambda       -0.2074806E-03
   maximum displ.:     0.1293122 α      in ANC's #4, #8, #2, ...

........................................................................
.............................. CYCLE   27 ..............................
........................................................................

 iter      E             dE          RMSdq      gap      omega  full diag
   1   -113.2856680 -0.113286E+03  0.574E-02    0.73       0.0  T
   2   -113.2856819 -0.139000E-04  0.326E-02    0.73       1.0  T
   3   -113.2856822 -0.363718E-06  0.101E-02    0.73       1.2  T
   4   -113.2856833 -0.107626E-05  0.309E-03    0.73       4.0  T
   5   -113.2856836 -0.269574E-06  0.148E-03    0.73       8.3  T
   6   -113.2856836 -0.191186E-07  0.646E-04    0.73      19.0  T
   7   -113.2856836 -0.397628E-08  0.277E-04    0.73      44.4  T
     SCC iter.                  ...        0 min,  0.036 sec
     gradient                   ...        0 min,  0.016 sec
 * total energy  :  -111.8556145 Eh     change       -0.1103613E-03 Eh
   gradient norm :     0.0073595 Eh/α   predicted    -0.1117957E-03 (   1.30%)
   displ. norm   :     0.3236121 α      lambda       -0.1462761E-03
   maximum displ.:     0.1511956 α      in ANC's #4, #2, #8, ...

........................................................................
.............................. CYCLE   28 ..............................
........................................................................

 iter      E             dE          RMSdq      gap      omega  full diag
   1   -113.2846683 -0.113285E+03  0.604E-02    0.69       0.0  T
   2   -113.2846747 -0.647513E-05  0.348E-02    0.70       1.0  T
   3   -113.2846760 -0.129265E-05  0.589E-03    0.70       2.1  T
   4   -113.2846765 -0.439858E-06  0.292E-03    0.70       4.2  T
   5   -113.2846766 -0.104869E-06  0.155E-03    0.70       7.9  T
   6   -113.2846766 -0.331158E-07  0.425E-04    0.70      29.0  T
   7   -113.2846766 -0.263834E-08  0.168E-04    0.70      73.1  T
     SCC iter.                  ...        0 min,  0.029 sec
     gradient                   ...        0 min,  0.016 sec
 * total energy  :  -111.8557231 Eh     change       -0.1085794E-03 Eh
   gradient norm :     0.0067557 Eh/α   predicted    -0.8082304E-04 ( -25.56%)
   displ. norm   :     0.3080543 α      lambda       -0.1855455E-03
   maximum displ.:     0.1438230 α      in ANC's #4, #2, #8, ...

........................................................................
.............................. CYCLE   29 ..............................
........................................................................

 iter      E             dE          RMSdq      gap      omega  full diag
   1   -113.2873517 -0.113287E+03  0.547E-02    0.71       0.0  T
   2   -113.2873551 -0.337086E-05  0.315E-02    0.71       1.0  T
   3   -113.2873559 -0.766975E-06  0.398E-03    0.71       3.1  T
   4   -113.2873561 -0.235090E-06  0.203E-03    0.71       6.1  T
   5   -113.2873561 -0.155095E-07  0.102E-03    0.71      12.0  T
   6   -113.2873561 -0.239711E-07  0.247E-04    0.71      49.8  T
   7   -113.2873561 -0.925709E-09  0.128E-04    0.71      96.4  T
     SCC iter.                  ...        0 min,  0.032 sec
     gradient                   ...        0 min,  0.018 sec
 * total energy  :  -111.8558578 Eh     change       -0.1347392E-03 Eh
   gradient norm :     0.0059332 Eh/α   predicted    -0.1015799E-03 ( -24.61%)
   displ. norm   :     0.3899712 α      lambda       -0.1825110E-03
   maximum displ.:     0.1807636 α      in ANC's #4, #2, #3, ...

........................................................................
.............................. CYCLE   30 ..............................
........................................................................

 iter      E             dE          RMSdq      gap      omega  full diag
   1   -113.2884742 -0.113288E+03  0.693E-02    0.71       0.0  T
   2   -113.2884804 -0.620629E-05  0.397E-02    0.71       1.0  T
   3   -113.2884816 -0.125874E-05  0.528E-03    0.71       2.3  T
   4   -113.2884819 -0.301630E-06  0.242E-03    0.71       5.1  T
   5   -113.2884819 -0.687379E-08  0.124E-03    0.71      10.0  T
   6   -113.2884820 -0.394569E-07  0.299E-04    0.71      41.1  T
   7   -113.2884820 -0.102590E-08  0.150E-04    0.71      81.9  T
     SCC iter.                  ...        0 min,  0.028 sec
     gradient                   ...        0 min,  0.015 sec
 * total energy  :  -111.8560023 Eh     change       -0.1444384E-03 Eh
   gradient norm :     0.0054117 Eh/α   predicted    -0.1051344E-03 ( -27.21%)
   displ. norm   :     0.4246963 α      lambda       -0.2296494E-03
   maximum displ.:     0.1939971 α      in ANC's #2, #4, #3, ...

........................................................................
.............................. CYCLE   31 ..............................
........................................................................

 iter      E             dE          RMSdq      gap      omega  full diag
   1   -113.2910941 -0.113291E+03  0.751E-02    0.74       0.0  T
   2   -113.2911076 -0.135823E-04  0.426E-02    0.73       1.0  T
   3   -113.2911091 -0.147972E-05  0.853E-03    0.73       1.4  T
   4   -113.2911096 -0.500305E-06  0.251E-03    0.73       4.9  T
   5   -113.2911096 -0.110331E-07  0.123E-03    0.73      10.0  T
   6   -113.2911097 -0.356282E-07  0.387E-04    0.73      31.8  T
   7   -113.2911097 -0.185618E-08  0.172E-04    0.73      71.7  T
     SCC iter.                  ...        0 min,  0.030 sec
     gradient                   ...        0 min,  0.017 sec
 * total energy  :  -111.8561671 Eh     change       -0.1648422E-03 Eh
   gradient norm :     0.0066417 Eh/α   predicted    -0.1355502E-03 ( -17.77%)
   displ. norm   :     0.6605608 α      lambda       -0.2460975E-03
   maximum displ.:     0.3053577 α      in ANC's #4, #2, #3, ...

........................................................................
.............................. CYCLE   32 ..............................
........................................................................

 iter      E             dE          RMSdq      gap      omega  full diag
   1   -113.2854056 -0.113285E+03  0.116E-01    0.69       0.0  T
   2   -113.2854212 -0.155966E-04  0.665E-02    0.69       1.0  T
   3   -113.2854247 -0.347442E-05  0.815E-03    0.70       1.5  T
   4   -113.2854254 -0.694882E-06  0.431E-03    0.70       2.9  T
   5   -113.2854256 -0.258464E-06  0.208E-03    0.70       5.9  T
   6   -113.2854257 -0.597135E-07  0.636E-04    0.70      19.4  T
   7   -113.2854257 -0.714864E-08  0.259E-04    0.70      47.5  T
     SCC iter.                  ...        0 min,  0.032 sec
     gradient                   ...        0 min,  0.015 sec
 * total energy  :  -111.8562980 Eh     change       -0.1308784E-03 Eh
   gradient norm :     0.0100886 Eh/α   predicted    -0.1767436E-03 (  35.04%)
   displ. norm   :     0.2213565 α      lambda       -0.2670311E-03
   maximum displ.:     0.1139989 α      in ANC's #2, #3, #5, ...

........................................................................
.............................. CYCLE   33 ..............................
........................................................................

 iter      E             dE          RMSdq      gap      omega  full diag
   1   -113.2882419 -0.113288E+03  0.360E-02    0.70       0.0  T
   2   -113.2882477 -0.580514E-05  0.207E-02    0.70       1.0  T
   3   -113.2882471  0.664033E-06  0.856E-03    0.70       1.4  T
   4   -113.2882489 -0.180055E-05  0.190E-03    0.70       6.5  T
   5   -113.2882490 -0.851688E-07  0.828E-04    0.70      14.9  T
   6   -113.2882490 -0.586199E-08  0.341E-04    0.70      36.1  T
     SCC iter.                  ...        0 min,  0.026 sec
     gradient                   ...        0 min,  0.016 sec
 * total energy  :  -111.8564624 Eh     change       -0.1643814E-03 Eh
   gradient norm :     0.0072684 Eh/α   predicted    -0.1400696E-03 ( -14.79%)
   displ. norm   :     0.4287118 α      lambda       -0.1911388E-03
   maximum displ.:     0.2220086 α      in ANC's #2, #3, #4, ...

........................................................................
.............................. CYCLE   34 ..............................
........................................................................

 iter      E             dE          RMSdq      gap      omega  full diag
   1   -113.2874755 -0.113287E+03  0.678E-02    0.71       0.0  T
   2   -113.2874815 -0.597847E-05  0.389E-02    0.71       1.0  T
   3   -113.2874823 -0.854516E-06  0.551E-03    0.71       2.2  T
   4   -113.2874829 -0.552558E-06  0.264E-03    0.71       4.7  T
   5   -113.2874830 -0.126324E-06  0.122E-03    0.71      10.1  T
   6   -113.2874830 -0.151418E-07  0.424E-04    0.71      29.0  T
   7   -113.2874830 -0.285586E-08  0.189E-04    0.71      65.0  T
     SCC iter.                  ...        0 min,  0.031 sec
     gradient                   ...        0 min,  0.016 sec
 * total energy  :  -111.8566043 Eh     change       -0.1419713E-03 Eh
   gradient norm :     0.0059461 Eh/α   predicted    -0.1131421E-03 ( -20.31%)
   displ. norm   :     0.4961926 α      lambda       -0.2039096E-03
   maximum displ.:     0.2715762 α      in ANC's #2, #3, #4, ...

........................................................................
.............................. CYCLE   35 ..............................
........................................................................

 iter      E             dE          RMSdq      gap      omega  full diag
   1   -113.2877264 -0.113288E+03  0.702E-02    0.70       0.0  T
   2   -113.2877314 -0.505088E-05  0.405E-02    0.70       1.0  T
   3   -113.2877321 -0.711120E-06  0.558E-03    0.70       2.2  T
   4   -113.2877330 -0.852124E-06  0.272E-03    0.70       4.5  T
   5   -113.2877331 -0.100621E-06  0.124E-03    0.70       9.9  T
   6   -113.2877331 -0.177480E-07  0.304E-04    0.70      40.5  T
   7   -113.2877331 -0.143848E-08  0.165E-04    0.70      74.8  T
     SCC iter.                  ...        0 min,  0.029 sec
     gradient                   ...        0 min,  0.017 sec
 * total energy  :  -111.8567687 Eh     change       -0.1643345E-03 Eh
   gradient norm :     0.0057170 Eh/α   predicted    -0.1270600E-03 ( -22.68%)
   displ. norm   :     0.4276145 α      lambda       -0.2443845E-03
   maximum displ.:     0.2517361 α      in ANC's #2, #3, #5, ...

........................................................................
.............................. CYCLE   36 ..............................
........................................................................

 iter      E             dE          RMSdq      gap      omega  full diag
   1   -113.2925030 -0.113293E+03  0.551E-02    0.71       0.0  T
   2   -113.2925097 -0.663326E-05  0.317E-02    0.71       1.0  T
   3   -113.2925093  0.385259E-06  0.759E-03    0.71       1.6  T
   4   -113.2925108 -0.148306E-05  0.246E-03    0.71       5.0  T
   5   -113.2925109 -0.171576E-06  0.113E-03    0.71      10.9  T
   6   -113.2925110 -0.795083E-08  0.329E-04    0.71      37.4  T
   7   -113.2925110 -0.733081E-09  0.125E-04    0.71      98.7  T
     SCC iter.                  ...        0 min,  0.036 sec
     gradient                   ...        0 min,  0.016 sec
 * total energy  :  -111.8569163 Eh     change       -0.1476452E-03 Eh
   gradient norm :     0.0080572 Eh/α   predicted    -0.1445362E-03 (  -2.11%)
   displ. norm   :     0.7186846 α      lambda       -0.2695670E-03
   maximum displ.:     0.3963929 α      in ANC's #2, #3, #4, ...

........................................................................
.............................. CYCLE   37 ..............................
........................................................................

 iter      E             dE          RMSdq      gap      omega  full diag
   1   -113.2869505 -0.113287E+03  0.102E-01    0.65       0.0  T
   2   -113.2869680 -0.174839E-04  0.587E-02    0.66       1.0  T
   3   -113.2869697 -0.169958E-05  0.977E-03    0.66       1.3  T
   4   -113.2869714 -0.169622E-05  0.453E-03    0.66       2.7  T
   5   -113.2869719 -0.479204E-06  0.199E-03    0.66       6.2  T
   6   -113.2869719 -0.214669E-07  0.570E-04    0.66      21.6  T
   7   -113.2869719 -0.524103E-08  0.224E-04    0.66      55.0  T
     SCC iter.                  ...        0 min,  0.033 sec
     gradient                   ...        0 min,  0.017 sec
 * total energy  :  -111.8570519 Eh     change       -0.1356175E-03 Eh
   gradient norm :     0.0113556 Eh/α   predicted    -0.2044030E-03 (  50.72%)
   displ. norm   :     0.1708654 α      lambda       -0.1698203E-03
   maximum displ.:     0.1010569 α      in ANC's #2, #5, #3, ...

........................................................................
.............................. CYCLE   38 ..............................
........................................................................

 iter      E             dE          RMSdq      gap      omega  full diag
   1   -113.2886756 -0.113289E+03  0.229E-02    0.68       0.0  T
   2   -113.2886784 -0.276844E-05  0.130E-02    0.68       1.0  T
   3   -113.2886785 -0.718953E-07  0.450E-03    0.68       2.7  T
   4   -113.2886786 -0.112918E-06  0.116E-03    0.68      10.6  T
   5   -113.2886786 -0.536542E-07  0.522E-04    0.68      23.6  T
   6   -113.2886786 -0.468553E-08  0.241E-04    0.68      51.1  T
     SCC iter.                  ...        0 min,  0.030 sec
     gradient                   ...        0 min,  0.016 sec
 * total energy  :  -111.8571922 Eh     change       -0.1402297E-03 Eh
   gradient norm :     0.0072277 Eh/α   predicted    -0.8738972E-04 ( -37.68%)
   displ. norm   :     0.5229421 α      lambda       -0.2969959E-03
   maximum displ.:     0.3115270 α      in ANC's #2, #3, #5, ...

........................................................................
.............................. CYCLE   39 ..............................
........................................................................

 iter      E             dE          RMSdq      gap      omega  full diag
   1   -113.2896727 -0.113290E+03  0.624E-02    0.69       0.0  T
   2   -113.2896782 -0.548926E-05  0.361E-02    0.69       1.0  T
   3   -113.2896786 -0.428095E-06  0.564E-03    0.69       2.2  T
   4   -113.2896793 -0.688978E-06  0.222E-03    0.69       5.6  T
   5   -113.2896794 -0.925557E-07  0.118E-03    0.69      10.4  T
   6   -113.2896794 -0.210498E-07  0.358E-04    0.69      34.3  T
   7   -113.2896794 -0.187563E-08  0.161E-04    0.69      76.3  T
     SCC iter.                  ...        0 min,  0.033 sec
     gradient                   ...        0 min,  0.017 sec
 * total energy  :  -111.8574176 Eh     change       -0.2254924E-03 Eh
   gradient norm :     0.0048348 Eh/α   predicted    -0.1891081E-03 ( -16.14%)
   displ. norm   :     0.6811448 α      lambda       -0.2328022E-03
   maximum displ.:     0.4082202 α      in ANC's #2, #3, #5, ...

........................................................................
.............................. CYCLE   40 ..............................
........................................................................

 iter      E             dE          RMSdq      gap      omega  full diag
   1   -113.2884137 -0.113288E+03  0.822E-02    0.68       0.0  T
   2   -113.2884210 -0.728058E-05  0.477E-02    0.68       1.0  T
   3   -113.2884214 -0.400085E-06  0.734E-03    0.68       1.7  T
   4   -113.2884231 -0.165848E-05  0.302E-03    0.68       4.1  T
   5   -113.2884232 -0.125357E-06  0.142E-03    0.68       8.7  T
   6   -113.2884232 -0.171700E-07  0.384E-04    0.68      32.0  T
   7   -113.2884232 -0.132282E-08  0.199E-04    0.68      61.8  T
     SCC iter.                  ...        0 min,  0.030 sec
     gradient                   ...        0 min,  0.015 sec
 * total energy  :  -111.8576021 Eh     change       -0.1844954E-03 Eh
   gradient norm :     0.0061980 Eh/α   predicted    -0.1704094E-03 (  -7.63%)
   displ. norm   :     0.5909687 α      lambda       -0.2417674E-03
   maximum displ.:     0.3569520 α      in ANC's #2, #3, #5, ...

........................................................................
.............................. CYCLE   41 ..............................
........................................................................

 iter      E             dE          RMSdq      gap      omega  full diag
   1   -113.2888045 -0.113289E+03  0.686E-02    0.67       0.0  T
   2   -113.2888089 -0.445880E-05  0.399E-02    0.67       1.0  T
   3   -113.2888099 -0.100806E-05  0.465E-03    0.67       2.6  T
   4   -113.2888104 -0.422291E-06  0.242E-03    0.67       5.1  T
   5   -113.2888104 -0.594716E-07  0.111E-03    0.67      11.1  T
   6   -113.2888104 -0.172654E-07  0.333E-04    0.67      37.0  T
   7   -113.2888104 -0.177481E-08  0.162E-04    0.67      75.9  T
     SCC iter.                  ...        0 min,  0.030 sec
     gradient                   ...        0 min,  0.016 sec
 * total energy  :  -111.8577690 Eh     change       -0.1669059E-03 Eh
   gradient norm :     0.0066106 Eh/α   predicted    -0.1631036E-03 (  -2.28%)
   displ. norm   :     0.5572277 α      lambda       -0.1658409E-03
   maximum displ.:     0.3455859 α      in ANC's #2, #3, #5, ...

........................................................................
.............................. CYCLE   42 ..............................
........................................................................

 iter      E             dE          RMSdq      gap      omega  full diag
   1   -113.2884584 -0.113288E+03  0.644E-02    0.66       0.0  T
   2   -113.2884639 -0.549795E-05  0.374E-02    0.66       1.0  T
   3   -113.2884641 -0.165659E-06  0.624E-03    0.67       2.0  T
   4   -113.2884652 -0.107167E-05  0.240E-03    0.67       5.1  T
   5   -113.2884653 -0.962699E-07  0.117E-03    0.67      10.5  T
   6   -113.2884653 -0.112275E-07  0.372E-04    0.67      33.1  T
   7   -113.2884653 -0.135867E-08  0.182E-04    0.67      67.5  T
     SCC iter.                  ...        0 min,  0.032 sec
     gradient                   ...        0 min,  0.016 sec
 * total energy  :  -111.8578917 Eh     change       -0.1226088E-03 Eh
   gradient norm :     0.0060561 Eh/α   predicted    -0.1086729E-03 ( -11.37%)
   displ. norm   :     0.3492198 α      lambda       -0.1891993E-03
   maximum displ.:     0.2211318 α      in ANC's #2, #3, #5, ...
 * RMSD in coord.:     0.9436433 α      energy gain  -0.3149941E-02 Eh

generating ANC from exact Hessian ...
Using Lindh-Hessian (1995)
 Shifting diagonal of input Hessian by    9.9106251775182407E-003
 Lowest  eigenvalues of input Hessian
    0.000000    0.000000    0.000000    0.000000    0.000000    0.000000
    0.010000    0.010023    0.010039    0.010304    0.010433    0.010774
    0.010923    0.011148    0.011342    0.011773    0.011979    0.012736
 Highest eigenvalues
    2.079807    2.319518    2.321492    2.323385    2.349775    2.638110


........................................................................
.............................. CYCLE   43 ..............................
........................................................................

 iter      E             dE          RMSdq      gap      omega  full diag
   1   -113.2967165 -0.113297E+03  0.447E-02    0.68       0.0  T
   2   -113.2967228 -0.632970E-05  0.259E-02    0.69       1.0  T
   3   -113.2967229 -0.619717E-07  0.669E-03    0.69       1.8  T
   4   -113.2967236 -0.724002E-06  0.187E-03    0.69       6.6  T
   5   -113.2967237 -0.743605E-07  0.980E-04    0.69      12.6  T
   6   -113.2967237 -0.632068E-08  0.448E-04    0.69      27.5  T
     SCC iter.                  ...        0 min,  0.033 sec
     gradient                   ...        0 min,  0.016 sec
 * total energy  :  -111.8579505 Eh     change       -0.5886210E-04 Eh
   gradient norm :     0.0070365 Eh/α   predicted     0.0000000E+00 (-100.00%)
   displ. norm   :     0.0576360 α      lambda       -0.1357991E-03
   maximum displ.:     0.0245979 α      in ANC's #16, #3, #10, ...

........................................................................
.............................. CYCLE   44 ..............................
........................................................................

 iter      E             dE          RMSdq      gap      omega  full diag
   1   -113.2932631 -0.113293E+03  0.153E-02    0.68       0.0  T
   2   -113.2932641 -0.101021E-05  0.881E-03    0.68       1.4  T
   3   -113.2932641  0.516941E-07  0.313E-03    0.68       3.9  T
   4   -113.2932643 -0.197771E-06  0.947E-04    0.68      13.0  T
   5   -113.2932643 -0.234518E-07  0.438E-04    0.68      28.1  T
     SCC iter.                  ...        0 min,  0.022 sec
     gradient                   ...        0 min,  0.016 sec
 * total energy  :  -111.8580514 Eh     change       -0.1008726E-03 Eh
   gradient norm :     0.0025501 Eh/α   predicted    -0.6819702E-04 ( -32.39%)
   displ. norm   :     0.1108945 α      lambda       -0.1098140E-03
   maximum displ.:     0.0455984 α      in ANC's #16, #3, #10, ...

........................................................................
.............................. CYCLE   45 ..............................
........................................................................

 iter      E             dE          RMSdq      gap      omega  full diag
   1   -113.2901971 -0.113290E+03  0.229E-02    0.68       0.0  T
   2   -113.2901984 -0.137905E-05  0.133E-02    0.68       1.0  T
   3   -113.2901983  0.136778E-06  0.410E-03    0.68       3.0  T
   4   -113.2901988 -0.520413E-06  0.136E-03    0.68       9.1  T
   5   -113.2901989 -0.264804E-07  0.704E-04    0.68      17.5  T
   6   -113.2901989 -0.165268E-08  0.227E-04    0.68      54.1  T
     SCC iter.                  ...        0 min,  0.032 sec
     gradient                   ...        0 min,  0.016 sec
 * total energy  :  -111.8581235 Eh     change       -0.7208624E-04 Eh
   gradient norm :     0.0026934 Eh/α   predicted    -0.5558321E-04 ( -22.89%)
   displ. norm   :     0.1076526 α      lambda       -0.5691841E-04
   maximum displ.:     0.0493656 α      in ANC's #3, #16, #10, ...

........................................................................
.............................. CYCLE   46 ..............................
........................................................................

 iter      E             dE          RMSdq      gap      omega  full diag
   1   -113.2893913 -0.113289E+03  0.187E-02    0.68       0.0  T
   2   -113.2893919 -0.584294E-06  0.110E-02    0.68       1.1  T
   3   -113.2893919  0.245126E-07  0.279E-03    0.68       4.4  T
   4   -113.2893922 -0.295627E-06  0.108E-03    0.68      11.4  T
   5   -113.2893922 -0.520319E-08  0.437E-04    0.68      28.2  T
   6   -113.2893922 -0.164115E-08  0.146E-04    0.68      84.1  T
     SCC iter.                  ...        0 min,  0.025 sec
     gradient                   ...        0 min,  0.015 sec
 * total energy  :  -111.8581656 Eh     change       -0.4211778E-04 Eh
   gradient norm :     0.0037242 Eh/α   predicted    -0.2883887E-04 ( -31.53%)
   displ. norm   :     0.1863720 α      lambda       -0.8516786E-04
   maximum displ.:     0.0891746 α      in ANC's #3, #10, #16, ...

........................................................................
.............................. CYCLE   47 ..............................
........................................................................

 iter      E             dE          RMSdq      gap      omega  full diag
   1   -113.2893479 -0.113289E+03  0.320E-02    0.67       0.0  T
   2   -113.2893495 -0.155645E-05  0.187E-02    0.67       1.0  T
   3   -113.2893498 -0.310290E-06  0.373E-03    0.67       3.3  T
   4   -113.2893502 -0.395382E-06  0.180E-03    0.67       6.8  T
   5   -113.2893502 -0.212701E-07  0.700E-04    0.67      17.6  T
   6   -113.2893502 -0.465596E-08  0.194E-04    0.67      63.4  T
     SCC iter.                  ...        0 min,  0.031 sec
     gradient                   ...        0 min,  0.017 sec
 * total energy  :  -111.8582204 Eh     change       -0.5476710E-04 Eh
   gradient norm :     0.0042139 Eh/α   predicted    -0.4406972E-04 ( -19.53%)
   displ. norm   :     0.1637477 α      lambda       -0.7692687E-04
   maximum displ.:     0.0868959 α      in ANC's #3, #10, #16, ...

........................................................................
.............................. CYCLE   48 ..............................
........................................................................

 iter      E             dE          RMSdq      gap      omega  full diag
   1   -113.2907467 -0.113291E+03  0.275E-02    0.68       0.0  T
   2   -113.2907481 -0.140539E-05  0.160E-02    0.68       1.0  T
   3   -113.2907484 -0.270311E-06  0.295E-03    0.68       4.2  T
   4   -113.2907485 -0.138383E-06  0.134E-03    0.68       9.2  T
   5   -113.2907486 -0.153480E-07  0.719E-04    0.68      17.1  T
   6   -113.2907486 -0.814825E-08  0.154E-04    0.68      79.9  T
     SCC iter.                  ...        0 min,  0.025 sec
     gradient                   ...        0 min,  0.014 sec
 * total energy  :  -111.8582761 Eh     change       -0.5572474E-04 Eh
   gradient norm :     0.0026408 Eh/α   predicted    -0.3949486E-04 ( -29.13%)
   displ. norm   :     0.1988186 α      lambda       -0.7893215E-04
   maximum displ.:     0.1106270 α      in ANC's #3, #10, #4, ...

........................................................................
.............................. CYCLE   49 ..............................
........................................................................

 iter      E             dE          RMSdq      gap      omega  full diag
   1   -113.2922351 -0.113292E+03  0.333E-02    0.69       0.0  T
   2   -113.2922366 -0.145591E-05  0.194E-02    0.69       1.0  T
   3   -113.2922369 -0.275225E-06  0.308E-03    0.69       4.0  T
   4   -113.2922371 -0.228541E-06  0.154E-03    0.69       8.0  T
   5   -113.2922371 -0.301928E-07  0.693E-04    0.69      17.8  T
   6   -113.2922371 -0.441142E-08  0.208E-04    0.69      59.2  T
     SCC iter.                  ...        0 min,  0.028 sec
     gradient                   ...        0 min,  0.016 sec
 * total energy  :  -111.8583376 Eh     change       -0.6147323E-04 Eh
   gradient norm :     0.0021152 Eh/α   predicted    -0.4102747E-04 ( -33.26%)
   displ. norm   :     0.2764559 α      lambda       -0.8367362E-04
   maximum displ.:     0.1551156 α      in ANC's #3, #10, #4, ...

........................................................................
.............................. CYCLE   50 ..............................
........................................................................

 iter      E             dE          RMSdq      gap      omega  full diag
   1   -113.2922416 -0.113292E+03  0.460E-02    0.69       0.0  T
   2   -113.2922438 -0.220167E-05  0.267E-02    0.69       1.0  T
   3   -113.2922444 -0.596976E-06  0.367E-03    0.69       3.4  T
   4   -113.2922447 -0.319305E-06  0.201E-03    0.69       6.1  T
   5   -113.2922447 -0.399868E-07  0.618E-04    0.69      19.9  T
   6   -113.2922447 -0.522607E-08  0.228E-04    0.69      54.0  T
     SCC iter.                  ...        0 min,  0.027 sec
     gradient                   ...        0 min,  0.016 sec
 * total energy  :  -111.8584029 Eh     change       -0.6532716E-04 Eh
   gradient norm :     0.0026156 Eh/α   predicted    -0.4504001E-04 ( -31.05%)
   displ. norm   :     0.2656138 α      lambda       -0.7509513E-04
   maximum displ.:     0.1536857 α      in ANC's #3, #4, #10, ...

........................................................................
.............................. CYCLE   51 ..............................
........................................................................

 iter      E             dE          RMSdq      gap      omega  full diag
   1   -113.2920654 -0.113292E+03  0.431E-02    0.70       0.0  T
   2   -113.2920673 -0.191450E-05  0.249E-02    0.70       1.0  T
   3   -113.2920677 -0.332215E-06  0.356E-03    0.70       3.5  T
   4   -113.2920680 -0.393271E-06  0.173E-03    0.70       7.1  T
   5   -113.2920681 -0.195131E-07  0.628E-04    0.70      19.6  T
   6   -113.2920681 -0.776252E-08  0.198E-04    0.70      62.1  T
     SCC iter.                  ...        0 min,  0.027 sec
     gradient                   ...        0 min,  0.016 sec
 * total energy  :  -111.8584592 Eh     change       -0.5636109E-04 Eh
   gradient norm :     0.0029525 Eh/α   predicted    -0.4021464E-04 ( -28.65%)
   displ. norm   :     0.2164320 α      lambda       -0.5699298E-04
   maximum displ.:     0.1283492 α      in ANC's #3, #4, #10, ...

........................................................................
.............................. CYCLE   52 ..............................
........................................................................

 iter      E             dE          RMSdq      gap      omega  full diag
   1   -113.2917231 -0.113292E+03  0.330E-02    0.70       0.0  T
   2   -113.2917245 -0.135664E-05  0.190E-02    0.70       1.0  T
   3   -113.2917247 -0.242296E-06  0.274E-03    0.70       4.5  T
   4   -113.2917249 -0.184679E-06  0.132E-03    0.70       9.3  T
   5   -113.2917249 -0.135796E-07  0.612E-04    0.70      20.1  T
   6   -113.2917249 -0.648777E-08  0.158E-04    0.70      77.8  T
     SCC iter.                  ...        0 min,  0.030 sec
     gradient                   ...        0 min,  0.014 sec
 * total energy  :  -111.8585045 Eh     change       -0.4522678E-04 Eh
   gradient norm :     0.0025454 Eh/α   predicted    -0.2983306E-04 ( -34.04%)
   displ. norm   :     0.1992378 α      lambda       -0.6452991E-04
   maximum displ.:     0.1196884 α      in ANC's #3, #4, #1, ...

........................................................................
.............................. CYCLE   53 ..............................
........................................................................

 iter      E             dE          RMSdq      gap      omega  full diag
   1   -113.2922703 -0.113292E+03  0.285E-02    0.70       0.0  T
   2   -113.2922714 -0.103798E-05  0.163E-02    0.70       1.0  T
   3   -113.2922714 -0.800898E-07  0.260E-03    0.70       4.7  T
   4   -113.2922716 -0.208319E-06  0.110E-03    0.70      11.2  T
   5   -113.2922717 -0.141973E-07  0.531E-04    0.70      23.2  T
   6   -113.2922717 -0.341481E-08  0.127E-04    0.70      96.8  T
     SCC iter.                  ...        0 min,  0.027 sec
     gradient                   ...        0 min,  0.016 sec
 * total energy  :  -111.8585532 Eh     change       -0.4872101E-04 Eh
   gradient norm :     0.0024197 Eh/α   predicted    -0.3354743E-04 ( -31.14%)
   displ. norm   :     0.2752816 α      lambda       -0.6865826E-04
   maximum displ.:     0.1661300 α      in ANC's #3, #4, #1, ...

........................................................................
.............................. CYCLE   54 ..............................
........................................................................

 iter      E             dE          RMSdq      gap      omega  full diag
   1   -113.2905468 -0.113291E+03  0.385E-02    0.68       0.0  T
   2   -113.2905499 -0.315355E-05  0.221E-02    0.69       1.0  T
   3   -113.2905504 -0.520701E-06  0.353E-03    0.69       3.5  T
   4   -113.2905505 -0.948702E-07  0.153E-03    0.69       8.1  T
   5   -113.2905506 -0.215068E-07  0.798E-04    0.69      15.4  T
   6   -113.2905506 -0.679697E-08  0.281E-04    0.69      43.8  T
     SCC iter.                  ...        0 min,  0.033 sec
     gradient                   ...        0 min,  0.015 sec
 * total energy  :  -111.8585967 Eh     change       -0.4354376E-04 Eh
   gradient norm :     0.0037587 Eh/α   predicted    -0.3693097E-04 ( -15.19%)
   displ. norm   :     0.1619934 α      lambda       -0.5248963E-04
   maximum displ.:     0.0996705 α      in ANC's #3, #4, #1, ...

........................................................................
.............................. CYCLE   55 ..............................
........................................................................

 iter      E             dE          RMSdq      gap      omega  full diag
   1   -113.2916745 -0.113292E+03  0.220E-02    0.69       0.0  T
   2   -113.2916755 -0.103033E-05  0.126E-02    0.69       1.0  T
   3   -113.2916756 -0.821579E-07  0.244E-03    0.69       5.0  T
   4   -113.2916757 -0.754986E-07  0.861E-04    0.69      14.3  T
   5   -113.2916757 -0.136105E-07  0.456E-04    0.69      27.0  T
     SCC iter.                  ...        0 min,  0.021 sec
     gradient                   ...        0 min,  0.016 sec
 * total energy  :  -111.8586333 Eh     change       -0.3651250E-04 Eh
   gradient norm :     0.0026620 Eh/α   predicted    -0.2693439E-04 ( -26.23%)
   displ. norm   :     0.1716056 α      lambda       -0.4348515E-04
   maximum displ.:     0.1121935 α      in ANC's #3, #4, #1, ...

........................................................................
.............................. CYCLE   56 ..............................
........................................................................

 iter      E             dE          RMSdq      gap      omega  full diag
   1   -113.2919333 -0.113292E+03  0.214E-02    0.69       0.0  T
   2   -113.2919338 -0.486152E-06  0.124E-02    0.69       1.0  T
   3   -113.2919339 -0.773267E-07  0.147E-03    0.69       8.3  T
   4   -113.2919339 -0.494700E-07  0.702E-04    0.69      17.5  T
   5   -113.2919339 -0.503172E-08  0.351E-04    0.69      35.1  T
     SCC iter.                  ...        0 min,  0.026 sec
     gradient                   ...        0 min,  0.016 sec
 * total energy  :  -111.8586692 Eh     change       -0.3595216E-04 Eh
   gradient norm :     0.0020146 Eh/α   predicted    -0.2240021E-04 ( -37.69%)
   displ. norm   :     0.2149919 α      lambda       -0.6073114E-04
   maximum displ.:     0.1415153 α      in ANC's #3, #4, #1, ...

........................................................................
.............................. CYCLE   57 ..............................
........................................................................

 iter      E             dE          RMSdq      gap      omega  full diag
   1   -113.2922992 -0.113292E+03  0.275E-02    0.69       0.0  T
   2   -113.2923001 -0.886799E-06  0.160E-02    0.69       1.0  T
   3   -113.2923002 -0.696559E-07  0.222E-03    0.70       5.5  T
   4   -113.2923003 -0.127627E-06  0.862E-04    0.70      14.3  T
   5   -113.2923003 -0.808905E-08  0.463E-04    0.70      26.6  T
     SCC iter.                  ...        0 min,  0.022 sec
     gradient                   ...        0 min,  0.017 sec
 * total energy  :  -111.8587166 Eh     change       -0.4741171E-04 Eh
   gradient norm :     0.0020883 Eh/α   predicted    -0.3177188E-04 ( -32.99%)
   displ. norm   :     0.2472288 α      lambda       -0.5563254E-04
   maximum displ.:     0.1624365 α      in ANC's #3, #4, #1, ...

........................................................................
.............................. CYCLE   58 ..............................
........................................................................

 iter      E             dE          RMSdq      gap      omega  full diag
   1   -113.2921460 -0.113292E+03  0.314E-02    0.69       0.0  T
   2   -113.2921470 -0.985623E-06  0.183E-02    0.70       1.0  T
   3   -113.2921471 -0.152028E-06  0.219E-03    0.70       5.6  T
   4   -113.2921472 -0.990938E-07  0.970E-04    0.70      12.7  T
   5   -113.2921472 -0.839501E-08  0.510E-04    0.70      24.1  T
     SCC iter.                  ...        0 min,  0.022 sec
     gradient                   ...        0 min,  0.017 sec
 * total energy  :  -111.8587601 Eh     change       -0.4351627E-04 Eh
   gradient norm :     0.0029534 Eh/α   predicted    -0.2951781E-04 ( -32.17%)
   displ. norm   :     0.2487933 α      lambda       -0.5313718E-04
   maximum displ.:     0.1635331 α      in ANC's #3, #1, #4, ...

........................................................................
.............................. CYCLE   59 ..............................
........................................................................

 iter      E             dE          RMSdq      gap      omega  full diag
   1   -113.2922153 -0.113292E+03  0.315E-02    0.70       0.0  T
   2   -113.2922161 -0.735254E-06  0.184E-02    0.70       1.0  T
   3   -113.2922162 -0.152190E-06  0.198E-03    0.70       6.2  T
   4   -113.2922163 -0.857408E-07  0.980E-04    0.70      12.6  T
   5   -113.2922163 -0.848694E-08  0.513E-04    0.70      24.0  T
     SCC iter.                  ...        0 min,  0.024 sec
     gradient                   ...        0 min,  0.015 sec
 * total energy  :  -111.8588024 Eh     change       -0.4228670E-04 Eh
   gradient norm :     0.0031839 Eh/α   predicted    -0.2821406E-04 ( -33.28%)
   displ. norm   :     0.2941019 α      lambda       -0.5634026E-04
   maximum displ.:     0.1938834 α      in ANC's #3, #4, #1, ...

........................................................................
.............................. CYCLE   60 ..............................
........................................................................

 iter      E             dE          RMSdq      gap      omega  full diag
   1   -113.2913639 -0.113291E+03  0.356E-02    0.71       0.0  T
   2   -113.2913647 -0.839052E-06  0.208E-02    0.71       1.0  T
   3   -113.2913649 -0.189361E-06  0.211E-03    0.71       5.8  T
   4   -113.2913650 -0.106432E-06  0.114E-03    0.71      10.8  T
   5   -113.2913650 -0.138219E-07  0.565E-04    0.71      21.8  T
   6   -113.2913651 -0.442549E-08  0.166E-04    0.71      74.3  T
     SCC iter.                  ...        0 min,  0.026 sec
     gradient                   ...        0 min,  0.018 sec
 * total energy  :  -111.8588443 Eh     change       -0.4191205E-04 Eh
   gradient norm :     0.0030265 Eh/α   predicted    -0.3060844E-04 ( -26.97%)
   displ. norm   :     0.2492038 α      lambda       -0.5271366E-04
   maximum displ.:     0.1663033 α      in ANC's #3, #1, #4, ...

........................................................................
.............................. CYCLE   61 ..............................
........................................................................

 iter      E             dE          RMSdq      gap      omega  full diag
   1   -113.2922483 -0.113292E+03  0.303E-02    0.71       0.0  T
   2   -113.2922489 -0.656971E-06  0.177E-02    0.71       1.0  T
   3   -113.2922490 -0.704035E-07  0.210E-03    0.71       5.9  T
   4   -113.2922492 -0.143667E-06  0.106E-03    0.71      11.6  T
   5   -113.2922492 -0.199166E-07  0.539E-04    0.71      22.8  T
   6   -113.2922492 -0.233371E-08  0.168E-04    0.71      73.4  T
     SCC iter.                  ...        0 min,  0.032 sec
     gradient                   ...        0 min,  0.016 sec
 * total energy  :  -111.8588739 Eh     change       -0.2959316E-04 Eh
   gradient norm :     0.0021762 Eh/α   predicted    -0.2799464E-04 (  -5.40%)
   displ. norm   :     0.1927771 α      lambda       -0.3022258E-04
   maximum displ.:     0.1307016 α      in ANC's #3, #1, #4, ...

........................................................................
.............................. CYCLE   62 ..............................
........................................................................

 iter      E             dE          RMSdq      gap      omega  full diag
   1   -113.2913683 -0.113291E+03  0.226E-02    0.72       0.0  T
   2   -113.2913689 -0.547793E-06  0.132E-02    0.72       1.0  T
   3   -113.2913688  0.494810E-07  0.228E-03    0.72       5.4  T
   4   -113.2913690 -0.197150E-06  0.777E-04    0.72      15.8  T
   5   -113.2913690 -0.649327E-08  0.405E-04    0.72      30.4  T
     SCC iter.                  ...        0 min,  0.021 sec
     gradient                   ...        0 min,  0.015 sec
 * total energy  :  -111.8588935 Eh     change       -0.1958061E-04 Eh
   gradient norm :     0.0019815 Eh/α   predicted    -0.1567437E-04 ( -19.95%)
   displ. norm   :     0.1387621 α      lambda       -0.1717623E-04
   maximum displ.:     0.0996778 α      in ANC's #3, #1, #4, ...

........................................................................
.............................. CYCLE   63 ..............................
........................................................................

 iter      E             dE          RMSdq      gap      omega  full diag
   1   -113.2919427 -0.113292E+03  0.169E-02    0.72       0.0  T
   2   -113.2919432 -0.460644E-06  0.978E-03    0.72       1.3  T
   3   -113.2919432  0.210769E-07  0.189E-03    0.72       6.5  T
   4   -113.2919433 -0.935183E-07  0.564E-04    0.72      21.8  T
   5   -113.2919433 -0.663663E-08  0.292E-04    0.72      42.2  T
     SCC iter.                  ...        0 min,  0.028 sec
     gradient                   ...        0 min,  0.018 sec
 * total energy  :  -111.8589121 Eh     change       -0.1858981E-04 Eh
   gradient norm :     0.0016826 Eh/α   predicted    -0.8662888E-05 ( -53.40%)
   displ. norm   :     0.1502141 α      lambda       -0.1645997E-04
   maximum displ.:     0.1091817 α      in ANC's #3, #1, #4, ...

........................................................................
.............................. CYCLE   64 ..............................
........................................................................

 iter      E             dE          RMSdq      gap      omega  full diag
   1   -113.2919824 -0.113292E+03  0.188E-02    0.71       0.0  T
   2   -113.2919831 -0.670604E-06  0.109E-02    0.72       1.1  T
   3   -113.2919831 -0.348221E-07  0.200E-03    0.72       6.2  T
   4   -113.2919832 -0.625191E-07  0.698E-04    0.72      17.6  T
   5   -113.2919832 -0.958632E-08  0.363E-04    0.72      33.9  T
     SCC iter.                  ...        0 min,  0.020 sec
     gradient                   ...        0 min,  0.015 sec
 * total energy  :  -111.8589289 Eh     change       -0.1680635E-04 Eh
   gradient norm :     0.0017029 Eh/α   predicted    -0.8316369E-05 ( -50.52%)
   displ. norm   :     0.1710096 α      lambda       -0.1652362E-04
   maximum displ.:     0.1265963 α      in ANC's #3, #1, #2, ...

........................................................................
.............................. CYCLE   65 ..............................
........................................................................

 iter      E             dE          RMSdq      gap      omega  full diag
   1   -113.2926165 -0.113293E+03  0.209E-02    0.73       0.0  T
   2   -113.2926176 -0.115800E-05  0.121E-02    0.73       1.0  T
   3   -113.2926177 -0.330504E-07  0.264E-03    0.73       4.7  T
   4   -113.2926177 -0.599750E-07  0.688E-04    0.73      17.9  T
   5   -113.2926177 -0.126221E-07  0.346E-04    0.73      35.5  T
     SCC iter.                  ...        0 min,  0.023 sec
     gradient                   ...        0 min,  0.017 sec
 * total energy  :  -111.8589436 Eh     change       -0.1467831E-04 Eh
   gradient norm :     0.0021016 Eh/α   predicted    -0.8372363E-05 ( -42.96%)
   displ. norm   :     0.1502621 α      lambda       -0.1610974E-04
   maximum displ.:     0.1086752 α      in ANC's #3, #1, #4, ...

........................................................................
.............................. CYCLE   66 ..............................
........................................................................

 iter      E             dE          RMSdq      gap      omega  full diag
   1   -113.2923638 -0.113292E+03  0.177E-02    0.73       0.0  T
   2   -113.2923641 -0.311348E-06  0.103E-02    0.73       1.2  T
   3   -113.2923642 -0.577315E-07  0.113E-03    0.73      10.9  T
   4   -113.2923642 -0.156584E-07  0.531E-04    0.73      23.2  T
   5   -113.2923642 -0.243175E-08  0.292E-04    0.73      42.1  T
     SCC iter.                  ...        0 min,  0.023 sec
     gradient                   ...        0 min,  0.015 sec
 * total energy  :  -111.8589572 Eh     change       -0.1366575E-04 Eh
   gradient norm :     0.0014532 Eh/α   predicted    -0.8239956E-05 ( -39.70%)
   displ. norm   :     0.2980075 α      lambda       -0.2024800E-04
   maximum displ.:     0.2175786 α      in ANC's #3, #1, #2, ...
 * RMSD in coord.:     0.5220176 α      energy gain  -0.1065589E-02 Eh

generating ANC from exact Hessian ...
Using Lindh-Hessian (1995)
 Shifting diagonal of input Hessian by    9.9117487589938554E-003
 Lowest  eigenvalues of input Hessian
    0.000000    0.000000    0.000000    0.000000    0.000000    0.000000
    0.010000    0.010017    0.010038    0.010297    0.010423    0.010763
    0.010962    0.011104    0.011330    0.011685    0.011980    0.012773
 Highest eigenvalues
    2.077397    2.313980    2.319263    2.319537    2.343676    2.626817


........................................................................
.............................. CYCLE   67 ..............................
........................................................................

 iter      E             dE          RMSdq      gap      omega  full diag
   1   -113.2920272 -0.113292E+03  0.344E-02    0.73       0.0  T
   2   -113.2920283 -0.113658E-05  0.201E-02    0.73       1.0  T
   3   -113.2920284 -0.127757E-06  0.246E-03    0.73       5.0  T
   4   -113.2920286 -0.129946E-06  0.114E-03    0.73      10.8  T
   5   -113.2920286 -0.238087E-07  0.593E-04    0.73      20.8  T
   6   -113.2920286 -0.289866E-08  0.189E-04    0.73      65.0  T
     SCC iter.                  ...        0 min,  0.031 sec
     gradient                   ...        0 min,  0.015 sec
 * total energy  :  -111.8589773 Eh     change       -0.2003891E-04 Eh
   gradient norm :     0.0015286 Eh/α   predicted     0.0000000E+00 (-100.00%)
   displ. norm   :     0.0188518 α      lambda       -0.3914538E-05
   maximum displ.:     0.0068765 α      in ANC's #3, #6, #5, ...

........................................................................
.............................. CYCLE   68 ..............................
........................................................................

 iter      E             dE          RMSdq      gap      omega  full diag
   1   -113.2923660 -0.113292E+03  0.455E-03    0.74       0.0  T
   2   -113.2923663 -0.246319E-06  0.253E-03    0.73       4.9  T
   3   -113.2923663 -0.109747E-07  0.126E-03    0.73       9.8  T
   4   -113.2923663 -0.647054E-08  0.356E-04    0.73      34.6  T
   5   -113.2923663 -0.435493E-08  0.124E-04    0.73      99.6  T
     SCC iter.                  ...        0 min,  0.023 sec
     gradient                   ...        0 min,  0.017 sec
 * total energy  :  -111.8589822 Eh     change       -0.4882025E-05 Eh
   gradient norm :     0.0004391 Eh/α   predicted    -0.2522722E-05 ( -48.33%)
   displ. norm   :     0.0362994 α      lambda       -0.4344371E-05
   maximum displ.:     0.0139238 α      in ANC's #3, #6, #5, ...

   *** GEOMETRY OPTIMIZATION CONVERGED AFTER 68 ITERATIONS ***

------------------------------------------------------------------------
 total energy gain   :        -0.0364803 Eh      -22.8917 kcal/mol
 total RMSD          :         1.8901639 a0        1.0002 Å
 total power (kW/mol):        -1.4085155 (step)  -24.5651 (real)
------------------------------------------------------------------------

 ANCopt (total)                0 d,  0 h,  0 min,  3.899 sec
 optimizer setup                ...        0 min,  0.000 sec (  0.012%)
 model hessian                  ...        0 min,  0.159 sec (  4.078%)
 ANC generation                 ...        0 min,  0.013 sec (  0.326%)
 coordinate transformation      ...        0 min,  0.003 sec (  0.080%)
 single point calculation       ...        0 min,  3.662 sec ( 93.911%)
 optimization log               ...        0 min,  0.034 sec (  0.862%)
 hessian update                 ...        0 min,  0.009 sec (  0.224%)
 rational function              ...        0 min,  0.014 sec (  0.370%)

================
 final structure:
================
66
 xtb: 6.7.1 (edcfbbe)
C            7.75449441473585       -2.71954243928257       -0.62490190730797
C            6.89038631677241       -1.96819946314300        0.29023808711999
O            6.88153024629798       -2.25774207357193        1.58195383326139
N            6.02194726662358       -1.43943828489328        2.26095390871983
C            5.46960589215370       -0.64656359045070        1.39183176972466
C            4.61681146277332        0.53703215121063        1.73838736501527
O            5.18863707548220        1.61794402398846        1.86744000221799
N            3.31605387756351        0.33211338395477        1.89882019784753
C            2.62341321373143       -0.89023498230573        1.55900506305179
C            1.79645325163072       -0.65856525193426        0.29179364300660
N            0.84482999195728        0.40795222731357        0.54805780035900
C           -0.11681668030974        0.56793750223704       -0.53596704346103
C           -1.12492712677860        1.65164914053188       -0.21888098776689
C           -1.55513242563669        2.52613108505650       -1.20764271748085
C           -2.51068253611404        3.48376714228712       -0.92612107659974
C           -3.06691972833924        3.57658510060112        0.34556424918963
C           -4.08432753063475        4.63725912197011        0.59343420088974
O           -4.06066117820393        5.71107327876025       -0.01151118190987
N           -5.02251606837238        4.33583435926574        1.50379837569112
C           -6.08930439457456        5.23699045440302        1.87201924622166
C           -2.62643000370359        2.70739669951290        1.34098241563956
C           -1.66778435926500        1.75481259046719        1.05718994909375
C           -0.93472322700716       -0.68735488999430       -0.74996558440305
C           -1.36834009905775       -1.02429868359331       -2.02570593451545
C           -2.17975124701139       -2.12523794084351       -2.22995188608931
C           -2.56324904099857       -2.91922947919009       -1.15351296253215
C           -3.41781795608017       -4.12983086988183       -1.31485338227649
O           -3.25956796117779       -5.13277854783585       -0.61719099266162
N           -4.36967574919761       -4.03959311130934       -2.25614757082114
C           -5.30034092333487       -5.10519562798307       -2.54706367168259
C           -2.10607435029439       -2.59723527909745        0.12131973591764
C           -1.31422471447407       -1.48491372356379        0.32405850324082
C            1.57611530968413        1.63546297731126        0.82082740692819
C            2.41263944469120        1.44972585305993        2.08569896081074
C            5.98712595683109       -0.92800987604214        0.08687012232012
N            5.60193718792401       -0.31377152213182       -1.10543050766857
O            6.22871149734944       -0.56780623742238       -2.12196975519280
O            4.63502993557137        0.43596288565007       -1.07167730971106
H            7.88257101661822       -3.73533233584525       -0.26216209240401
H            8.73593789112279       -2.24565324717806       -0.66094129134738
H            7.34219759797434       -2.69952380695605       -1.63027382894359
H            3.33553871098706       -1.70064619982883        1.41293389093450
H            1.95441204735743       -1.14168977228443        2.38466503007136
H            1.26047986233314       -1.57182536628659        0.03288690118680
H            2.47496144155664       -0.39542147585173       -0.54108620536897
H            0.39834679053206        0.82568795798585       -1.48080021731791
H           -1.13573572654749        2.46664549627685       -2.20097473711701
H           -2.84098497897891        4.17703513521845       -1.68545459020325
H           -5.02776119982082        3.41827038563749        1.92133526375904
H           -5.93763567048626        6.17062193693235        1.33275025743814
H           -6.06625002650327        5.42921784834393        2.94439173279135
H           -7.05696060383113        4.81560920417549        1.59925617004052
H           -3.00540190614916        2.78969390700929        2.34783169759625
H           -1.31895934050594        1.09068628744863        1.83048367766792
H           -1.06777784122906       -0.42090080885438       -2.86942877487339
H           -2.48138530619625       -2.37961602197514       -3.23454107364357
H           -4.48876407940400       -3.17210704908803       -2.75548414460334
H           -5.04341130475387       -5.95269535644922       -1.91375170031808
H           -6.32131856855982       -4.78970238604776       -2.33239307397470
H           -5.22404581011268       -5.39791057794228       -3.59396723649059
H           -2.39044605555840       -3.23404876962627        0.94547925132591
H           -0.97138608248939       -1.23618040306362        1.31465385525966
H            0.87176942076739        2.45370268593041        0.96981288138975
H            2.24741273359221        1.89642027960846       -0.01732317437579
H            3.00635903253822        2.34081814496949        2.28993417952624
H            1.76178391452051        1.22875520465518        2.93340498757798

 Bond Distances (Angstroems)
 ---------------------------
C1-C2=1.4658         C1-H39=1.0862        C1-H40=1.0905        C1-H41=1.0868        C2-C1=1.4658         C2-O3=1.3238         
C2-C35=1.3926        O3-C2=1.3238         O3-N4=1.3673         N4-O3=1.3673         N4-C5=1.2997         C5-N4=1.2997         
C5-C6=1.4994         C5-C35=1.4318        C6-C5=1.4994         C6-O7=1.2296         C6-N8=1.3265         O7-C6=1.2296         
N8-C6=1.3265         N8-C9=1.4455         N8-C34=1.4492        C9-N8=1.4455         C9-C10=1.5308        C9-H42=1.0887        
C9-H43=1.0920        C10-C9=1.5308        C10-N11=1.4521       C10-H44=1.0901       C10-H45=1.1060       N11-C10=1.4521       
N11-C12=1.4579       N11-C33=1.4546       C12-N11=1.4579       C12-C13=1.5137       C12-C23=1.5134       C12-H46=1.1066       
C13-C12=1.5137       C13-C14=1.3883       C13-C22=1.3906       C14-C13=1.3883       C14-C15=1.3818       C14-H47=1.0799       
C15-C14=1.3818       C15-C16=1.3911       C15-H48=1.0800       C16-C15=1.3911       C16-C17=1.4905       C16-C21=1.3930       
C17-C16=1.4905       C17-O18=1.2327       C17-N19=1.3416       O18-C17=1.2327       N19-C17=1.3416       N19-C20=1.4442       
N19-H49=1.0081       C20-N19=1.4442       C20-H50=1.0888       C20-H51=1.0897       C20-H52=1.0901       C21-C16=1.3930       
C21-C22=1.3809       C21-H53=1.0790       C22-C13=1.3906       C22-C21=1.3809       C22-H54=1.0774       C23-C12=1.5134       
C23-C24=1.3889       C23-C32=1.3906       C24-C23=1.3889       C24-C25=1.3828       C24-H55=1.0800       C25-C24=1.3828       
C25-C26=1.3915       C25-H56=1.0793       C26-C25=1.3915       C26-C27=1.4906       C26-C31=1.3921       C27-C26=1.4906       
C27-O28=1.2319       C27-N29=1.3417       O28-C27=1.2319       N29-C27=1.3417       N29-C30=1.4444       N29-H57=1.0080       
C30-N29=1.4444       C30-H58=1.0887       C30-H59=1.0900       C30-H60=1.0897       C31-C26=1.3921       C31-C32=1.3804       
C31-H61=1.0796       C32-C23=1.3906       C32-C31=1.3804       C32-H62=1.0774       C33-N11=1.4546       C33-C34=1.5278       
C33-H63=1.0899       C33-H64=1.1051       C34-N8=1.4492        C34-C33=1.5278       C34-H65=1.0901       C34-H66=1.0914       
C35-C2=1.3926        C35-C5=1.4318        C35-N36=1.3954       N36-C35=1.3954       N36-O37=1.2210       N36-O38=1.2240       
O37-N36=1.2210       O38-N36=1.2240       H39-C1=1.0862        H40-C1=1.0905        H41-C1=1.0868        H42-C9=1.0887        
H43-C9=1.0920        H44-C10=1.0901       H45-C10=1.1060       H46-C12=1.1066       H47-C14=1.0799       H48-C15=1.0800       
H49-N19=1.0081       H50-C20=1.0888       H51-C20=1.0897       H52-C20=1.0901       H53-C21=1.0790       H54-C22=1.0774       
H55-C24=1.0800       H56-C25=1.0793       H57-N29=1.0080       H58-C30=1.0887       H59-C30=1.0900       H60-C30=1.0897       
H61-C31=1.0796       H62-C32=1.0774       H63-C33=1.0899       H64-C33=1.1051       H65-C34=1.0901       H66-C34=1.0914       
 C  H  Rav=1.0882 sigma=0.0080  Rmin=1.0774  Rmax=1.1066    26
 C  C  Rav=1.4322 sigma=0.0565  Rmin=1.3804  Rmax=1.5308    22
 N  H  Rav=1.0081 sigma=0.0001  Rmin=1.0080  Rmax=1.0081     2
 N  C  Rav=1.4044 sigma=0.0574  Rmin=1.2997  Rmax=1.4579    12
 O  C  Rav=1.2545 sigma=0.0400  Rmin=1.2296  Rmax=1.3238     4
 O  N  Rav=1.2708 sigma=0.0683  Rmin=1.2210  Rmax=1.3673     3

 selected bond angles (degree)
 --------------------
H39-C1-C2=109.90               H40-C1-C2=109.17               H40-C1-H39=108.14              H41-C1-C2=110.15               
H41-C1-H39=111.77              H41-C1-H40=107.63              O3-C2-C1=120.07                C35-C2-C1=132.38               
C35-C2-O3=107.55               N4-O3-C2=110.97                C5-N4-O3=107.47                C6-C5-N4=124.66                
C35-C5-N4=109.63               C35-C5-C6=124.85               O7-C6-C5=116.98                N8-C6-C5=117.63                
N8-C6-O7=125.39                C9-N8-C6=124.89                C34-N8-C6=120.51               C34-N8-C9=112.57               
C10-C9-N8=109.00               H42-C9-N8=110.34               H42-C9-C10=110.79              H43-C9-N8=108.09               
H43-C9-C10=109.26              H43-C9-H42=109.32              N11-C10-C9=108.61              H44-C10-C9=109.60              
H44-C10-N11=109.57             H45-C10-C9=109.15              H45-C10-N11=111.11             H45-C10-H44=108.79             

 selected dihedral angles (degree)
 ---------------------------------
O3-C2-C1-H39= 30.64           O3-C2-C1-H40=272.19           O3-C2-C1-H41=154.21           C35-C2-C1-H39=211.16          
C35-C2-C1-H40= 92.71          C35-C2-C1-H41=334.73          N4-O3-C2-C1=179.49            N4-O3-C2-C35=359.09           
C5-N4-O3-C2=  1.08            C6-C5-N4-O3=189.42            C35-C5-N4-O3=359.22           O7-C6-C5-N4= 90.82            
O7-C6-C5-C35=282.55           N8-C6-C5-N4=271.74            N8-C6-C5-C35=103.47           C9-N8-C6-C5=349.54            
C9-N8-C6-O7=170.54            C34-N8-C6-C5=186.95           C34-N8-C6-O7=  7.96           C10-C9-N8-C6=253.52           
C10-C9-N8-C34= 57.31          H42-C9-N8-C6= 15.39           H42-C9-N8-C34=179.17          H43-C9-N8-C6=134.87           
H43-C9-N8-C34=298.66          N11-C10-C9-N8=300.32          N11-C10-C9-H42=178.73         N11-C10-C9-H43= 58.23         
H44-C10-C9-N8=180.65          H44-C10-C9-H42= 59.05         H44-C10-C9-H43=298.56         H45-C10-C9-N8= 61.60          
H45-C10-C9-H42=300.00         H45-C10-C9-H43=179.51         
           -------------------------------------------------
          |                Final Singlepoint                |
           -------------------------------------------------

          ...................................................
          :                      SETUP                      :
          :.................................................:
          :  # basis functions                 180          :
          :  # atomic orbitals                 180          :
          :  # shells                          104          :
          :  # electrons                       198          :
          :  max. iterations                   250          :
          :  Hamiltonian                  GFN2-xTB          :
          :  restarted?                      false          :
          :  GBSA solvation                   true          :
          :  PC potential                    false          :
          :  electronic temp.          300.0000000     K    :
          :  accuracy                    1.0000000          :
          :  -> integral cutoff          0.2500000E+02      :
          :  -> integral neglect         0.1000000E-07      :
          :  -> SCF convergence          0.1000000E-05 Eh   :
          :  -> wf. convergence          0.1000000E-03 e    :
          :  Broyden damping             0.4000000          :
          :  net charge                          0          :
          :  unpaired electrons                  0          :
          ...................................................

 iter      E             dE          RMSdq      gap      omega  full diag
   1   -113.2923663 -0.113292E+03  0.612E-05    0.73       0.0  T
   2   -113.2923663 -0.189004E-10  0.399E-05    0.73     308.3  T
   3   -113.2923663  0.176215E-11  0.237E-05    0.73     519.4  T

   *** convergence criteria satisfied after 3 iterations ***

         #    Occupation            Energy/Eh            Energy/eV
      -------------------------------------------------------------
         1        2.0000           -0.8017154             -21.8158
       ...           ...                  ...                  ...
        93        2.0000           -0.4085778             -11.1180
        94        2.0000           -0.4061140             -11.0509
        95        2.0000           -0.4012415             -10.9183
        96        2.0000           -0.3994688             -10.8701
        97        2.0000           -0.3967743             -10.7968
        98        2.0000           -0.3932437             -10.7007
        99        2.0000           -0.3677483             -10.0069 (HOMO)
       100        0.0000           -0.3407595              -9.2725 (LUMO)
       101                         -0.2818922              -7.6707
       102                         -0.2618767              -7.1260
       103                         -0.2499905              -6.8026
       104                         -0.2364096              -6.4330
       ...                                ...                  ...
       180                          0.6583194              17.9138
      -------------------------------------------------------------
                  HL-Gap            0.0269888 Eh            0.7344 eV
             Fermi-level           -0.3542539 Eh           -9.6397 eV

 SCC (total)                   0 d,  0 h,  0 min,  0.043 sec
 SCC setup                      ...        0 min,  0.001 sec (  2.889%)
 Dispersion                     ...        0 min,  0.002 sec (  3.489%)
 classical contributions        ...        0 min,  0.000 sec (  0.374%)
 integral evaluation            ...        0 min,  0.006 sec ( 12.720%)
 iterations                     ...        0 min,  0.018 sec ( 42.143%)
 molecular gradient             ...        0 min,  0.016 sec ( 36.832%)
 printout                       ...        0 min,  0.001 sec (  1.474%)

         :::::::::::::::::::::::::::::::::::::::::::::::::::::
         ::                     SUMMARY                     ::
         :::::::::::::::::::::::::::::::::::::::::::::::::::::
         :: total energy            -111.858982165487 Eh    ::
         :: total w/o Gsasa/hb      -111.852698431940 Eh    ::
         :: gradient norm              0.000438743390 Eh/a0 ::
         :: HOMO-LUMO gap              0.734403834663 eV    ::
         ::.................................................::
         :: SCC energy              -113.291684268680 Eh    ::
         :: -> isotropic ES            0.250032003047 Eh    ::
         :: -> anisotropic ES          0.005646877595 Eh    ::
         :: -> anisotropic XC          0.042107868326 Eh    ::
         :: -> dispersion             -0.077623539305 Eh    ::
         :: -> Gsolv                  -0.059312838679 Eh    ::
         ::    -> Gelec               -0.053029105132 Eh    ::
         ::    -> Gsasa                0.002805247378 Eh    ::
         ::    -> Ghb                 -0.010169740623 Eh    ::
         ::    -> Gshift               0.001080759698 Eh    ::
         :: repulsion energy           1.432702103194 Eh    ::
         :: add. restraining           0.000000000000 Eh    ::
         :: total charge               0.000000000000 e     ::
         :::::::::::::::::::::::::::::::::::::::::::::::::::::

           -------------------------------------------------
          |                Property Printout                |
           -------------------------------------------------

    * Orbital Energies and Occupations

         #    Occupation            Energy/Eh            Energy/eV
      -------------------------------------------------------------
         1        2.0000           -0.8017154             -21.8158
       ...           ...                  ...                  ...
        87        2.0000           -0.4300431             -11.7021
        88        2.0000           -0.4267924             -11.6136
        89        2.0000           -0.4249396             -11.5632
        90        2.0000           -0.4155440             -11.3075
        91        2.0000           -0.4143439             -11.2749
        92        2.0000           -0.4133802             -11.2486
        93        2.0000           -0.4085778             -11.1180
        94        2.0000           -0.4061140             -11.0509
        95        2.0000           -0.4012415             -10.9183
        96        2.0000           -0.3994688             -10.8701
        97        2.0000           -0.3967743             -10.7968
        98        2.0000           -0.3932437             -10.7007
        99        2.0000           -0.3677483             -10.0069 (HOMO)
       100        0.0000           -0.3407595              -9.2725 (LUMO)
       101                         -0.2818922              -7.6707
       102                         -0.2618767              -7.1260
       103                         -0.2499905              -6.8026
       104                         -0.2364096              -6.4330
       105                         -0.2332091              -6.3459
       106                         -0.2301742              -6.2634
       107                         -0.2057954              -5.6000
       108                         -0.1908481              -5.1932
       109                         -0.1804125              -4.9093
       110                         -0.1006417              -2.7386
       ...                                ...                  ...
       180                          0.6583194              17.9138
      -------------------------------------------------------------
                  HL-Gap            0.0269888 Eh            0.7344 eV
             Fermi-level           -0.3542539 Eh           -9.6397 eV

     #   Z          covCN         q      C6AA      α(0)
     1   6 C        3.754    -0.163    23.728     6.946
     2   6 C        2.986     0.180    24.140     8.059
     3   8 O        1.822    -0.087    15.636     5.340
     4   7 N        1.947    -0.136    24.703     7.370
     5   6 C        3.013     0.072    26.366     8.423
     6   6 C        2.767     0.276    22.331     7.739
     7   8 O        0.859    -0.510    24.008     6.569
     8   7 N        2.740    -0.054    22.278     7.010
     9   6 C        3.758    -0.018    20.942     6.524
    10   6 C        3.772     0.003    20.554     6.460
    11   7 N        2.735    -0.168    24.621     7.370
    12   6 C        3.819     0.038    19.921     6.352
    13   6 C        2.985     0.015    27.673     8.629
    14   6 C        2.922    -0.039    28.964     8.826
    15   6 C        2.925    -0.024    28.593     8.769
    16   6 C        2.976    -0.026    28.656     8.781
    17   6 C        2.759     0.271    22.426     7.755
    18   8 O        0.858    -0.542    24.726     6.667
    19   7 N        2.687    -0.173    24.748     7.388
    20   6 C        3.689    -0.060    21.850     6.690
    21   6 C        2.920    -0.039    28.965     8.826
    22   6 C        2.923    -0.038    28.934     8.821
    23   6 C        2.985     0.014    27.687     8.631
    24   6 C        2.923    -0.040    28.985     8.829
    25   6 C        2.920    -0.039    28.958     8.825
    26   6 C        2.976    -0.026    28.653     8.780
    27   6 C        2.759     0.271    22.420     7.754
    28   8 O        0.858    -0.537    24.616     6.652
    29   7 N        2.687    -0.174    24.757     7.390
    30   6 C        3.690    -0.060    21.849     6.690
    31   6 C        2.925    -0.024    28.609     8.772
    32   6 C        2.922    -0.037    28.930     8.820
    33   6 C        3.772     0.005    20.529     6.456
    34   6 C        3.764    -0.016    20.901     6.516
    35   6 C        2.959    -0.034    28.840     8.808
    36   7 N        2.756     0.562    13.349     5.427
    37   8 O        0.932    -0.432    22.299     6.333
    38   8 O        0.933    -0.446    22.588     6.374
    39   1 H        0.925     0.132     1.523     1.930
    40   1 H        0.924     0.147     1.414     1.860
    41   1 H        0.925     0.122     1.593     1.974
    42   1 H        0.925     0.064     2.156     2.296
    43   1 H        0.924     0.099     1.796     2.096
    44   1 H        0.925     0.063     2.163     2.300
    45   1 H        0.922     0.021     2.715     2.577
    46   1 H        0.922     0.017     2.772     2.604
    47   1 H        0.926     0.042     2.420     2.433
    48   1 H        0.926     0.046     2.376     2.411
    49   1 H        0.860     0.218     1.018     1.581
    50   1 H        0.925     0.076     2.019     2.222
    51   1 H        0.925     0.075     2.032     2.229
    52   1 H        0.925     0.072     2.063     2.246
    53   1 H        0.926     0.059     2.209     2.324
    54   1 H        0.926     0.073     2.054     2.241
    55   1 H        0.926     0.044     2.390     2.418
    56   1 H        0.926     0.051     2.307     2.375
    57   1 H        0.860     0.215     1.034     1.593
    58   1 H        0.925     0.078     2.000     2.212
    59   1 H        0.925     0.072     2.064     2.246
    60   1 H        0.925     0.073     2.051     2.239
    61   1 H        0.926     0.053     2.278     2.360
    62   1 H        0.926     0.070     2.081     2.256
    63   1 H        0.925     0.060     2.197     2.318
    64   1 H        0.922     0.017     2.775     2.605
    65   1 H        0.925     0.080     1.981     2.201
    66   1 H        0.924     0.091     1.869     2.138

 Mol. C6AA /au·bohr⁶  :      51319.716022
 Mol. C8AA /au·bohr⁸  :    1207211.740346
 Mol. α(0) /au        :        348.655525


Wiberg/Mayer (AO) data.
largest (>0.10) Wiberg bond orders for each atom

 ---------------------------------------------------------------------------
     #   Z sym  total        # sym  WBO       # sym  WBO       # sym  WBO
 ---------------------------------------------------------------------------
     1   6 C    3.961 --     2 C    1.064    41 H    0.955    39 H    0.954
                            40 H    0.912
     2   6 C    3.913 --    35 C    1.387     3 O    1.219     1 C    1.064
                             4 N    0.120
     3   8 O    2.491 --     2 C    1.219     4 N    1.061
     4   7 N    2.952 --     5 C    1.617     3 O    1.061     2 C    0.120
     5   6 C    3.970 --     4 N    1.617    35 C    1.201     6 C    0.939
     6   6 C    3.960 --     7 O    1.581     8 N    1.337     5 C    0.939
     7   8 O    1.947 --     6 C    1.581     8 N    0.209
     8   7 N    3.565 --     6 C    1.337     9 C    0.980    34 C    0.973
                             7 O    0.209
     9   6 C    3.957 --    10 C    0.990     8 N    0.980    42 H    0.965
                            43 H    0.960
    10   6 C    3.986 --    11 N    1.006     9 C    0.990    44 H    0.964
                            45 H    0.956
    11   7 N    3.129 --    10 C    1.006    33 C    1.003    12 C    0.982
    12   6 C    3.983 --    11 N    0.982    23 C    0.977    13 C    0.975
                            46 H    0.949
    13   6 C    3.984 --    14 C    1.411    22 C    1.395    12 C    0.975
                            16 C    0.102
    14   6 C    3.989 --    15 C    1.449    13 C    1.411    47 H    0.967
                            21 C    0.105
    15   6 C    3.989 --    14 C    1.449    16 C    1.397    48 H    0.968
                            22 C    0.107
    16   6 C    3.984 --    15 C    1.397    21 C    1.387    17 C    0.991
                            13 C    0.102
    17   6 C    3.946 --    18 O    1.586    19 N    1.299    16 C    0.991
    18   8 O    1.909 --    17 C    1.586    19 N    0.198
    19   7 N    3.475 --    17 C    1.299    20 C    1.002    49 H    0.921
                            18 O    0.198
    20   6 C    3.956 --    19 N    1.002    50 H    0.978    52 H    0.973
                            51 H    0.973
    21   6 C    3.989 --    22 C    1.461    16 C    1.387    53 H    0.963
                            14 C    0.105
    22   6 C    3.988 --    21 C    1.461    13 C    1.395    54 H    0.962
                            15 C    0.107
    23   6 C    3.984 --    24 C    1.407    32 C    1.398    12 C    0.977
                            26 C    0.102
    24   6 C    3.989 --    25 C    1.452    23 C    1.407    55 H    0.967
                            31 C    0.105
    25   6 C    3.990 --    24 C    1.452    26 C    1.395    56 H    0.965
                            32 C    0.106
    26   6 C    3.985 --    25 C    1.395    31 C    1.391    27 C    0.989
                            23 C    0.102
    27   6 C    3.946 --    28 O    1.589    29 N    1.297    26 C    0.989
    28   8 O    1.913 --    27 C    1.589    29 N    0.198
    29   7 N    3.474 --    27 C    1.297    30 C    1.002    57 H    0.924
                            28 O    0.198
    30   6 C    3.956 --    29 N    1.002    58 H    0.978    59 H    0.973
                            60 H    0.973
    31   6 C    3.988 --    32 C    1.458    26 C    1.391    61 H    0.967
                            24 C    0.105
    32   6 C    3.987 --    31 C    1.458    23 C    1.398    62 H    0.962
                            25 C    0.106
    33   6 C    3.985 --    11 N    1.003    34 C    0.993    63 H    0.965
                            64 H    0.963
    34   6 C    3.955 --    33 C    0.993     8 N    0.973    65 H    0.967
                            66 H    0.961
    35   6 C    3.936 --     2 C    1.387     5 C    1.201    36 N    1.045
    36   7 N    3.913 --    37 O    1.411    38 O    1.404    35 C    1.045
    37   8 O    1.884 --    36 N    1.411    38 O    0.319
    38   8 O    1.884 --    36 N    1.404    37 O    0.319
    39   1 H    0.981 --     1 C    0.954
    40   1 H    0.978 --     1 C    0.912
    41   1 H    0.985 --     1 C    0.955
    42   1 H    0.996 --     9 C    0.965
    43   1 H    0.990 --     9 C    0.960
    44   1 H    0.995 --    10 C    0.964
    45   1 H    0.999 --    10 C    0.956
    46   1 H    0.998 --    12 C    0.949
    47   1 H    0.998 --    14 C    0.967
    48   1 H    0.997 --    15 C    0.968
    49   1 H    0.952 --    19 N    0.921
    50   1 H    0.994 --    20 C    0.978
    51   1 H    0.993 --    20 C    0.973
    52   1 H    0.994 --    20 C    0.973
    53   1 H    0.996 --    21 C    0.963
    54   1 H    0.994 --    22 C    0.962
    55   1 H    0.997 --    24 C    0.967
    56   1 H    0.997 --    25 C    0.965
    57   1 H    0.954 --    29 N    0.924
    58   1 H    0.994 --    30 C    0.978
    59   1 H    0.994 --    30 C    0.973
    60   1 H    0.993 --    30 C    0.973
    61   1 H    0.997 --    31 C    0.967
    62   1 H    0.994 --    32 C    0.962
    63   1 H    0.996 --    33 C    0.965
    64   1 H    0.999 --    33 C    0.963
    65   1 H    0.993 --    34 C    0.967
    66   1 H    0.991 --    34 C    0.961
 ---------------------------------------------------------------------------

Topologies differ in total number of bonds
Writing topology from bond orders to xtbtopo.mol

molecular dipole:
                 x           y           z       tot (Debye)
 q only:       -1.950      -2.907       0.741
   full:       -1.706      -2.683       0.047       8.081
molecular quadrupole (traceless):
                xx          xy          yy          xz          yz          zz
 q only:       44.046     -43.719     -57.249      -5.343      27.873      13.203
  q+dip:       45.648     -38.696     -64.075     -10.007      26.166      18.427
   full:       48.120     -38.070     -63.205      -8.970      28.693      15.085

           -------------------------------------------------
          |                Geometry Summary                 |
           -------------------------------------------------

      molecular mass/u    :      520.5381232
   center of mass at/Å    :        0.5480129       0.0162746       0.0723226
  moments of inertia/u·Å² :        0.4765555E+04   0.9986729E+04   0.1340163E+05
rotational constants/cm⁻¹ :        0.3537391E-02   0.1688003E-02   0.1257879E-02

 * 64 selected distances

     #   Z          #   Z                                           value/Å
     1   6 C        2   6 C                                       1.4658379
     2   6 C        3   8 O                                       1.3237988
     3   8 O        4   7 N                                       1.3673132
     4   7 N        5   6 C                                       1.2996557
     6   6 C        7   8 O                                       1.2296381
     6   6 C        8   7 N                                       1.3265372
     8   7 N        9   6 C                                       1.4454623
     9   6 C       10   6 C                                       1.5308033 (max)
    10   6 C       11   7 N                                       1.4521426
    11   7 N       12   6 C                                       1.4578991
    13   6 C       14   6 C                                       1.3883247
    14   6 C       15   6 C                                       1.3818095
    15   6 C       16   6 C                                       1.3911143
    17   6 C       18   8 O                                       1.2327190
    17   6 C       19   7 N                                       1.3415729
    19   7 N       20   6 C                                       1.4441976
    16   6 C       21   6 C                                       1.3929743
    13   6 C       22   6 C                                       1.3905733
    21   6 C       22   6 C                                       1.3809259
    23   6 C       24   6 C                                       1.3889091
    24   6 C       25   6 C                                       1.3828131
    25   6 C       26   6 C                                       1.3914792
    27   6 C       28   8 O                                       1.2319416
    27   6 C       29   7 N                                       1.3417195
    29   7 N       30   6 C                                       1.4443957
    26   6 C       31   6 C                                       1.3920804
    23   6 C       32   6 C                                       1.3905573
    31   6 C       32   6 C                                       1.3803581
    11   7 N       33   6 C                                       1.4546355
     8   7 N       34   6 C                                       1.4491857
    33   6 C       34   6 C                                       1.5277995
     2   6 C       35   6 C                                       1.3925633
     5   6 C       35   6 C                                       1.4317696
    35   6 C       36   7 N                                       1.3954355
    36   7 N       37   8 O                                       1.2209554
    36   7 N       38   8 O                                       1.2239897
     1   6 C       39   1 H                                       1.0861920
     1   6 C       40   1 H                                       1.0904592
     1   6 C       41   1 H                                       1.0868129
     9   6 C       42   1 H                                       1.0886809
     9   6 C       43   1 H                                       1.0920195
    10   6 C       44   1 H                                       1.0901121
    10   6 C       45   1 H                                       1.1060321
    12   6 C       46   1 H                                       1.1065887
    14   6 C       47   1 H                                       1.0798800
    15   6 C       48   1 H                                       1.0799573
    19   7 N       49   1 H                                       1.0081113
    20   6 C       50   1 H                                       1.0887986
    20   6 C       51   1 H                                       1.0897091
    20   6 C       52   1 H                                       1.0901012
    21   6 C       53   1 H                                       1.0789524
    22   6 C       54   1 H                                       1.0773700
    24   6 C       55   1 H                                       1.0799514
    25   6 C       56   1 H                                       1.0793011
    29   7 N       57   1 H                                       1.0079937 (min)
    30   6 C       58   1 H                                       1.0887391
    30   6 C       59   1 H                                       1.0899610
    30   6 C       60   1 H                                       1.0897295
    31   6 C       61   1 H                                       1.0796471
    32   6 C       62   1 H                                       1.0773514
    33   6 C       63   1 H                                       1.0898698
    33   6 C       64   1 H                                       1.1050953
    34   6 C       65   1 H                                       1.0900737
    34   6 C       66   1 H                                       1.0913508

 * 6 distinct bonds (by element types)

   Z      Z             #   av. dist./Å        max./Å        min./Å
   1 H    6 C          26     1.0881822     1.1065887     1.0773514
   6 C    6 C          17     1.4118055     1.5308033     1.3803581
   1 H    7 N           2     1.0080525     1.0081113     1.0079937
   6 C    7 N          12     1.4044033     1.4578991     1.2996557
   6 C    8 O           4     1.2545244     1.3237988     1.2296381
   7 N    8 O           3     1.2707528     1.3673132     1.2209554


optimized geometry written to: xtbopt.xyz


           -------------------------------------------------
          | TOTAL ENERGY             -111.858982165487 Eh   |
          | GRADIENT NORM               0.000438743390 Eh/α |
          | HOMO-LUMO GAP               0.734403834663 eV   |
           -------------------------------------------------

------------------------------------------------------------------------
 * finished run on 2026/08/28 at 18:24:48.017     
------------------------------------------------------------------------
 total:
 * wall-time:     0 d,  0 h,  0 min,  4.092 sec
 *  cpu-time:     0 d,  0 h,  0 min, 28.578 sec
 * ratio c/w:     6.984 speedup
 SCF:
 * wall-time:     0 d,  0 h,  0 min,  0.090 sec
 *  cpu-time:     0 d,  0 h,  0 min,  0.641 sec
 * ratio c/w:     7.104 speedup
 ANC optimizer:
 * wall-time:     0 d,  0 h,  0 min,  3.948 sec
 *  cpu-time:     0 d,  0 h,  0 min, 27.812 sec
 * ratio c/w:     7.044 speedup

