66

C      8.654628   -2.857281    0.567485
C      7.421219   -2.077345    0.783063
O      6.409893   -2.707985    1.439655
N      5.331552   -1.851403    1.567451
C      5.694235   -0.698410    0.973743
C      4.863648    0.506278    1.002194
O      5.389233    1.584252    1.279140
N      3.497810    0.409708    0.711869
C      2.785090   -0.844582    0.458714
C      1.510625   -0.647622   -0.386325
N      0.609079    0.398291    0.160866
C     -0.608826    0.559601   -0.691226
C     -1.547054    1.676394   -0.209480
C     -2.061489    2.603017   -1.131568
C     -2.931416    3.614299   -0.715083
C     -3.314343    3.709723    0.627502
C     -4.244376    4.804583    1.021918
O     -4.307926    5.829431    0.352284
N     -5.030035    4.571249    2.133009
C     -6.044415    5.518664    2.521590
C     -2.799988    2.799945    1.557494
C     -1.929689    1.788755    1.139183
C     -1.421129   -0.734730   -0.854723
C     -1.911125   -1.096446   -2.121793
C     -2.670857   -2.258606   -2.291300
C     -2.962735   -3.072717   -1.190950
C     -3.763380   -4.321094   -1.324354
O     -3.597157   -5.246912   -0.538645
N     -4.699790   -4.340185   -2.338942
C     -5.608655   -5.451262   -2.470383
C     -2.472463   -2.728034    0.072519
C     -1.717182   -1.565022    0.240505
C      1.388364    1.663067    0.221291
C      2.648034    1.535217    1.094673
C      7.006629   -0.807178    0.463774
N      7.748316    0.162041   -0.258661
O      8.968335    0.197160   -0.058239
O      7.121429    0.845833   -1.075300
H      8.495125   -3.919230    0.779472
H      9.453200   -2.496520    1.222781
H      8.991637   -2.769953   -0.470012
H      3.435648   -1.545484   -0.072058
H      2.528015   -1.278001    1.432662
H      1.009220   -1.619784   -0.429580
H      1.804258   -0.389044   -1.413009
H     -0.250325    0.844162   -1.692051
H     -1.788363    2.547537   -2.183118
H     -3.314860    4.328050   -1.442162
H     -5.119782    3.623017    2.471034
H     -5.654994    6.538416    2.459186
H     -6.351073    5.298549    3.546654
H     -6.899062    5.413242    1.848064
H     -3.041345    2.877364    2.613538
H     -1.532015    1.093393    1.876013
H     -1.699305   -0.475503   -2.990034
H     -3.004520   -2.526475   -3.289804
H     -4.967967   -3.462579   -2.762612
H     -5.072809   -6.396178   -2.346068
H     -6.380357   -5.366140   -1.700694
H     -6.067041   -5.409861   -3.461040
H     -2.680167   -3.363801    0.931163
H     -1.346011   -1.315005    1.232350
H      0.789844    2.474691    0.647402
H      1.684737    1.972615   -0.790163
H      3.211138    2.473650    1.049425
H      2.363086    1.378177    2.142699
