68
 energy: -115.130330086105 gnorm: 0.000665936342 xtb: 6.7.1 (edcfbbe)
C            7.59549494913378       -1.53054169828634        2.82023498672980
C            6.92866878606174       -0.75156753115722        1.77262763917431
O            7.40958590647854       -0.74972292700931        0.53889165120967
N            6.65619918954286        0.04554214199682       -0.27877205585251
C            5.68476670934030        0.53072871219517        0.43557332004208
C            4.74480364558308        1.60694904775626       -0.01842242299988
O            5.06239087368751        2.76798252892336        0.23402906313760
N            3.65402931615490        1.23377445746918       -0.67516446724824
C            2.62821130469077        2.20288356582136       -1.00519807196398
C            1.41571876471630        1.97546712928507       -0.10364925486590
N            0.93497799539088        0.61533864302549       -0.28245393700420
C           -0.33246227604760        0.38125930220770        0.40076347307120
C           -1.40081252602134        1.33228229842696       -0.09433468946759
C           -1.53577776945761        1.60171366726309       -1.45311051546297
C           -2.53337584677465        2.43386887256347       -1.90939197085196
C           -3.43387248069222        3.01438682183840       -1.01473965525145
O           -4.38361008099738        3.82410429803300       -1.57032875122991
C           -5.33570984018885        4.44689352179699       -0.72383513286666
C           -6.26084035009672        5.27299252726645       -1.61883974731137
O           -5.61558308236253        6.39532999249131       -2.16918626343141
C           -3.31070824477415        2.74533053395976        0.34179329886966
C           -2.29817059253443        1.91038063875572        0.78759621935323
C           -0.85704938214158       -1.01389232003718        0.13988222372737
C           -1.55596124006707       -1.69308647202997        1.12425818947954
C           -2.10779399627214       -2.94169480549442        0.88635306882248
C           -1.96026275324681       -3.53297372264632       -0.36139331936830
O           -2.46084136073673       -4.75421154234157       -0.71377042886922
C           -3.25193356946624       -5.46843385415474        0.22173452818817
C           -3.74572538312819       -6.73405416646169       -0.48101642951134
O           -2.70964498278647       -7.65419297291072       -0.72253124991088
C           -1.25009782898640       -2.85829576624670       -1.35541153835556
C           -0.71319042657611       -1.61433182766778       -1.10733545137324
C            1.97170577948366       -0.31091881062624        0.13189502508731
C            3.18401251054914       -0.12878657821896       -0.78544536423264
C            5.79662273709152        0.05920644199818        1.78276947476452
N            4.91065535827195        0.32483764970716        2.82754439122048
O            3.86794887203454        0.90612237949056        2.55463578499351
O            5.20366928981628       -0.05131974736485        3.95232361208689
H            6.88326923253817       -1.80100582288182        3.59549726361124
H            8.06975422395136       -2.40577710098381        2.38564784910756
H            8.37051832577959       -0.91823715927274        3.28258448592446
H            2.34580983673897        2.06355749573101       -2.04998905821409
H            3.03846709858062        3.20168525201866       -0.85574826780946
H            1.71006751584383        2.16137997771643        0.94560169514257
H            0.62592843137460        2.67615150793637       -0.37378534679997
H           -0.21476301810801        0.51839932938836        1.49329502921794
H           -0.84082953274218        1.16343529128718       -2.14954197394967
H           -2.64151488894890        2.65063428123732       -2.95988976409793
H           -5.92172356065268        3.69283466730440       -0.18596010285499
H           -4.83283448430381        5.10583409978810       -0.00546028405769
H           -7.08910181773672        5.66159825842892       -1.02436200697173
H           -6.65561566361929        4.62723383062108       -2.41309978853494
H           -4.85092643050107        6.08949293364975       -2.67813223139257
H           -3.98812994696508        3.17801268111199        1.06010880721809
H           -2.21225349661404        1.71488980993265        1.84667954157729
H           -1.67885829384924       -1.24576117096886        2.09993215181337
H           -2.64454524006282       -3.43788612287657        1.67868794550235
H           -4.11082020255194       -4.86516382067321        0.53701102771255
H           -2.65130790793529       -5.74276047881906        1.09769245125918
H           -4.23523008782207       -6.44951007829900       -1.42086631663481
H           -4.46454006610265       -7.24794340441520        0.15903749686617
H           -2.03496187873451       -7.21831433414146       -1.26291968138892
H           -1.14074805841985       -3.33051482754469       -2.31835780102837
H           -0.16663647590157       -1.10069986043272       -1.88062582042833
H            2.27805603289193       -0.12412123570545        1.17877762531495
H            1.59868882570239       -1.33199842404794        0.05202675734608
H            3.97816523531812       -0.82548111123072       -0.52205958021541
H            2.88057631813823       -0.29931989347576       -1.82035833557070
