68

C      8.863396   -1.302261    2.027417
C      7.624972   -0.695238    1.504093
O      7.050400   -1.310964    0.435304
N      5.908832   -0.625790    0.060840
C      5.790617    0.405898    0.918267
C      4.766647    1.442447    0.779754
O      5.097865    2.622981    0.887745
N      3.439553    1.072755    0.533873
C      2.530302    2.109867    0.050703
C      1.061876    1.842519    0.421836
N      0.607293    0.492048   -0.000651
C     -0.824515    0.268095    0.370894
C     -1.782584    1.303842   -0.234146
C     -1.718907    1.668771   -1.587879
C     -2.613361    2.602116   -2.117336
C     -3.593941    3.184918   -1.313467
O     -4.401430    4.081562   -1.956744
C     -5.466551    4.660612   -1.194549
C     -6.241281    5.592811   -2.121967
O     -5.412107    6.677251   -2.536958
C     -3.672006    2.826644    0.031451
C     -2.775997    1.892206    0.565557
C     -1.330922   -1.142150    0.036273
C     -2.074461   -1.864008    0.984259
C     -2.560208   -3.145441    0.695805
C     -2.315499   -3.725422   -0.547993
O     -2.727626   -4.964247   -0.954509
C     -3.542764   -5.709733   -0.043158
C     -3.900187   -7.029852   -0.720488
O     -2.723740   -7.808296   -0.935010
C     -1.582341   -3.013813   -1.498533
C     -1.097904   -1.734702   -1.214493
C      1.493647   -0.499378    0.659228
C      2.982447   -0.300842    0.310938
C      6.855292    0.390058    1.845927
N      7.084816    1.274554    2.930537
O      6.090563    1.649176    3.561891
O      8.262977    1.544213    3.193425
H      8.816929   -1.399210    3.116472
H      9.023801   -2.300873    1.608902
H      9.728892   -0.683761    1.771190
H      2.640425    2.148244   -1.040444
H      2.824782    3.090245    0.440446
H      0.941081    1.959006    1.507441
H      0.467245    2.626907   -0.057310
H     -0.878324    0.378715    1.464586
H     -0.963052    1.232834   -2.237128
H     -2.544009    2.873224   -3.167883
H     -6.138262    3.877563   -0.825464
H     -5.048664    5.241091   -0.363870
H     -7.113364    6.009586   -1.610491
H     -6.573535    5.065478   -3.021741
H     -4.588475    6.273073   -2.870364
H     -4.416258    3.253153    0.695411
H     -2.862862    1.625844    1.616742
H     -2.285487   -1.431926    1.960128
H     -3.125142   -3.659364    1.466131
H     -4.462198   -5.157923    0.182062
H     -2.975294   -5.914486    0.872088
H     -4.367333   -6.858111   -1.695345
H     -4.582800   -7.612463   -0.095638
H     -2.090613   -7.218157   -1.386403
H     -1.387321   -3.455437   -2.472661
H     -0.527635   -1.204065   -1.973557
H      1.375514   -0.439674    1.749921
H      1.235673   -1.520903    0.361871
H      3.566106   -0.994844    0.922379
H      3.157015   -0.536978   -0.745608
