      -----------------------------------------------------------      
     |                   =====================                   |     
     |                           x T B                           |     
     |                   =====================                   |     
     |                         S. Grimme                         |     
     |          Mulliken Center for Theoretical Chemistry        |     
     |                    University of Bonn                     |     
      -----------------------------------------------------------      

   * xtb version 6.7.1 (edcfbbe) compiled by 'VssAdministrator@runnervm171ch' on 2026-06-10

   xtb is free software: you can redistribute it and/or modify it under
   the terms of the GNU Lesser General Public License as published by
   the Free Software Foundation, either version 3 of the License, or
   (at your option) any later version.
   
   xtb is distributed in the hope that it will be useful,
   but WITHOUT ANY WARRANTY; without even the implied warranty of
   MERCHANTABILITY or FITNESS FOR A PARTICULAR PURPOSE.  See the
   GNU Lesser General Public License for more details.
   
   Cite this work as:
   * C. Bannwarth, E. Caldeweyher, S. Ehlert, A. Hansen, P. Pracht,
     J. Seibert, S. Spicher, S. Grimme, WIREs Comput. Mol. Sci., 2020, 11,
     e01493. DOI: 10.1002/wcms.1493
   
   for GFN2-xTB:
   * C. Bannwarth, S. Ehlert and S. Grimme., J. Chem. Theory Comput., 2019,
     15, 1652-1671. DOI: 10.1021/acs.jctc.8b01176
   for GFN1-xTB:
   * S. Grimme, C. Bannwarth, P. Shushkov, J. Chem. Theory Comput., 2017,
     13, 1989-2009. DOI: 10.1021/acs.jctc.7b00118
   for GFN0-xTB:
   * P. Pracht, E. Caldeweyher, S. Ehlert, S. Grimme, ChemRxiv, 2019, preprint.
     DOI: 10.26434/chemrxiv.8326202.v1
   for GFN-FF:
   * S. Spicher and S. Grimme, Angew. Chem. Int. Ed., 2020, 59, 15665-15673.
     DOI: 10.1002/anie.202004239
   
   for ALPB and GBSA implicit solvation:
   * S. Ehlert, M. Stahn, S. Spicher, S. Grimme, J. Chem. Theory Comput.,
     2021, 17, 4250-4261. DOI: 10.1021/acs.jctc.1c00471
   
   for ddCOSMO and CPCM-X implicit solvation:
   * M. Stahn, S. Ehlert, S. Grimme, J. Phys. Chem. A,
     2023, XX, XXXX-XXXX. DOI: 10.1021/acs.jpca.3c04382
   
   for DFT-D4:
   * E. Caldeweyher, C. Bannwarth and S. Grimme, J. Chem. Phys., 2017,
     147, 034112. DOI: 10.1063/1.4993215
   * E. Caldeweyher, S. Ehlert, A. Hansen, H. Neugebauer, S. Spicher,
     C. Bannwarth and S. Grimme, J. Chem. Phys., 2019, 150, 154122.
     DOI: 10.1063/1.5090222
   * E. Caldeweyher, J.-M. Mewes, S. Ehlert and S. Grimme, Phys. Chem. Chem. Phys.
     2020, 22, 8499-8512. DOI: 10.1039/D0CP00502A
   
   for sTDA-xTB:
   * S. Grimme and C. Bannwarth, J. Chem. Phys., 2016, 145, 054103.
     DOI: 10.1063/1.4959605
   
   in the mass-spec context:
   * V. Asgeirsson, C. Bauer and S. Grimme, Chem. Sci., 2017, 8, 4879.
     DOI: 10.1039/c7sc00601b
   * J. Koopman and S. Grimme, ACS Omega 2019, 4, 12, 15120-15133.
     DOI: 10.1021/acsomega.9b02011
   
   for metadynamics refer to:
   * S. Grimme, J. Chem. Theory Comput., 2019, 155, 2847-2862
     DOI: 10.1021/acs.jctc.9b00143
   
   for SPH calculations refer to:
   * S. Spicher and S. Grimme, J. Chem. Theory Comput., 2021, 17, 1701-1714
     DOI: 10.1021/acs.jctc.0c01306
   
   for ONIOM refer to:
   * C. Plett, A. Katbashev, S. Ehlert, S. Grimme, M. Bursch,
     Phys. Chem. Chem. Phys., 2023, 25, 17860-17868. DOI: 10.1039/D3CP02178E
   
   for DIPRO refer to:
   * J. Kohn, N. Gildemeister, S. Grimme, D. Fazzi, A. Hansen,
     J. Chem. Phys., 2023, just accepted.
   
   for PTB refer to:
   * S. Grimme, M. Mueller, A. Hansen, J. Chem. Phys., 2023, 158, 124111.
     DOI: 10.1063/5.0137838
   
   with help from (in alphabetical order)
   P. Atkinson, C. Bannwarth, F. Bohle, G. Brandenburg, E. Caldeweyher
   M. Checinski, S. Dohm, S. Ehlert, S. Ehrlich, I. Gerasimov, C. Hölzer
   A. Katbashev, J. Kohn, J. Koopman, C. Lavigne, S. Lehtola, F. März, M. Müller,
   F. Musil, H. Neugebauer, J. Pisarek, C. Plett, P. Pracht, F. Pultar,
   J. Seibert, P. Shushkov, S. Spicher, M. Stahn, M. Steiner, T. Strunk,
   J. Stückrath, T. Rose, and J. Unsleber
   
 * started run on 2026/08/28 at 18:24:48.101     
   ID    Z sym.   atoms
    1    6 C      1, 2, 5, 6, 9, 10, 12-16, 18, 19, 21-26, 28, 29, 31-35
    2    8 O      3, 7, 17, 20, 27, 30, 37, 38
    3    7 N      4, 8, 11, 36
    4    1 H      39-68

           -------------------------------------------------
          |                Calculation Setup                |
           -------------------------------------------------

          program call               : C:\Users\Christian\Miniconda3\Library\bin\xtb.exe M2_bisOEtOH.xyz --gfn 2 --opt --alpb water
          coordinate file            : M2_bisOEtOH.xyz
          omp threads                :                    12


           -------------------------------------------------
          |                 G F N 2 - x T B                 |
           -------------------------------------------------

        Reference                      10.1021/acs.jctc.8b01176
      * Hamiltonian:
        H0-scaling (s, p, d)           1.850000    2.230000    2.230000
        zeta-weighting                 0.500000
      * Dispersion:
        s8                             2.700000
        a1                             0.520000
        a2                             5.000000
        s9                             5.000000
      * Repulsion:
        kExp                           1.500000    1.000000
        rExp                           1.000000
      * Coulomb:
        alpha                          2.000000
        third order                    shell-resolved
        anisotropic                    true
        a3                             3.000000
        a5                             4.000000
        cn-shift                       1.200000
        cn-exp                         4.000000
        max-rad                        5.000000

      * Solvation model:               ALPB
        Solvent                        water
        Parameter file                 internal GFN2-xTB/ALPB
        Dielectric constant                8.0200E+01
        Reference state                gsolv [1 M gas/solution]
        Free energy shift                  1.0808E-03 Eh       6.7819E-01 kcal/mol
        Temperature                        2.9815E+02 K
        Density                            1.0000E+00 kg/L
        Solvent mass                       1.8000E+01 g/mol
        Interaction kernel             P16
        Born radius scaling (c1)           1.4744E+00
        Born radii integrator          GBOBC
        Born offset                        0.0000E+00 a0       0.0000E+00 AA
        H-bond correction              true
        Ion screening                  false
        Surface tension                    1.0000E-05 Eh       1.5569E+01 dyn/cm
        Grid points                               230 per atom

          ...................................................
          :                      SETUP                      :
          :.................................................:
          :  # basis functions                 182          :
          :  # atomic orbitals                 182          :
          :  # shells                          106          :
          :  # electrons                       202          :
          :  max. iterations                   250          :
          :  Hamiltonian                  GFN2-xTB          :
          :  restarted?                      false          :
          :  GBSA solvation                   true          :
          :  PC potential                    false          :
          :  electronic temp.          300.0000000     K    :
          :  accuracy                    1.0000000          :
          :  -> integral cutoff          0.2500000E+02      :
          :  -> integral neglect         0.1000000E-07      :
          :  -> SCF convergence          0.1000000E-05 Eh   :
          :  -> wf. convergence          0.1000000E-03 e    :
          :  Broyden damping             0.4000000          :
          :  net charge                          0          :
          :  unpaired electrons                  0          :
          ...................................................

 iter      E             dE          RMSdq      gap      omega  full diag
   1   -116.1218520 -0.116122E+03  0.466E+00    1.79       0.0  T
   2   -116.3487744 -0.226922E+00  0.248E+00    1.05       1.0  T
   3   -116.3522326 -0.345821E-02  0.116E+00    0.61       1.0  T
   4   -116.3656206 -0.133880E-01  0.467E-01    0.41       1.0  T
   5   -116.3718828 -0.626225E-02  0.106E-01    0.34       1.0  T
   6   -116.3719968 -0.113983E-03  0.586E-02    0.35       1.0  T
   7   -116.3720321 -0.352523E-04  0.257E-02    0.37       1.0  T
   8   -116.3720445 -0.124017E-04  0.100E-02    0.38       1.2  T
   9   -116.3720460 -0.151476E-05  0.475E-03    0.38       2.6  T
  10   -116.3720463 -0.346688E-06  0.231E-03    0.38       5.3  T
  11   -116.3720464 -0.729738E-07  0.105E-03    0.38      11.6  T
  12   -116.3720464 -0.204578E-07  0.463E-04    0.38      26.2  T
  13   -116.3720464 -0.342395E-08  0.219E-04    0.38      55.3  T

   *** convergence criteria satisfied after 13 iterations ***

         #    Occupation            Energy/Eh            Energy/eV
      -------------------------------------------------------------
         1        2.0000           -0.7943961             -21.6166
       ...           ...                  ...                  ...
        95        2.0000           -0.4157740             -11.3138
        96        2.0000           -0.4044493             -11.0056
        97        2.0000           -0.4033046             -10.9745
        98        2.0000           -0.4011644             -10.9162
        99        2.0000           -0.3831252             -10.4254
       100        2.0000           -0.3758375             -10.2271
       101        1.9987           -0.3605288              -9.8105 (HOMO)
       102        0.0013           -0.3465866              -9.4311 (LUMO)
       103                         -0.3055333              -8.3140
       104                         -0.2528091              -6.8793
       105                         -0.2299215              -6.2565
       106                         -0.2276615              -6.1950
       ...                                ...                  ...
       182                          0.6287428              17.1090
      -------------------------------------------------------------
                  HL-Gap            0.0139422 Eh            0.3794 eV
             Fermi-level           -0.3535577 Eh           -9.6208 eV

 SCC (total)                   0 d,  0 h,  0 min,  0.082 sec
 SCC setup                      ...        0 min,  0.001 sec (  1.778%)
 Dispersion                     ...        0 min,  0.002 sec (  2.585%)
 classical contributions        ...        0 min,  0.000 sec (  0.182%)
 integral evaluation            ...        0 min,  0.005 sec (  5.470%)
 iterations                     ...        0 min,  0.056 sec ( 68.046%)
 molecular gradient             ...        0 min,  0.017 sec ( 20.848%)
 printout                       ...        0 min,  0.001 sec (  1.049%)

         :::::::::::::::::::::::::::::::::::::::::::::::::::::
         ::                     SUMMARY                     ::
         :::::::::::::::::::::::::::::::::::::::::::::::::::::
         :: total energy            -115.097830039289 Eh    ::
         :: total w/o Gsasa/hb      -115.089004687885 Eh    ::
         :: gradient norm              0.123036573252 Eh/a0 ::
         :: HOMO-LUMO gap              0.379385899202 eV    ::
         ::.................................................::
         :: SCC energy              -116.371909794456 Eh    ::
         :: -> isotropic ES            0.225452228343 Eh    ::
         :: -> anisotropic ES          0.010903882440 Eh    ::
         :: -> anisotropic XC          0.035832839317 Eh    ::
         :: -> dispersion             -0.073019453372 Eh    ::
         :: -> Gsolv                  -0.044353739607 Eh    ::
         ::    -> Gelec               -0.035528388204 Eh    ::
         ::    -> Gsasa                0.005465456864 Eh    ::
         ::    -> Ghb                 -0.015371567966 Eh    ::
         ::    -> Gshift               0.001080759698 Eh    ::
         :: repulsion energy           1.274079755168 Eh    ::
         :: add. restraining           0.000000000000 Eh    ::
         :: total charge               0.000000000130 e     ::
         :::::::::::::::::::::::::::::::::::::::::::::::::::::

      ----------------------------------------------------------- 
     |                   =====================                   |
     |                        A N C O P T                        |
     |                   =====================                   |
     |               Approximate Normal Coordinate               |
     |                Rational Function Optimizer                |
      ----------------------------------------------------------- 
      ----------------------------------------------------------- 
     |                   =====================                   |
     |                        A N C O P T                        |
     |                   =====================                   |
     |               Approximate Normal Coordinate               |
     |                Rational Function Optimizer                |
      ----------------------------------------------------------- 

          ...................................................
          :                      SETUP                      :
          :.................................................:
          :   optimization level            normal          :
          :   max. optcycles                   204          :
          :   ANC micro-cycles                  20          :
          :   degrees of freedom               198          :
          :.................................................:
          :   RF solver                   davidson          :
          :   write xtbopt.log                true          :
          :   linear?                        false          :
          :   energy convergence         0.5000000E-05 Eh   :
          :   grad. convergence          0.1000000E-02 Eh/α :
          :   maxmium RF displ.          1.0000000          :
          :   Hlow (freq-cutoff)         0.1000000E-01      :
          :   Hmax (freq-cutoff)         5.0000000          :
          :   S6 in model hess.         20.0000000          :
          ...................................................

generating ANC from exact Hessian ...
Using Lindh-Hessian (1995)
 Shifting diagonal of input Hessian by    9.9291579540071537E-003
 Lowest  eigenvalues of input Hessian
    0.000000    0.000000    0.000000    0.000000    0.000000    0.000000
    0.010000    0.010021    0.010047    0.010295    0.010566    0.010659
    0.010705    0.010958    0.011111    0.011440    0.011591    0.011656
 Highest eigenvalues
    1.955152    2.048195    2.049775    2.176673    2.247924    2.521793


........................................................................
.............................. CYCLE    1 ..............................
........................................................................

 iter      E             dE          RMSdq      gap      omega  full diag
   1   -116.3720464 -0.116372E+03  0.945E-05    0.38       0.0  T
   2   -116.3720464 -0.980833E-10  0.642E-05    0.38     189.0  T
   3   -116.3720464 -0.311928E-10  0.431E-05    0.38     281.6  T
     SCC iter.                  ...        0 min,  0.014 sec
     gradient                   ...        0 min,  0.016 sec
 * total energy  :  -115.0978300 Eh     change       -0.7745911E-09 Eh
   gradient norm :     0.1230353 Eh/α   predicted     0.0000000E+00 (-100.00%)
   displ. norm   :     0.3501355 α      lambda       -0.2126226E-01
   maximum displ.:     0.1152747 α      in ANC's #16, #66, #29, ...

........................................................................
.............................. CYCLE    2 ..............................
........................................................................

 iter      E             dE          RMSdq      gap      omega  full diag
   1   -116.4331153 -0.116433E+03  0.188E-01    0.62       0.0  T
   2   -116.4335470 -0.431720E-03  0.115E-01    0.67       1.0  T
   3   -116.4335783 -0.312460E-04  0.563E-02    0.67       1.0  T
   4   -116.4335943 -0.160371E-04  0.149E-02    0.68       1.0  T
   5   -116.4336033 -0.898290E-05  0.502E-03    0.67       2.4  T
   6   -116.4336037 -0.430038E-06  0.247E-03    0.67       4.9  T
   7   -116.4336038 -0.247112E-07  0.105E-03    0.67      11.6  T
   8   -116.4336038 -0.213072E-07  0.384E-04    0.67      31.6  T
   9   -116.4336038 -0.246483E-08  0.211E-04    0.67      57.6  T
     SCC iter.                  ...        0 min,  0.050 sec
     gradient                   ...        0 min,  0.016 sec
 * total energy  :  -115.1127755 Eh     change       -0.1494541E-01 Eh
   gradient norm :     0.0554414 Eh/α   predicted    -0.1194696E-01 ( -20.06%)
   displ. norm   :     0.3963451 α      lambda       -0.8426563E-02
   maximum displ.:     0.2102326 α      in ANC's #16, #32, #29, ...

........................................................................
.............................. CYCLE    3 ..............................
........................................................................

 iter      E             dE          RMSdq      gap      omega  full diag
   1   -116.4695019 -0.116470E+03  0.140E-01    0.75       0.0  T
   2   -116.4698732 -0.371339E-03  0.854E-02    0.81       1.0  T
   3   -116.4699104 -0.371974E-04  0.456E-02    0.81       1.0  T
   4   -116.4699120 -0.162838E-05  0.137E-02    0.82       1.0  T
   5   -116.4699200 -0.798087E-05  0.367E-03    0.82       3.3  T
   6   -116.4699202 -0.191650E-06  0.185E-03    0.81       6.5  T
   7   -116.4699202 -0.195672E-07  0.884E-04    0.81      13.7  T
   8   -116.4699203 -0.119838E-07  0.310E-04    0.81      39.2  T
     SCC iter.                  ...        0 min,  0.038 sec
     gradient                   ...        0 min,  0.018 sec
 * total energy  :  -115.1174557 Eh     change       -0.4680262E-02 Eh
   gradient norm :     0.0216242 Eh/α   predicted    -0.4875144E-02 (   4.16%)
   displ. norm   :     0.3761293 α      lambda       -0.3182342E-02
   maximum displ.:     0.2261815 α      in ANC's #16, #32, #8, ...

........................................................................
.............................. CYCLE    4 ..............................
........................................................................

 iter      E             dE          RMSdq      gap      omega  full diag
   1   -116.4759190 -0.116476E+03  0.959E-02    0.74       0.0  T
   2   -116.4759702 -0.512322E-04  0.562E-02    0.78       1.0  T
   3   -116.4759689  0.126549E-05  0.210E-02    0.79       1.0  T
   4   -116.4759758 -0.690115E-05  0.571E-03    0.80       2.1  T
   5   -116.4759771 -0.128717E-05  0.233E-03    0.80       5.2  T
   6   -116.4759772 -0.609780E-07  0.107E-03    0.80      11.3  T
   7   -116.4759772 -0.764922E-08  0.445E-04    0.80      27.2  T
   8   -116.4759772 -0.415945E-08  0.194E-04    0.80      62.4  T
     SCC iter.                  ...        0 min,  0.040 sec
     gradient                   ...        0 min,  0.016 sec
 * total energy  :  -115.1191389 Eh     change       -0.1683175E-02 Eh
   gradient norm :     0.0228757 Eh/α   predicted    -0.1816280E-02 (   7.91%)
   displ. norm   :     0.3657411 α      lambda       -0.2053195E-02
   maximum displ.:     0.2196338 α      in ANC's #16, #8, #32, ...

........................................................................
.............................. CYCLE    5 ..............................
........................................................................

 iter      E             dE          RMSdq      gap      omega  full diag
   1   -116.4744557 -0.116474E+03  0.666E-02    0.75       0.0  T
   2   -116.4744736 -0.179025E-04  0.387E-02    0.76       1.0  T
   3   -116.4744738 -0.244571E-06  0.115E-02    0.77       1.1  T
   4   -116.4744760 -0.217188E-05  0.330E-03    0.77       3.7  T
   5   -116.4744763 -0.275968E-06  0.175E-03    0.77       6.9  T
   6   -116.4744763 -0.243230E-07  0.672E-04    0.77      18.1  T
   7   -116.4744763 -0.659969E-08  0.238E-04    0.77      51.0  T
     SCC iter.                  ...        0 min,  0.034 sec
     gradient                   ...        0 min,  0.017 sec
 * total energy  :  -115.1206797 Eh     change       -0.1540766E-02 Eh
   gradient norm :     0.0123337 Eh/α   predicted    -0.1163927E-02 ( -24.46%)
   displ. norm   :     0.4682991 α      lambda       -0.1532046E-02
   maximum displ.:     0.2511127 α      in ANC's #16, #8, #32, ...

........................................................................
.............................. CYCLE    6 ..............................
........................................................................

 iter      E             dE          RMSdq      gap      omega  full diag
   1   -116.4745295 -0.116475E+03  0.799E-02    0.71       0.0  T
   2   -116.4745553 -0.258699E-04  0.468E-02    0.72       1.0  T
   3   -116.4745553 -0.409251E-08  0.152E-02    0.73       1.0  T
   4   -116.4745589 -0.361452E-05  0.397E-03    0.73       3.1  T
   5   -116.4745593 -0.368586E-06  0.205E-03    0.73       5.9  T
   6   -116.4745593 -0.251990E-07  0.721E-04    0.73      16.8  T
   7   -116.4745593 -0.885859E-08  0.255E-04    0.73      47.5  T
     SCC iter.                  ...        0 min,  0.029 sec
     gradient                   ...        0 min,  0.016 sec
 * total energy  :  -115.1217779 Eh     change       -0.1098237E-02 Eh
   gradient norm :     0.0131847 Eh/α   predicted    -0.9340193E-03 ( -14.95%)
   displ. norm   :     0.4315681 α      lambda       -0.9449475E-03
   maximum displ.:     0.2412646 α      in ANC's #8, #16, #9, ...

........................................................................
.............................. CYCLE    7 ..............................
........................................................................

 iter      E             dE          RMSdq      gap      omega  full diag
   1   -116.4766115 -0.116477E+03  0.657E-02    0.73       0.0  T
   2   -116.4766201 -0.858021E-05  0.385E-02    0.72       1.0  T
   3   -116.4766191  0.103952E-05  0.975E-03    0.73       1.2  T
   4   -116.4766218 -0.276999E-05  0.283E-03    0.73       4.3  T
   5   -116.4766220 -0.162915E-06  0.142E-03    0.73       8.5  T
   6   -116.4766220 -0.105452E-07  0.455E-04    0.73      26.6  T
   7   -116.4766220 -0.275590E-08  0.160E-04    0.73      75.7  T
     SCC iter.                  ...        0 min,  0.033 sec
     gradient                   ...        0 min,  0.017 sec
 * total energy  :  -115.1225309 Eh     change       -0.7530484E-03 Eh
   gradient norm :     0.0133698 Eh/α   predicted    -0.5604734E-03 ( -25.57%)
   displ. norm   :     0.4774868 α      lambda       -0.9572878E-03
   maximum displ.:     0.2896379 α      in ANC's #8, #16, #9, ...

........................................................................
.............................. CYCLE    8 ..............................
........................................................................

 iter      E             dE          RMSdq      gap      omega  full diag
   1   -116.4802966 -0.116480E+03  0.705E-02    0.74       0.0  T
   2   -116.4803051 -0.853559E-05  0.412E-02    0.74       1.0  T
   3   -116.4803039  0.116244E-05  0.102E-02    0.74       1.2  T
   4   -116.4803070 -0.309342E-05  0.304E-03    0.74       4.0  T
   5   -116.4803072 -0.184011E-06  0.152E-03    0.74       8.0  T
   6   -116.4803072 -0.134251E-07  0.487E-04    0.74      24.9  T
   7   -116.4803072 -0.189817E-08  0.183E-04    0.74      66.2  T
     SCC iter.                  ...        0 min,  0.030 sec
     gradient                   ...        0 min,  0.016 sec
 * total energy  :  -115.1232959 Eh     change       -0.7649140E-03 Eh
   gradient norm :     0.0094543 Eh/α   predicted    -0.5877818E-03 ( -23.16%)
   displ. norm   :     0.5021045 α      lambda       -0.8057033E-03
   maximum displ.:     0.3244087 α      in ANC's #8, #9, #18, ...

........................................................................
.............................. CYCLE    9 ..............................
........................................................................

 iter      E             dE          RMSdq      gap      omega  full diag
   1   -116.4827277 -0.116483E+03  0.738E-02    0.72       0.0  T
   2   -116.4827387 -0.109670E-04  0.430E-02    0.72       1.0  T
   3   -116.4827382  0.471930E-06  0.106E-02    0.73       1.1  T
   4   -116.4827411 -0.284496E-05  0.335E-03    0.73       3.6  T
   5   -116.4827413 -0.223026E-06  0.179E-03    0.73       6.8  T
   6   -116.4827413 -0.276522E-07  0.491E-04    0.73      24.7  T
   7   -116.4827413 -0.324634E-08  0.220E-04    0.73      55.2  T
     SCC iter.                  ...        0 min,  0.032 sec
     gradient                   ...        0 min,  0.019 sec
 * total energy  :  -115.1239208 Eh     change       -0.6249654E-03 Eh
   gradient norm :     0.0070593 Eh/α   predicted    -0.5044273E-03 ( -19.29%)
   displ. norm   :     0.4492298 α      lambda       -0.5479072E-03
   maximum displ.:     0.3085737 α      in ANC's #8, #9, #11, ...

........................................................................
.............................. CYCLE   10 ..............................
........................................................................

 iter      E             dE          RMSdq      gap      omega  full diag
   1   -116.4839977 -0.116484E+03  0.664E-02    0.74       0.0  T
   2   -116.4840059 -0.817622E-05  0.386E-02    0.73       1.0  T
   3   -116.4840060 -0.114649E-06  0.801E-03    0.73       1.5  T
   4   -116.4840075 -0.148274E-05  0.267E-03    0.73       4.5  T
   5   -116.4840076 -0.112913E-06  0.147E-03    0.73       8.2  T
   6   -116.4840076 -0.316222E-07  0.522E-04    0.73      23.2  T
   7   -116.4840076 -0.278862E-08  0.196E-04    0.73      61.9  T
     SCC iter.                  ...        0 min,  0.028 sec
     gradient                   ...        0 min,  0.016 sec
 * total energy  :  -115.1243290 Eh     change       -0.4081422E-03 Eh
   gradient norm :     0.0067239 Eh/α   predicted    -0.3292408E-03 ( -19.33%)
   displ. norm   :     0.4070911 α      lambda       -0.3667958E-03
   maximum displ.:     0.2859124 α      in ANC's #8, #9, #5, ...

........................................................................
.............................. CYCLE   11 ..............................
........................................................................

 iter      E             dE          RMSdq      gap      omega  full diag
   1   -116.4822461 -0.116482E+03  0.614E-02    0.67       0.0  T
   2   -116.4822567 -0.105388E-04  0.355E-02    0.68       1.0  T
   3   -116.4822576 -0.972522E-06  0.788E-03    0.69       1.5  T
   4   -116.4822585 -0.813836E-06  0.283E-03    0.69       4.3  T
   5   -116.4822586 -0.148560E-06  0.147E-03    0.69       8.2  T
   6   -116.4822586 -0.256789E-07  0.623E-04    0.69      19.5  T
   7   -116.4822586 -0.552193E-08  0.190E-04    0.69      64.0  T
     SCC iter.                  ...        0 min,  0.032 sec
     gradient                   ...        0 min,  0.018 sec
 * total energy  :  -115.1245777 Eh     change       -0.2487546E-03 Eh
   gradient norm :     0.0070630 Eh/α   predicted    -0.2137972E-03 ( -14.05%)
   displ. norm   :     0.3347190 α      lambda       -0.3500891E-03
   maximum displ.:     0.2435778 α      in ANC's #8, #9, #5, ...

........................................................................
.............................. CYCLE   12 ..............................
........................................................................

 iter      E             dE          RMSdq      gap      omega  full diag
   1   -116.4839701 -0.116484E+03  0.533E-02    0.72       0.0  T
   2   -116.4839803 -0.101550E-04  0.307E-02    0.71       1.0  T
   3   -116.4839804 -0.874119E-07  0.840E-03    0.71       1.4  T
   4   -116.4839814 -0.983933E-06  0.277E-03    0.71       4.4  T
   5   -116.4839816 -0.213800E-06  0.116E-03    0.71      10.5  T
   6   -116.4839816 -0.115999E-07  0.559E-04    0.71      21.7  T
   7   -116.4839816 -0.288118E-08  0.193E-04    0.71      62.8  T
     SCC iter.                  ...        0 min,  0.030 sec
     gradient                   ...        0 min,  0.018 sec
 * total energy  :  -115.1248064 Eh     change       -0.2287297E-03 Eh
   gradient norm :     0.0057822 Eh/α   predicted    -0.1946646E-03 ( -14.89%)
   displ. norm   :     0.3643959 α      lambda       -0.2568281E-03
   maximum displ.:     0.2646245 α      in ANC's #8, #5, #9, ...

........................................................................
.............................. CYCLE   13 ..............................
........................................................................

 iter      E             dE          RMSdq      gap      omega  full diag
   1   -116.4820673 -0.116482E+03  0.531E-02    0.68       0.0  T
   2   -116.4820696 -0.234973E-05  0.311E-02    0.69       1.0  T
   3   -116.4820699 -0.336638E-06  0.392E-03    0.69       3.1  T
   4   -116.4820704 -0.475854E-06  0.194E-03    0.69       6.2  T
   5   -116.4820705 -0.311371E-07  0.851E-04    0.69      14.2  T
   6   -116.4820705 -0.141075E-07  0.267E-04    0.69      45.4  T
     SCC iter.                  ...        0 min,  0.028 sec
     gradient                   ...        0 min,  0.016 sec
 * total energy  :  -115.1250137 Eh     change       -0.2072131E-03 Eh
   gradient norm :     0.0045264 Eh/α   predicted    -0.1454677E-03 ( -29.80%)
   displ. norm   :     0.3901608 α      lambda       -0.3256302E-03
   maximum displ.:     0.2581466 α      in ANC's #8, #5, #9, ...

........................................................................
.............................. CYCLE   14 ..............................
........................................................................

 iter      E             dE          RMSdq      gap      omega  full diag
   1   -116.4826459 -0.116483E+03  0.612E-02    0.66       0.0  T
   2   -116.4826538 -0.787210E-05  0.354E-02    0.66       1.0  T
   3   -116.4826539 -0.635085E-07  0.762E-03    0.66       1.6  T
   4   -116.4826550 -0.107389E-05  0.246E-03    0.66       4.9  T
   5   -116.4826551 -0.127110E-06  0.131E-03    0.66       9.2  T
   6   -116.4826551 -0.197765E-07  0.404E-04    0.66      30.0  T
   7   -116.4826551 -0.289944E-08  0.169E-04    0.66      71.7  T
     SCC iter.                  ...        0 min,  0.031 sec
     gradient                   ...        0 min,  0.016 sec
 * total energy  :  -115.1252692 Eh     change       -0.2555698E-03 Eh
   gradient norm :     0.0059471 Eh/α   predicted    -0.1876087E-03 ( -26.59%)
   displ. norm   :     0.4667583 α      lambda       -0.3418555E-03
   maximum displ.:     0.2968449 α      in ANC's #8, #5, #9, ...

........................................................................
.............................. CYCLE   15 ..............................
........................................................................

 iter      E             dE          RMSdq      gap      omega  full diag
   1   -116.4816232 -0.116482E+03  0.730E-02    0.65       0.0  T
   2   -116.4816285 -0.530069E-05  0.424E-02    0.65       1.0  T
   3   -116.4816289 -0.328745E-06  0.601E-03    0.65       2.0  T
   4   -116.4816299 -0.101383E-05  0.250E-03    0.65       4.9  T
   5   -116.4816299 -0.628629E-07  0.126E-03    0.65       9.6  T
   6   -116.4816300 -0.206138E-07  0.313E-04    0.65      38.7  T
   7   -116.4816300 -0.187620E-08  0.163E-04    0.65      74.6  T
     SCC iter.                  ...        0 min,  0.032 sec
     gradient                   ...        0 min,  0.017 sec
 * total energy  :  -115.1255259 Eh     change       -0.2566655E-03 Eh
   gradient norm :     0.0070395 Eh/α   predicted    -0.2081675E-03 ( -18.90%)
   displ. norm   :     0.4630482 α      lambda       -0.2942193E-03
   maximum displ.:     0.2745381 α      in ANC's #8, #5, #3, ...

........................................................................
.............................. CYCLE   16 ..............................
........................................................................

 iter      E             dE          RMSdq      gap      omega  full diag
   1   -116.4829176 -0.116483E+03  0.723E-02    0.63       0.0  T
   2   -116.4829233 -0.569433E-05  0.420E-02    0.63       1.0  T
   3   -116.4829235 -0.229967E-06  0.644E-03    0.63       1.9  T
   4   -116.4829247 -0.113636E-05  0.254E-03    0.63       4.8  T
   5   -116.4829247 -0.778228E-07  0.124E-03    0.63       9.8  T
   6   -116.4829247 -0.124758E-07  0.298E-04    0.63      40.7  T
   7   -116.4829247 -0.932758E-09  0.136E-04    0.63      89.4  T
     SCC iter.                  ...        0 min,  0.033 sec
     gradient                   ...        0 min,  0.016 sec
 * total energy  :  -115.1257467 Eh     change       -0.2208186E-03 Eh
   gradient norm :     0.0079661 Eh/α   predicted    -0.1786523E-03 ( -19.10%)
   displ. norm   :     0.4359391 α      lambda       -0.2914337E-03
   maximum displ.:     0.2480112 α      in ANC's #8, #5, #3, ...

........................................................................
.............................. CYCLE   17 ..............................
........................................................................

 iter      E             dE          RMSdq      gap      omega  full diag
   1   -116.4848974 -0.116485E+03  0.677E-02    0.64       0.0  T
   2   -116.4849083 -0.108776E-04  0.387E-02    0.64       1.0  T
   3   -116.4849083 -0.509120E-07  0.947E-03    0.64       1.3  T
   4   -116.4849097 -0.137970E-05  0.279E-03    0.64       4.3  T
   5   -116.4849099 -0.206133E-06  0.136E-03    0.64       8.9  T
   6   -116.4849099 -0.152955E-07  0.342E-04    0.64      35.5  T
   7   -116.4849099 -0.137814E-08  0.178E-04    0.64      68.2  T
     SCC iter.                  ...        0 min,  0.030 sec
     gradient                   ...        0 min,  0.017 sec
 * total energy  :  -115.1259542 Eh     change       -0.2074897E-03 Eh
   gradient norm :     0.0066565 Eh/α   predicted    -0.1734112E-03 ( -16.42%)
   displ. norm   :     0.3786437 α      lambda       -0.2148721E-03
   maximum displ.:     0.2130417 α      in ANC's #8, #5, #3, ...

........................................................................
.............................. CYCLE   18 ..............................
........................................................................

 iter      E             dE          RMSdq      gap      omega  full diag
   1   -116.4866138 -0.116487E+03  0.571E-02    0.62       0.0  T
   2   -116.4866202 -0.642546E-05  0.331E-02    0.63       1.0  T
   3   -116.4866204 -0.213914E-06  0.663E-03    0.63       1.8  T
   4   -116.4866213 -0.903651E-06  0.246E-03    0.63       4.9  T
   5   -116.4866215 -0.132968E-06  0.125E-03    0.63       9.7  T
   6   -116.4866215 -0.139591E-07  0.323E-04    0.63      37.6  T
   7   -116.4866215 -0.146527E-08  0.161E-04    0.63      75.2  T
     SCC iter.                  ...        0 min,  0.033 sec
     gradient                   ...        0 min,  0.016 sec
 * total energy  :  -115.1260993 Eh     change       -0.1450909E-03 Eh
   gradient norm :     0.0071037 Eh/α   predicted    -0.1228396E-03 ( -15.34%)
   displ. norm   :     0.2906025 α      lambda       -0.1817896E-03
   maximum displ.:     0.1451391 α      in ANC's #8, #5, #3, ...

........................................................................
.............................. CYCLE   19 ..............................
........................................................................

 iter      E             dE          RMSdq      gap      omega  full diag
   1   -116.4887112 -0.116489E+03  0.442E-02    0.65       0.0  T
   2   -116.4887159 -0.476544E-05  0.254E-02    0.65       1.0  T
   3   -116.4887161 -0.207443E-06  0.526E-03    0.64       2.3  T
   4   -116.4887166 -0.492541E-06  0.191E-03    0.64       6.4  T
   5   -116.4887167 -0.882124E-07  0.914E-04    0.64      13.3  T
   6   -116.4887167 -0.100298E-07  0.394E-04    0.64      30.8  T
     SCC iter.                  ...        0 min,  0.027 sec
     gradient                   ...        0 min,  0.018 sec
 * total energy  :  -115.1262226 Eh     change       -0.1232958E-03 Eh
   gradient norm :     0.0048781 Eh/α   predicted    -0.9857312E-04 ( -20.05%)
   displ. norm   :     0.4892958 α      lambda       -0.1842027E-03
   maximum displ.:     0.2823380 α      in ANC's #8, #5, #3, ...

........................................................................
.............................. CYCLE   20 ..............................
........................................................................

 iter      E             dE          RMSdq      gap      omega  full diag
   1   -116.4845744 -0.116485E+03  0.745E-02    0.60       0.0  T
   2   -116.4845811 -0.670490E-05  0.432E-02    0.61       1.0  T
   3   -116.4845814 -0.281678E-06  0.708E-03    0.61       1.7  T
   4   -116.4845830 -0.158593E-05  0.300E-03    0.61       4.0  T
   5   -116.4845831 -0.131523E-06  0.132E-03    0.61       9.2  T
   6   -116.4845831 -0.140426E-07  0.404E-04    0.61      30.0  T
   7   -116.4845831 -0.234110E-08  0.177E-04    0.61      68.5  T
     SCC iter.                  ...        0 min,  0.032 sec
     gradient                   ...        0 min,  0.016 sec
 * total energy  :  -115.1263281 Eh     change       -0.1055276E-03 Eh
   gradient norm :     0.0074342 Eh/α   predicted    -0.1141535E-03 (   8.17%)
   displ. norm   :     0.2453455 α      lambda       -0.2214923E-03
   maximum displ.:     0.1092437 α      in ANC's #15, #3, #5, ...
 * RMSD in coord.:     0.7766202 α      energy gain  -0.2849808E-01 Eh

generating ANC from exact Hessian ...
Using Lindh-Hessian (1995)
 Shifting diagonal of input Hessian by    9.9193646109510553E-003
 Lowest  eigenvalues of input Hessian
    0.000000    0.000000    0.000000    0.000000    0.000000    0.000000
    0.010000    0.010021    0.010048    0.010304    0.010511    0.010702
    0.010765    0.010977    0.011116    0.011614    0.011802    0.011960
 Highest eigenvalues
    2.060582    2.115323    2.117611    2.292377    2.357520    2.625843


........................................................................
.............................. CYCLE   21 ..............................
........................................................................

 iter      E             dE          RMSdq      gap      omega  full diag
   1   -116.4872508 -0.116487E+03  0.440E-02    0.61       0.0  T
   2   -116.4872569 -0.606145E-05  0.254E-02    0.60       1.0  T
   3   -116.4872566  0.307594E-06  0.754E-03    0.61       1.6  T
   4   -116.4872577 -0.110184E-05  0.222E-03    0.60       5.5  T
   5   -116.4872578 -0.159583E-06  0.978E-04    0.60      12.4  T
   6   -116.4872578 -0.883918E-08  0.391E-04    0.60      31.0  T
     SCC iter.                  ...        0 min,  0.034 sec
     gradient                   ...        0 min,  0.016 sec
 * total energy  :  -115.1264390 Eh     change       -0.1108791E-03 Eh
   gradient norm :     0.0083533 Eh/α   predicted     0.0000000E+00 (-100.00%)
   displ. norm   :     0.0638255 α      lambda       -0.1410003E-03
   maximum displ.:     0.0255921 α      in ANC's #3, #4, #20, ...

........................................................................
.............................. CYCLE   22 ..............................
........................................................................

 iter      E             dE          RMSdq      gap      omega  full diag
   1   -116.4877257 -0.116488E+03  0.161E-02    0.62       0.0  T
   2   -116.4877288 -0.306651E-05  0.896E-03    0.62       1.4  T
   3   -116.4877290 -0.199909E-06  0.437E-03    0.62       2.8  T
   4   -116.4877290 -0.596958E-07  0.103E-03    0.62      11.7  T
   5   -116.4877291 -0.151075E-07  0.587E-04    0.62      20.6  T
   6   -116.4877291 -0.539576E-08  0.279E-04    0.62      43.5  T
     SCC iter.                  ...        0 min,  0.026 sec
     gradient                   ...        0 min,  0.016 sec
 * total energy  :  -115.1265476 Eh     change       -0.1086522E-03 Eh
   gradient norm :     0.0038501 Eh/α   predicted    -0.7078756E-04 ( -34.85%)
   displ. norm   :     0.1672170 α      lambda       -0.2152735E-03
   maximum displ.:     0.0735654 α      in ANC's #3, #4, #20, ...

........................................................................
.............................. CYCLE   23 ..............................
........................................................................

 iter      E             dE          RMSdq      gap      omega  full diag
   1   -116.4881262 -0.116488E+03  0.350E-02    0.63       0.0  T
   2   -116.4881356 -0.943442E-05  0.200E-02    0.62       1.0  T
   3   -116.4881365 -0.817804E-06  0.840E-03    0.62       1.4  T
   4   -116.4881369 -0.398381E-06  0.238E-03    0.62       5.1  T
   5   -116.4881370 -0.100830E-06  0.134E-03    0.62       9.1  T
   6   -116.4881370 -0.151115E-07  0.426E-04    0.62      28.5  T
   7   -116.4881370 -0.192408E-08  0.154E-04    0.62      78.8  T
     SCC iter.                  ...        0 min,  0.038 sec
     gradient                   ...        0 min,  0.015 sec
 * total energy  :  -115.1266622 Eh     change       -0.1145764E-03 Eh
   gradient norm :     0.0053627 Eh/α   predicted    -0.1106506E-03 (  -3.43%)
   displ. norm   :     0.1446847 α      lambda       -0.1195262E-03
   maximum displ.:     0.0696982 α      in ANC's #4, #3, #32, ...

........................................................................
.............................. CYCLE   24 ..............................
........................................................................

 iter      E             dE          RMSdq      gap      omega  full diag
   1   -116.4878374 -0.116488E+03  0.290E-02    0.61       0.0  T
   2   -116.4878399 -0.253292E-05  0.169E-02    0.61       1.0  T
   3   -116.4878402 -0.265960E-06  0.474E-03    0.61       2.6  T
   4   -116.4878408 -0.614782E-06  0.194E-03    0.61       6.2  T
   5   -116.4878408 -0.276698E-07  0.935E-04    0.61      13.0  T
   6   -116.4878408 -0.642650E-08  0.257E-04    0.61      47.3  T
     SCC iter.                  ...        0 min,  0.061 sec
     gradient                   ...        0 min,  0.019 sec
 * total energy  :  -115.1267369 Eh     change       -0.7467365E-04 Eh
   gradient norm :     0.0047085 Eh/α   predicted    -0.6102237E-04 ( -18.28%)
   displ. norm   :     0.1368297 α      lambda       -0.7825196E-04
   maximum displ.:     0.0713504 α      in ANC's #3, #4, #9, ...

........................................................................
.............................. CYCLE   25 ..............................
........................................................................

 iter      E             dE          RMSdq      gap      omega  full diag
   1   -116.4876458 -0.116488E+03  0.253E-02    0.60       0.0  T
   2   -116.4876478 -0.203098E-05  0.146E-02    0.60       1.0  T
   3   -116.4876480 -0.183356E-06  0.428E-03    0.60       2.8  T
   4   -116.4876485 -0.469217E-06  0.173E-03    0.60       7.0  T
   5   -116.4876485 -0.327903E-07  0.834E-04    0.60      14.5  T
   6   -116.4876485 -0.435820E-08  0.221E-04    0.60      54.9  T
     SCC iter.                  ...        0 min,  0.035 sec
     gradient                   ...        0 min,  0.015 sec
 * total energy  :  -115.1268011 Eh     change       -0.6418949E-04 Eh
   gradient norm :     0.0041729 Eh/α   predicted    -0.3985871E-04 ( -37.90%)
   displ. norm   :     0.2203345 α      lambda       -0.1354922E-03
   maximum displ.:     0.1212112 α      in ANC's #3, #4, #9, ...

........................................................................
.............................. CYCLE   26 ..............................
........................................................................

 iter      E             dE          RMSdq      gap      omega  full diag
   1   -116.4875835 -0.116488E+03  0.408E-02    0.59       0.0  T
   2   -116.4875872 -0.363267E-05  0.235E-02    0.60       1.0  T
   3   -116.4875872 -0.316239E-07  0.599E-03    0.60       2.0  T
   4   -116.4875884 -0.120631E-05  0.231E-03    0.60       5.2  T
   5   -116.4875884 -0.543736E-07  0.109E-03    0.60      11.1  T
   6   -116.4875885 -0.943345E-08  0.280E-04    0.60      43.3  T
   7   -116.4875885 -0.990639E-09  0.116E-04    0.60     104.4  T
     SCC iter.                  ...        0 min,  0.029 sec
     gradient                   ...        0 min,  0.017 sec
 * total energy  :  -115.1269024 Eh     change       -0.1012694E-03 Eh
   gradient norm :     0.0042671 Eh/α   predicted    -0.7104394E-04 ( -29.85%)
   displ. norm   :     0.2493585 α      lambda       -0.1159786E-03
   maximum displ.:     0.1415353 α      in ANC's #3, #4, #9, ...

........................................................................
.............................. CYCLE   27 ..............................
........................................................................

 iter      E             dE          RMSdq      gap      omega  full diag
   1   -116.4873127 -0.116487E+03  0.452E-02    0.60       0.0  T
   2   -116.4873154 -0.271150E-05  0.260E-02    0.60       1.0  T
   3   -116.4873156 -0.201815E-06  0.488E-03    0.60       2.5  T
   4   -116.4873165 -0.897747E-06  0.213E-03    0.60       5.7  T
   5   -116.4873166 -0.266075E-07  0.763E-04    0.60      15.9  T
   6   -116.4873166 -0.981161E-08  0.230E-04    0.60      52.6  T
     SCC iter.                  ...        0 min,  0.034 sec
     gradient                   ...        0 min,  0.016 sec
 * total energy  :  -115.1269961 Eh     change       -0.9372275E-04 Eh
   gradient norm :     0.0050554 Eh/α   predicted    -0.6160117E-04 ( -34.27%)
   displ. norm   :     0.3315394 α      lambda       -0.1433275E-03
   maximum displ.:     0.1911421 α      in ANC's #3, #4, #9, ...

........................................................................
.............................. CYCLE   28 ..............................
........................................................................

 iter      E             dE          RMSdq      gap      omega  full diag
   1   -116.4868483 -0.116487E+03  0.589E-02    0.61       0.0  T
   2   -116.4868523 -0.396601E-05  0.339E-02    0.61       1.0  T
   3   -116.4868533 -0.988809E-06  0.465E-03    0.61       2.6  T
   4   -116.4868538 -0.508707E-06  0.247E-03    0.61       4.9  T
   5   -116.4868538 -0.561210E-07  0.792E-04    0.61      15.3  T
   6   -116.4868538 -0.990499E-08  0.293E-04    0.61      41.4  T
     SCC iter.                  ...        0 min,  0.026 sec
     gradient                   ...        0 min,  0.016 sec
 * total energy  :  -115.1271131 Eh     change       -0.1170628E-03 Eh
   gradient norm :     0.0050114 Eh/α   predicted    -0.7954236E-04 ( -32.05%)
   displ. norm   :     0.4096397 α      lambda       -0.1615650E-03
   maximum displ.:     0.2402211 α      in ANC's #3, #4, #9, ...

........................................................................
.............................. CYCLE   29 ..............................
........................................................................

 iter      E             dE          RMSdq      gap      omega  full diag
   1   -116.4860982 -0.116486E+03  0.700E-02    0.61       0.0  T
   2   -116.4861037 -0.550790E-05  0.402E-02    0.61       1.0  T
   3   -116.4861056 -0.190687E-05  0.455E-03    0.61       2.7  T
   4   -116.4861057 -0.128583E-06  0.246E-03    0.61       4.9  T
   5   -116.4861058 -0.313694E-07  0.796E-04    0.61      15.2  T
   6   -116.4861058 -0.163755E-07  0.303E-04    0.61      40.1  T
     SCC iter.                  ...        0 min,  0.035 sec
     gradient                   ...        0 min,  0.017 sec
 * total energy  :  -115.1272471 Eh     change       -0.1339719E-03 Eh
   gradient norm :     0.0054739 Eh/α   predicted    -0.9434076E-04 ( -29.58%)
   displ. norm   :     0.4604331 α      lambda       -0.2006275E-03
   maximum displ.:     0.2799340 α      in ANC's #3, #4, #9, ...

........................................................................
.............................. CYCLE   30 ..............................
........................................................................

 iter      E             dE          RMSdq      gap      omega  full diag
   1   -116.4863595 -0.116486E+03  0.743E-02    0.63       0.0  T
   2   -116.4863683 -0.881953E-05  0.426E-02    0.63       1.0  T
   3   -116.4863704 -0.201791E-05  0.580E-03    0.63       2.1  T
   4   -116.4863706 -0.240226E-06  0.265E-03    0.63       4.6  T
   5   -116.4863706 -0.575795E-08  0.960E-04    0.63      12.6  T
   6   -116.4863706 -0.256661E-07  0.372E-04    0.63      32.6  T
     SCC iter.                  ...        0 min,  0.025 sec
     gradient                   ...        0 min,  0.016 sec
 * total energy  :  -115.1274016 Eh     change       -0.1544736E-03 Eh
   gradient norm :     0.0062329 Eh/α   predicted    -0.1215805E-03 ( -21.29%)
   displ. norm   :     0.4596962 α      lambda       -0.2034175E-03
   maximum displ.:     0.2874379 α      in ANC's #3, #4, #9, ...

........................................................................
.............................. CYCLE   31 ..............................
........................................................................

 iter      E             dE          RMSdq      gap      omega  full diag
   1   -116.4857493 -0.116486E+03  0.704E-02    0.60       0.0  T
   2   -116.4857579 -0.850351E-05  0.406E-02    0.60       1.0  T
   3   -116.4857593 -0.142809E-05  0.663E-03    0.60       1.8  T
   4   -116.4857602 -0.885919E-06  0.313E-03    0.60       3.9  T
   5   -116.4857603 -0.115538E-06  0.147E-03    0.60       8.2  T
   6   -116.4857603 -0.139537E-07  0.410E-04    0.60      29.6  T
   7   -116.4857603 -0.351891E-08  0.152E-04    0.60      79.9  T
     SCC iter.                  ...        0 min,  0.037 sec
     gradient                   ...        0 min,  0.016 sec
 * total energy  :  -115.1275489 Eh     change       -0.1472792E-03 Eh
   gradient norm :     0.0074502 Eh/α   predicted    -0.1232077E-03 ( -16.34%)
   displ. norm   :     0.3893906 α      lambda       -0.3469329E-03
   maximum displ.:     0.2592217 α      in ANC's #3, #4, #9, ...

........................................................................
.............................. CYCLE   32 ..............................
........................................................................

 iter      E             dE          RMSdq      gap      omega  full diag
   1   -116.4924734 -0.116492E+03  0.689E-02    0.65       0.0  T
   2   -116.4925100 -0.366567E-04  0.386E-02    0.64       1.0  T
   3   -116.4925116 -0.155659E-05  0.166E-02    0.64       1.0  T
   4   -116.4925126 -0.100610E-05  0.390E-03    0.64       3.1  T
   5   -116.4925131 -0.511256E-06  0.180E-03    0.64       6.7  T
   6   -116.4925131 -0.291166E-07  0.696E-04    0.64      17.4  T
   7   -116.4925131 -0.256956E-08  0.227E-04    0.64      53.3  T
     SCC iter.                  ...        0 min,  0.030 sec
     gradient                   ...        0 min,  0.016 sec
 * total energy  :  -115.1276071 Eh     change       -0.5822394E-04 Eh
   gradient norm :     0.0135745 Eh/α   predicted    -0.1997702E-03 ( 243.11%)
   displ. norm   :     0.3651108 α      lambda       -0.3224267E-03
   maximum displ.:     0.2221154 α      in ANC's #3, #4, #9, ...

........................................................................
.............................. CYCLE   33 ..............................
........................................................................

 iter      E             dE          RMSdq      gap      omega  full diag
   1   -116.4879564 -0.116488E+03  0.655E-02    0.60       0.0  T
   2   -116.4879653 -0.887478E-05  0.377E-02    0.60       1.0  T
   3   -116.4879661 -0.787983E-06  0.747E-03    0.61       1.6  T
   4   -116.4879673 -0.116559E-05  0.330E-03    0.61       3.7  T
   5   -116.4879675 -0.221392E-06  0.152E-03    0.61       8.0  T
   6   -116.4879675 -0.144810E-07  0.456E-04    0.61      26.6  T
   7   -116.4879675 -0.193219E-08  0.177E-04    0.61      68.3  T
     SCC iter.                  ...        0 min,  0.038 sec
     gradient                   ...        0 min,  0.015 sec
 * total energy  :  -115.1278170 Eh     change       -0.2098825E-03 Eh
   gradient norm :     0.0083041 Eh/α   predicted    -0.1827080E-03 ( -12.95%)
   displ. norm   :     0.2653627 α      lambda       -0.1421098E-03
   maximum displ.:     0.1771695 α      in ANC's #3, #4, #9, ...

........................................................................
.............................. CYCLE   34 ..............................
........................................................................

 iter      E             dE          RMSdq      gap      omega  full diag
   1   -116.4872109 -0.116487E+03  0.394E-02    0.58       0.0  T
   2   -116.4872146 -0.370811E-05  0.227E-02    0.59       1.0  T
   3   -116.4872152 -0.574323E-06  0.433E-03    0.59       2.8  T
   4   -116.4872153 -0.177614E-06  0.165E-03    0.59       7.3  T
   5   -116.4872153 -0.907069E-08  0.866E-04    0.59      14.0  T
   6   -116.4872154 -0.159554E-07  0.245E-04    0.59      49.6  T
     SCC iter.                  ...        0 min,  0.024 sec
     gradient                   ...        0 min,  0.016 sec
 * total energy  :  -115.1279283 Eh     change       -0.1112983E-03 Eh
   gradient norm :     0.0069475 Eh/α   predicted    -0.7605941E-04 ( -31.66%)
   displ. norm   :     0.3183661 α      lambda       -0.2254199E-03
   maximum displ.:     0.2175628 α      in ANC's #3, #4, #5, ...

........................................................................
.............................. CYCLE   35 ..............................
........................................................................

 iter      E             dE          RMSdq      gap      omega  full diag
   1   -116.4885949 -0.116489E+03  0.446E-02    0.60       0.0  T
   2   -116.4885995 -0.455023E-05  0.256E-02    0.60       1.0  T
   3   -116.4885994  0.818903E-07  0.578E-03    0.60       2.1  T
   4   -116.4886003 -0.907923E-06  0.203E-03    0.60       6.0  T
   5   -116.4886004 -0.100838E-06  0.925E-04    0.60      13.1  T
   6   -116.4886004 -0.727037E-08  0.342E-04    0.60      35.5  T
     SCC iter.                  ...        0 min,  0.034 sec
     gradient                   ...        0 min,  0.019 sec
 * total energy  :  -115.1280863 Eh     change       -0.1580021E-03 Eh
   gradient norm :     0.0055439 Eh/α   predicted    -0.1241429E-03 ( -21.43%)
   displ. norm   :     0.5689730 α      lambda       -0.2035018E-03
   maximum displ.:     0.3895233 α      in ANC's #3, #4, #5, ...

........................................................................
.............................. CYCLE   36 ..............................
........................................................................

 iter      E             dE          RMSdq      gap      omega  full diag
   1   -116.4870777 -0.116487E+03  0.768E-02    0.59       0.0  T
   2   -116.4870843 -0.667347E-05  0.443E-02    0.59       1.0  T
   3   -116.4870861 -0.176483E-05  0.544E-03    0.59       2.2  T
   4   -116.4870866 -0.534665E-06  0.286E-03    0.59       4.2  T
   5   -116.4870867 -0.530417E-07  0.110E-03    0.59      11.0  T
   6   -116.4870867 -0.259334E-07  0.323E-04    0.59      37.6  T
   7   -116.4870867 -0.140301E-08  0.161E-04    0.59      75.3  T
     SCC iter.                  ...        0 min,  0.031 sec
     gradient                   ...        0 min,  0.015 sec
 * total energy  :  -115.1282519 Eh     change       -0.1656453E-03 Eh
   gradient norm :     0.0068518 Eh/α   predicted    -0.1346909E-03 ( -18.69%)
   displ. norm   :     0.5468544 α      lambda       -0.2861662E-03
   maximum displ.:     0.3780499 α      in ANC's #3, #4, #5, ...

........................................................................
.............................. CYCLE   37 ..............................
........................................................................

 iter      E             dE          RMSdq      gap      omega  full diag
   1   -116.4888723 -0.116489E+03  0.709E-02    0.59       0.0  T
   2   -116.4888769 -0.465356E-05  0.410E-02    0.59       1.0  T
   3   -116.4888769  0.862840E-07  0.664E-03    0.59       1.8  T
   4   -116.4888787 -0.181876E-05  0.258E-03    0.59       4.7  T
   5   -116.4888787 -0.518259E-07  0.884E-04    0.59      13.7  T
   6   -116.4888787 -0.677576E-08  0.303E-04    0.59      40.1  T
     SCC iter.                  ...        0 min,  0.032 sec
     gradient                   ...        0 min,  0.017 sec
 * total energy  :  -115.1284579 Eh     change       -0.2060240E-03 Eh
   gradient norm :     0.0064762 Eh/α   predicted    -0.1858729E-03 (  -9.78%)
   displ. norm   :     0.7021549 α      lambda       -0.2661734E-03
   maximum displ.:     0.4889218 α      in ANC's #3, #4, #5, ...

........................................................................
.............................. CYCLE   38 ..............................
........................................................................

 iter      E             dE          RMSdq      gap      omega  full diag
   1   -116.4859487 -0.116486E+03  0.936E-02    0.58       0.0  T
   2   -116.4859645 -0.158246E-04  0.539E-02    0.58       1.0  T
   3   -116.4859644  0.113095E-06  0.114E-02    0.58       1.1  T
   4   -116.4859681 -0.372263E-05  0.406E-03    0.58       3.0  T
   5   -116.4859684 -0.305013E-06  0.192E-03    0.58       6.3  T
   6   -116.4859684 -0.273211E-07  0.560E-04    0.58      21.7  T
   7   -116.4859684 -0.215481E-08  0.258E-04    0.58      47.0  T
     SCC iter.                  ...        0 min,  0.029 sec
     gradient                   ...        0 min,  0.015 sec
 * total energy  :  -115.1286388 Eh     change       -0.1808832E-03 Eh
   gradient norm :     0.0074902 Eh/α   predicted    -0.1987047E-03 (   9.85%)
   displ. norm   :     0.4337212 α      lambda       -0.2258512E-03
   maximum displ.:     0.3026793 α      in ANC's #3, #4, #5, ...

........................................................................
.............................. CYCLE   39 ..............................
........................................................................

 iter      E             dE          RMSdq      gap      omega  full diag
   1   -116.4875887 -0.116488E+03  0.521E-02    0.57       0.0  T
   2   -116.4875915 -0.275004E-05  0.303E-02    0.57       1.0  T
   3   -116.4875915 -0.159324E-07  0.446E-03    0.58       2.7  T
   4   -116.4875923 -0.791851E-06  0.178E-03    0.58       6.8  T
   5   -116.4875923 -0.338020E-07  0.834E-04    0.58      14.5  T
   6   -116.4875923 -0.872626E-08  0.216E-04    0.58      56.1  T
     SCC iter.                  ...        0 min,  0.037 sec
     gradient                   ...        0 min,  0.016 sec
 * total energy  :  -115.1288205 Eh     change       -0.1816810E-03 Eh
   gradient norm :     0.0063871 Eh/α   predicted    -0.1341720E-03 ( -26.15%)
   displ. norm   :     0.5683848 α      lambda       -0.2555912E-03
   maximum displ.:     0.4037506 α      in ANC's #3, #4, #5, ...

........................................................................
.............................. CYCLE   40 ..............................
........................................................................

 iter      E             dE          RMSdq      gap      omega  full diag
   1   -116.4878423 -0.116488E+03  0.660E-02    0.55       0.0  T
   2   -116.4878486 -0.634222E-05  0.383E-02    0.56       1.0  T
   3   -116.4878487 -0.123385E-06  0.698E-03    0.56       1.7  T
   4   -116.4878501 -0.140504E-05  0.268E-03    0.56       4.5  T
   5   -116.4878503 -0.112958E-06  0.128E-03    0.56       9.4  T
   6   -116.4878503 -0.106541E-07  0.345E-04    0.56      35.1  T
   7   -116.4878503 -0.119614E-08  0.151E-04    0.56      80.5  T
     SCC iter.                  ...        0 min,  0.029 sec
     gradient                   ...        0 min,  0.015 sec
 * total energy  :  -115.1290133 Eh     change       -0.1928224E-03 Eh
   gradient norm :     0.0074769 Eh/α   predicted    -0.1690853E-03 ( -12.31%)
   displ. norm   :     0.5019005 α      lambda       -0.2500446E-03
   maximum displ.:     0.3384680 α      in ANC's #3, #5, #4, ...

........................................................................
.............................. CYCLE   41 ..............................
........................................................................

 iter      E             dE          RMSdq      gap      omega  full diag
   1   -116.4923021 -0.116492E+03  0.624E-02    0.60       0.0  T
   2   -116.4923134 -0.113443E-04  0.361E-02    0.60       1.0  T
   3   -116.4923141 -0.716118E-06  0.781E-03    0.59       1.6  T
   4   -116.4923145 -0.385769E-06  0.233E-03    0.59       5.2  T
   5   -116.4923146 -0.102332E-06  0.124E-03    0.59       9.8  T
   6   -116.4923146 -0.203744E-07  0.554E-04    0.59      21.9  T
   7   -116.4923147 -0.235228E-08  0.159E-04    0.59      76.3  T
     SCC iter.                  ...        0 min,  0.040 sec
     gradient                   ...        0 min,  0.019 sec
 * total energy  :  -115.1291198 Eh     change       -0.1064334E-03 Eh
   gradient norm :     0.0061076 Eh/α   predicted    -0.1565182E-03 (  47.06%)
   displ. norm   :     0.6423751 α      lambda       -0.2642329E-03
   maximum displ.:     0.4645655 α      in ANC's #3, #4, #5, ...

........................................................................
.............................. CYCLE   42 ..............................
........................................................................

 iter      E             dE          RMSdq      gap      omega  full diag
   1   -116.4863599 -0.116486E+03  0.820E-02    0.54       0.0  T
   2   -116.4863754 -0.154512E-04  0.472E-02    0.55       1.0  T
   3   -116.4863756 -0.251095E-06  0.101E-02    0.56       1.2  T
   4   -116.4863777 -0.207116E-05  0.412E-03    0.56       2.9  T
   5   -116.4863782 -0.522786E-06  0.166E-03    0.56       7.3  T
   6   -116.4863782 -0.113546E-07  0.559E-04    0.56      21.7  T
   7   -116.4863782 -0.638028E-08  0.209E-04    0.56      58.1  T
     SCC iter.                  ...        0 min,  0.033 sec
     gradient                   ...        0 min,  0.017 sec
 * total energy  :  -115.1292522 Eh     change       -0.1323976E-03 Eh
   gradient norm :     0.0088291 Eh/α   predicted    -0.1866348E-03 (  40.97%)
   displ. norm   :     0.1181185 α      lambda       -0.1239226E-03
   maximum displ.:     0.0847233 α      in ANC's #3, #5, #25, ...
 * RMSD in coord.:     0.8949172 α      energy gain  -0.2924044E-02 Eh

generating ANC from exact Hessian ...
Using Lindh-Hessian (1995)
 Shifting diagonal of input Hessian by    9.9205459135563671E-003
 Lowest  eigenvalues of input Hessian
    0.000000    0.000000    0.000000    0.000000    0.000000    0.000000
    0.010000    0.010017    0.010052    0.010307    0.010456    0.010723
    0.010758    0.011066    0.011179    0.011616    0.011729    0.011894
 Highest eigenvalues
    2.052965    2.113516    2.115800    2.297464    2.346557    2.610658


........................................................................
.............................. CYCLE   43 ..............................
........................................................................

 iter      E             dE          RMSdq      gap      omega  full diag
   1   -116.4890345 -0.116489E+03  0.201E-02    0.54       0.0  T
   2   -116.4890369 -0.239634E-05  0.117E-02    0.55       1.0  T
   3   -116.4890368  0.108799E-06  0.455E-03    0.55       2.7  T
   4   -116.4890371 -0.382778E-06  0.145E-03    0.55       8.4  T
   5   -116.4890372 -0.621467E-07  0.474E-04    0.55      25.6  T
   6   -116.4890372 -0.169329E-08  0.228E-04    0.55      53.2  T
     SCC iter.                  ...        0 min,  0.027 sec
     gradient                   ...        0 min,  0.017 sec
 * total energy  :  -115.1293297 Eh     change       -0.7758439E-04 Eh
   gradient norm :     0.0083571 Eh/α   predicted     0.0000000E+00 (-100.00%)
   displ. norm   :     0.0546028 α      lambda       -0.9795003E-04
   maximum displ.:     0.0261448 α      in ANC's #16, #3, #29, ...

........................................................................
.............................. CYCLE   44 ..............................
........................................................................

 iter      E             dE          RMSdq      gap      omega  full diag
   1   -116.4905463 -0.116491E+03  0.164E-02    0.58       0.0  T
   2   -116.4905497 -0.343837E-05  0.927E-03    0.58       1.3  T
   3   -116.4905499 -0.178003E-06  0.460E-03    0.57       2.6  T
   4   -116.4905500 -0.709606E-07  0.157E-03    0.57       7.7  T
   5   -116.4905501 -0.774437E-07  0.582E-04    0.57      20.8  T
   6   -116.4905501 -0.309096E-08  0.311E-04    0.57      39.0  T
     SCC iter.                  ...        0 min,  0.033 sec
     gradient                   ...        0 min,  0.018 sec
 * total energy  :  -115.1294134 Eh     change       -0.8363976E-04 Eh
   gradient norm :     0.0033302 Eh/α   predicted    -0.6060016E-04 ( -27.55%)
   displ. norm   :     0.1130147 α      lambda       -0.1210846E-03
   maximum displ.:     0.0524827 α      in ANC's #16, #3, #25, ...

........................................................................
.............................. CYCLE   45 ..............................
........................................................................

 iter      E             dE          RMSdq      gap      omega  full diag
   1   -116.4920125 -0.116492E+03  0.236E-02    0.60       0.0  T
   2   -116.4920182 -0.575056E-05  0.136E-02    0.60       1.0  T
   3   -116.4920186 -0.386376E-06  0.637E-03    0.60       1.9  T
   4   -116.4920188 -0.204111E-06  0.206E-03    0.59       5.9  T
   5   -116.4920190 -0.123771E-06  0.949E-04    0.59      12.8  T
   6   -116.4920190 -0.708748E-08  0.454E-04    0.59      26.7  T
     SCC iter.                  ...        0 min,  0.026 sec
     gradient                   ...        0 min,  0.015 sec
 * total energy  :  -115.1294699 Eh     change       -0.5646615E-04 Eh
   gradient norm :     0.0046434 Eh/α   predicted    -0.6133880E-04 (   8.63%)
   displ. norm   :     0.0927756 α      lambda       -0.6705117E-04
   maximum displ.:     0.0460756 α      in ANC's #3, #16, #4, ...

........................................................................
.............................. CYCLE   46 ..............................
........................................................................

 iter      E             dE          RMSdq      gap      omega  full diag
   1   -116.4916896 -0.116492E+03  0.169E-02    0.59       0.0  T
   2   -116.4916902 -0.587553E-06  0.992E-03    0.59       1.2  T
   3   -116.4916904 -0.137292E-06  0.209E-03    0.59       5.8  T
   4   -116.4916905 -0.110540E-06  0.104E-03    0.59      11.6  T
   5   -116.4916905 -0.112594E-07  0.461E-04    0.59      26.3  T
   6   -116.4916905 -0.208877E-08  0.126E-04    0.59      95.9  T
     SCC iter.                  ...        0 min,  0.032 sec
     gradient                   ...        0 min,  0.016 sec
 * total energy  :  -115.1295213 Eh     change       -0.5140888E-04 Eh
   gradient norm :     0.0036605 Eh/α   predicted    -0.3381803E-04 ( -34.22%)
   displ. norm   :     0.1752269 α      lambda       -0.8194555E-04
   maximum displ.:     0.0911059 α      in ANC's #3, #16, #4, ...

........................................................................
.............................. CYCLE   47 ..............................
........................................................................

 iter      E             dE          RMSdq      gap      omega  full diag
   1   -116.4905033 -0.116491E+03  0.306E-02    0.57       0.0  T
   2   -116.4905067 -0.342536E-05  0.177E-02    0.57       1.0  T
   3   -116.4905074 -0.637361E-06  0.445E-03    0.58       2.7  T
   4   -116.4905075 -0.172533E-06  0.192E-03    0.58       6.3  T
   5   -116.4905076 -0.587407E-07  0.990E-04    0.58      12.2  T
   6   -116.4905076 -0.804131E-08  0.305E-04    0.58      39.7  T
     SCC iter.                  ...        0 min,  0.026 sec
     gradient                   ...        0 min,  0.016 sec
 * total energy  :  -115.1295734 Eh     change       -0.5211188E-04 Eh
   gradient norm :     0.0024995 Eh/α   predicted    -0.4223141E-04 ( -18.96%)
   displ. norm   :     0.0960909 α      lambda       -0.3313569E-04
   maximum displ.:     0.0572183 α      in ANC's #3, #4, #16, ...

........................................................................
.............................. CYCLE   48 ..............................
........................................................................

 iter      E             dE          RMSdq      gap      omega  full diag
   1   -116.4901850 -0.116490E+03  0.157E-02    0.57       0.0  T
   2   -116.4901855 -0.531763E-06  0.915E-03    0.57       1.3  T
   3   -116.4901856 -0.726014E-07  0.189E-03    0.58       6.4  T
   4   -116.4901857 -0.640321E-07  0.814E-04    0.58      14.9  T
   5   -116.4901857 -0.994397E-08  0.415E-04    0.58      29.2  T
     SCC iter.                  ...        0 min,  0.025 sec
     gradient                   ...        0 min,  0.018 sec
 * total energy  :  -115.1296019 Eh     change       -0.2848428E-04 Eh
   gradient norm :     0.0025202 Eh/α   predicted    -0.1672795E-04 ( -41.27%)
   displ. norm   :     0.1857949 α      lambda       -0.7728337E-04
   maximum displ.:     0.1126946 α      in ANC's #3, #4, #6, ...

........................................................................
.............................. CYCLE   49 ..............................
........................................................................

 iter      E             dE          RMSdq      gap      omega  full diag
   1   -116.4901400 -0.116490E+03  0.307E-02    0.58       0.0  T
   2   -116.4901414 -0.143054E-05  0.180E-02    0.58       1.0  T
   3   -116.4901415 -0.947046E-07  0.318E-03    0.58       3.8  T
   4   -116.4901417 -0.241107E-06  0.125E-03    0.58       9.7  T
   5   -116.4901418 -0.195945E-07  0.660E-04    0.58      18.4  T
   6   -116.4901418 -0.360086E-08  0.208E-04    0.58      58.3  T
     SCC iter.                  ...        0 min,  0.026 sec
     gradient                   ...        0 min,  0.016 sec
 * total energy  :  -115.1296624 Eh     change       -0.6049609E-04 Eh
   gradient norm :     0.0022274 Eh/α   predicted    -0.3997672E-04 ( -33.92%)
   displ. norm   :     0.2618336 α      lambda       -0.7490680E-04
   maximum displ.:     0.1594572 α      in ANC's #3, #4, #6, ...

........................................................................
.............................. CYCLE   50 ..............................
........................................................................

 iter      E             dE          RMSdq      gap      omega  full diag
   1   -116.4898738 -0.116490E+03  0.422E-02    0.58       0.0  T
   2   -116.4898757 -0.195744E-05  0.246E-02    0.58       1.0  T
   3   -116.4898762 -0.464564E-06  0.313E-03    0.58       3.9  T
   4   -116.4898764 -0.157329E-06  0.159E-03    0.58       7.6  T
   5   -116.4898764 -0.164941E-07  0.758E-04    0.58      16.0  T
   6   -116.4898764 -0.885764E-08  0.225E-04    0.58      53.9  T
     SCC iter.                  ...        0 min,  0.028 sec
     gradient                   ...        0 min,  0.017 sec
 * total energy  :  -115.1297195 Eh     change       -0.5719113E-04 Eh
   gradient norm :     0.0033264 Eh/α   predicted    -0.4002126E-04 ( -30.02%)
   displ. norm   :     0.2308808 α      lambda       -0.5779957E-04
   maximum displ.:     0.1441018 α      in ANC's #3, #4, #6, ...

........................................................................
.............................. CYCLE   51 ..............................
........................................................................

 iter      E             dE          RMSdq      gap      omega  full diag
   1   -116.4900702 -0.116490E+03  0.360E-02    0.58       0.0  T
   2   -116.4900714 -0.111085E-05  0.210E-02    0.59       1.0  T
   3   -116.4900716 -0.280040E-06  0.250E-03    0.59       4.8  T
   4   -116.4900718 -0.141366E-06  0.134E-03    0.59       9.1  T
   5   -116.4900718 -0.154780E-07  0.497E-04    0.59      24.4  T
   6   -116.4900718 -0.485554E-08  0.152E-04    0.59      80.0  T
     SCC iter.                  ...        0 min,  0.034 sec
     gradient                   ...        0 min,  0.016 sec
 * total energy  :  -115.1297653 Eh     change       -0.4575836E-04 Eh
   gradient norm :     0.0033139 Eh/α   predicted    -0.3044686E-04 ( -33.46%)
   displ. norm   :     0.2025204 α      lambda       -0.5411669E-04
   maximum displ.:     0.1303157 α      in ANC's #3, #4, #6, ...

........................................................................
.............................. CYCLE   52 ..............................
........................................................................

 iter      E             dE          RMSdq      gap      omega  full diag
   1   -116.4908167 -0.116491E+03  0.304E-02    0.59       0.0  T
   2   -116.4908176 -0.942476E-06  0.177E-02    0.59       1.0  T
   3   -116.4908176  0.553817E-07  0.304E-03    0.59       4.0  T
   4   -116.4908180 -0.390856E-06  0.118E-03    0.59      10.3  T
   5   -116.4908180 -0.116659E-07  0.488E-04    0.59      24.8  T
   6   -116.4908180 -0.215255E-08  0.151E-04    0.59      80.3  T
     SCC iter.                  ...        0 min,  0.028 sec
     gradient                   ...        0 min,  0.017 sec
 * total energy  :  -115.1298087 Eh     change       -0.4341995E-04 Eh
   gradient norm :     0.0023643 Eh/α   predicted    -0.2816895E-04 ( -35.12%)
   displ. norm   :     0.2173752 α      lambda       -0.5484064E-04
   maximum displ.:     0.1412571 α      in ANC's #3, #4, #6, ...

........................................................................
.............................. CYCLE   53 ..............................
........................................................................

 iter      E             dE          RMSdq      gap      omega  full diag
   1   -116.4913090 -0.116491E+03  0.311E-02    0.59       0.0  T
   2   -116.4913102 -0.123861E-05  0.181E-02    0.59       1.0  T
   3   -116.4913101  0.162260E-06  0.357E-03    0.60       3.4  T
   4   -116.4913106 -0.548612E-06  0.125E-03    0.60       9.7  T
   5   -116.4913106 -0.154091E-07  0.547E-04    0.60      22.2  T
   6   -116.4913107 -0.215357E-08  0.176E-04    0.60      69.1  T
     SCC iter.                  ...        0 min,  0.031 sec
     gradient                   ...        0 min,  0.017 sec
 * total energy  :  -115.1298535 Eh     change       -0.4473491E-04 Eh
   gradient norm :     0.0017635 Eh/α   predicted    -0.2871857E-04 ( -35.80%)
   displ. norm   :     0.3622780 α      lambda       -0.5823962E-04
   maximum displ.:     0.2354749 α      in ANC's #3, #4, #6, ...

........................................................................
.............................. CYCLE   54 ..............................
........................................................................

 iter      E             dE          RMSdq      gap      omega  full diag
   1   -116.4915069 -0.116492E+03  0.498E-02    0.59       0.0  T
   2   -116.4915102 -0.326337E-05  0.289E-02    0.60       1.0  T
   3   -116.4915099  0.224235E-06  0.539E-03    0.60       2.3  T
   4   -116.4915111 -0.112323E-05  0.192E-03    0.60       6.3  T
   5   -116.4915111 -0.420913E-07  0.879E-04    0.60      13.8  T
   6   -116.4915111 -0.604885E-08  0.257E-04    0.60      47.3  T
     SCC iter.                  ...        0 min,  0.029 sec
     gradient                   ...        0 min,  0.018 sec
 * total energy  :  -115.1299211 Eh     change       -0.6764072E-04 Eh
   gradient norm :     0.0030479 Eh/α   predicted    -0.3082003E-04 ( -54.44%)
   displ. norm   :     0.2307467 α      lambda       -0.5539405E-04
   maximum displ.:     0.1499599 α      in ANC's #3, #4, #9, ...

........................................................................
.............................. CYCLE   55 ..............................
........................................................................

 iter      E             dE          RMSdq      gap      omega  full diag
   1   -116.4913096 -0.116491E+03  0.308E-02    0.59       0.0  T
   2   -116.4913108 -0.113490E-05  0.179E-02    0.60       1.0  T
   3   -116.4913110 -0.220729E-06  0.206E-03    0.60       5.9  T
   4   -116.4913110 -0.577944E-07  0.103E-03    0.60      11.8  T
   5   -116.4913111 -0.140910E-07  0.481E-04    0.60      25.2  T
   6   -116.4913111 -0.270023E-08  0.124E-04    0.60      98.1  T
     SCC iter.                  ...        0 min,  0.031 sec
     gradient                   ...        0 min,  0.017 sec
 * total energy  :  -115.1299710 Eh     change       -0.4987688E-04 Eh
   gradient norm :     0.0029459 Eh/α   predicted    -0.2917530E-04 ( -41.51%)
   displ. norm   :     0.3512273 α      lambda       -0.9433846E-04
   maximum displ.:     0.2239130 α      in ANC's #3, #4, #9, ...

........................................................................
.............................. CYCLE   56 ..............................
........................................................................

 iter      E             dE          RMSdq      gap      omega  full diag
   1   -116.4914925 -0.116491E+03  0.473E-02    0.60       0.0  T
   2   -116.4914942 -0.168027E-05  0.276E-02    0.61       1.0  T
   3   -116.4914946 -0.466871E-06  0.244E-03    0.61       5.0  T
   4   -116.4914947 -0.520502E-07  0.132E-03    0.61       9.2  T
   5   -116.4914947 -0.107781E-07  0.623E-04    0.61      19.5  T
   6   -116.4914947 -0.760900E-08  0.179E-04    0.61      67.6  T
     SCC iter.                  ...        0 min,  0.026 sec
     gradient                   ...        0 min,  0.016 sec
 * total energy  :  -115.1300466 Eh     change       -0.7562385E-04 Eh
   gradient norm :     0.0028649 Eh/α   predicted    -0.5299214E-04 ( -29.93%)
   displ. norm   :     0.3994050 α      lambda       -0.8472611E-04
   maximum displ.:     0.2593087 α      in ANC's #3, #4, #9, ...

........................................................................
.............................. CYCLE   57 ..............................
........................................................................

 iter      E             dE          RMSdq      gap      omega  full diag
   1   -116.4893564 -0.116489E+03  0.545E-02    0.58       0.0  T
   2   -116.4893644 -0.793004E-05  0.313E-02    0.60       1.0  T
   3   -116.4893650 -0.642932E-06  0.604E-03    0.61       2.0  T
   4   -116.4893653 -0.294330E-06  0.208E-03    0.61       5.8  T
   5   -116.4893654 -0.879014E-07  0.111E-03    0.61      11.0  T
   6   -116.4893654 -0.175043E-07  0.397E-04    0.61      30.6  T
   7   -116.4893654 -0.204776E-08  0.145E-04    0.61      83.6  T
     SCC iter.                  ...        0 min,  0.037 sec
     gradient                   ...        0 min,  0.017 sec
 * total energy  :  -115.1300958 Eh     change       -0.4918527E-04 Eh
   gradient norm :     0.0039416 Eh/α   predicted    -0.4912623E-04 (  -0.12%)
   displ. norm   :     0.1883933 α      lambda       -0.6226380E-04
   maximum displ.:     0.1174370 α      in ANC's #3, #1, #16, ...

........................................................................
.............................. CYCLE   58 ..............................
........................................................................

 iter      E             dE          RMSdq      gap      omega  full diag
   1   -116.4914038 -0.116491E+03  0.289E-02    0.61       0.0  T
   2   -116.4914048 -0.101451E-05  0.169E-02    0.61       1.0  T
   3   -116.4914047  0.844023E-07  0.284E-03    0.62       4.3  T
   4   -116.4914050 -0.255891E-06  0.957E-04    0.61      12.7  T
   5   -116.4914050 -0.198582E-07  0.466E-04    0.62      26.0  T
     SCC iter.                  ...        0 min,  0.023 sec
     gradient                   ...        0 min,  0.017 sec
 * total energy  :  -115.1301247 Eh     change       -0.2891559E-04 Eh
   gradient norm :     0.0029710 Eh/α   predicted    -0.3224080E-04 (  11.50%)
   displ. norm   :     0.1256449 α      lambda       -0.3205895E-04
   maximum displ.:     0.0881381 α      in ANC's #3, #4, #1, ...

........................................................................
.............................. CYCLE   59 ..............................
........................................................................

 iter      E             dE          RMSdq      gap      omega  full diag
   1   -116.4911025 -0.116491E+03  0.153E-02    0.62       0.0  T
   2   -116.4911029 -0.410838E-06  0.895E-03    0.62       1.4  T
   3   -116.4911029 -0.867587E-09  0.154E-03    0.62       7.9  T
   4   -116.4911029 -0.625508E-07  0.549E-04    0.62      22.1  T
   5   -116.4911029 -0.542681E-08  0.279E-04    0.62      43.4  T
     SCC iter.                  ...        0 min,  0.031 sec
     gradient                   ...        0 min,  0.014 sec
 * total energy  :  -115.1301479 Eh     change       -0.2320160E-04 Eh
   gradient norm :     0.0014754 Eh/α   predicted    -0.1629098E-04 ( -29.79%)
   displ. norm   :     0.1829613 α      lambda       -0.4265616E-04
   maximum displ.:     0.1266329 α      in ANC's #3, #4, #1, ...

........................................................................
.............................. CYCLE   60 ..............................
........................................................................

 iter      E             dE          RMSdq      gap      omega  full diag
   1   -116.4912314 -0.116491E+03  0.257E-02    0.61       0.0  T
   2   -116.4912341 -0.267071E-05  0.149E-02    0.61       1.0  T
   3   -116.4912344 -0.253066E-06  0.443E-03    0.62       2.7  T
   4   -116.4912346 -0.269663E-06  0.151E-03    0.62       8.0  T
   5   -116.4912346 -0.263739E-07  0.820E-04    0.62      14.8  T
   6   -116.4912347 -0.577241E-08  0.285E-04    0.62      42.6  T
     SCC iter.                  ...        0 min,  0.027 sec
     gradient                   ...        0 min,  0.018 sec
 * total energy  :  -115.1301826 Eh     change       -0.3470712E-04 Eh
   gradient norm :     0.0041137 Eh/α   predicted    -0.2164624E-04 ( -37.63%)
   displ. norm   :     0.0961301 α      lambda       -0.2528434E-04
   maximum displ.:     0.0690374 α      in ANC's #3, #1, #4, ...

........................................................................
.............................. CYCLE   61 ..............................
........................................................................

 iter      E             dE          RMSdq      gap      omega  full diag
   1   -116.4913652 -0.116491E+03  0.117E-02    0.62       0.0  T
   2   -116.4913656 -0.436583E-06  0.687E-03    0.62       1.8  T
   3   -116.4913656  0.223958E-07  0.200E-03    0.62       6.0  T
   4   -116.4913656 -0.738175E-07  0.625E-04    0.62      19.4  T
   5   -116.4913657 -0.142871E-07  0.286E-04    0.62      42.4  T
     SCC iter.                  ...        0 min,  0.054 sec
     gradient                   ...        0 min,  0.017 sec
 * total energy  :  -115.1302034 Eh     change       -0.2083332E-04 Eh
   gradient norm :     0.0027440 Eh/α   predicted    -0.1276014E-04 ( -38.75%)
   displ. norm   :     0.2013826 α      lambda       -0.4145592E-04
   maximum displ.:     0.1485601 α      in ANC's #3, #1, #4, ...

........................................................................
.............................. CYCLE   62 ..............................
........................................................................

 iter      E             dE          RMSdq      gap      omega  full diag
   1   -116.4909956 -0.116491E+03  0.236E-02    0.63       0.0  T
   2   -116.4909963 -0.688162E-06  0.140E-02    0.63       1.0  T
   3   -116.4909963 -0.720442E-08  0.244E-03    0.63       5.0  T
   4   -116.4909965 -0.189878E-06  0.958E-04    0.63      12.7  T
   5   -116.4909965 -0.126318E-07  0.539E-04    0.63      22.5  T
     SCC iter.                  ...        0 min,  0.025 sec
     gradient                   ...        0 min,  0.018 sec
 * total energy  :  -115.1302326 Eh     change       -0.2911021E-04 Eh
   gradient norm :     0.0014562 Eh/α   predicted    -0.2157363E-04 ( -25.89%)
   displ. norm   :     0.2395209 α      lambda       -0.2054297E-04
   maximum displ.:     0.1802152 α      in ANC's #3, #1, #4, ...

........................................................................
.............................. CYCLE   63 ..............................
........................................................................

 iter      E             dE          RMSdq      gap      omega  full diag
   1   -116.4906538 -0.116491E+03  0.268E-02    0.64       0.0  T
   2   -116.4906545 -0.675737E-06  0.159E-02    0.64       1.0  T
   3   -116.4906546 -0.109169E-06  0.208E-03    0.64       5.8  T
   4   -116.4906547 -0.950991E-07  0.927E-04    0.64      13.1  T
   5   -116.4906547 -0.646561E-08  0.516E-04    0.64      23.5  T
     SCC iter.                  ...        0 min,  0.025 sec
     gradient                   ...        0 min,  0.016 sec
 * total energy  :  -115.1302541 Eh     change       -0.2156523E-04 Eh
   gradient norm :     0.0020561 Eh/α   predicted    -0.1053620E-04 ( -51.14%)
   displ. norm   :     0.0995645 α      lambda       -0.1410779E-04
   maximum displ.:     0.0756912 α      in ANC's #3, #1, #4, ...

........................................................................
.............................. CYCLE   64 ..............................
........................................................................

 iter      E             dE          RMSdq      gap      omega  full diag
   1   -116.4908692 -0.116491E+03  0.109E-02    0.64       0.0  T
   2   -116.4908693 -0.115872E-06  0.641E-03    0.64       1.9  T
   3   -116.4908693  0.276324E-07  0.125E-03    0.64       9.7  T
   4   -116.4908693 -0.626526E-07  0.381E-04    0.64      31.9  T
   5   -116.4908693 -0.194879E-08  0.197E-04    0.64      61.7  T
     SCC iter.                  ...        0 min,  0.021 sec
     gradient                   ...        0 min,  0.015 sec
 * total energy  :  -115.1302667 Eh     change       -0.1254020E-04 Eh
   gradient norm :     0.0016801 Eh/α   predicted    -0.7126220E-05 ( -43.17%)
   displ. norm   :     0.2456056 α      lambda       -0.2397105E-04
   maximum displ.:     0.1843046 α      in ANC's #3, #1, #4, ...

........................................................................
.............................. CYCLE   65 ..............................
........................................................................

 iter      E             dE          RMSdq      gap      omega  full diag
   1   -116.4913189 -0.116491E+03  0.272E-02    0.64       0.0  T
   2   -116.4913197 -0.802830E-06  0.159E-02    0.64       1.0  T
   3   -116.4913195  0.259390E-06  0.347E-03    0.64       3.5  T
   4   -116.4913200 -0.476000E-06  0.917E-04    0.64      13.2  T
   5   -116.4913200 -0.125523E-07  0.457E-04    0.64      26.6  T
     SCC iter.                  ...        0 min,  0.032 sec
     gradient                   ...        0 min,  0.016 sec
 * total energy  :  -115.1302913 Eh     change       -0.2466072E-04 Eh
   gradient norm :     0.0019496 Eh/α   predicted    -0.1230962E-04 ( -50.08%)
   displ. norm   :     0.1732346 α      lambda       -0.1208166E-04
   maximum displ.:     0.1321480 α      in ANC's #3, #1, #4, ...

........................................................................
.............................. CYCLE   66 ..............................
........................................................................

 iter      E             dE          RMSdq      gap      omega  full diag
   1   -116.4913495 -0.116491E+03  0.177E-02    0.64       0.0  T
   2   -116.4913497 -0.260341E-06  0.103E-02    0.64       1.2  T
   3   -116.4913498 -0.109913E-07  0.130E-03    0.64       9.3  T
   4   -116.4913498 -0.491406E-07  0.553E-04    0.64      21.9  T
   5   -116.4913498 -0.512628E-08  0.258E-04    0.64      47.0  T
     SCC iter.                  ...        0 min,  0.021 sec
     gradient                   ...        0 min,  0.017 sec
 * total energy  :  -115.1303065 Eh     change       -0.1521818E-04 Eh
   gradient norm :     0.0016550 Eh/α   predicted    -0.6122395E-05 ( -59.77%)
   displ. norm   :     0.2130470 α      lambda       -0.1677131E-04
   maximum displ.:     0.1625876 α      in ANC's #3, #1, #4, ...
 * RMSD in coord.:     0.5093985 α      energy gain  -0.1054375E-02 Eh

generating ANC from exact Hessian ...
Using Lindh-Hessian (1995)
 Shifting diagonal of input Hessian by    9.9219038652533058E-003
 Lowest  eigenvalues of input Hessian
    0.000000    0.000000    0.000000    0.000000    0.000000    0.000000
    0.010000    0.010012    0.010052    0.010278    0.010460    0.010722
    0.010757    0.011052    0.011164    0.011572    0.011690    0.011876
 Highest eigenvalues
    2.052271    2.114968    2.117242    2.315675    2.343607    2.628400


........................................................................
.............................. CYCLE   67 ..............................
........................................................................

 iter      E             dE          RMSdq      gap      omega  full diag
   1   -116.4915806 -0.116492E+03  0.217E-02    0.65       0.0  T
   2   -116.4915809 -0.286581E-06  0.126E-02    0.65       1.0  T
   3   -116.4915809  0.300629E-07  0.170E-03    0.65       7.1  T
   4   -116.4915810 -0.135621E-06  0.690E-04    0.65      17.6  T
   5   -116.4915810 -0.495706E-08  0.263E-04    0.65      46.1  T
     SCC iter.                  ...        0 min,  0.021 sec
     gradient                   ...        0 min,  0.016 sec
 * total energy  :  -115.1303256 Eh     change       -0.1902655E-04 Eh
   gradient norm :     0.0014381 Eh/α   predicted     0.0000000E+00 (-100.00%)
   displ. norm   :     0.0200502 α      lambda       -0.3975060E-05
   maximum displ.:     0.0079600 α      in ANC's #18, #21, #3, ...

........................................................................
.............................. CYCLE   68 ..............................
........................................................................

 iter      E             dE          RMSdq      gap      omega  full diag
   1   -116.4912703 -0.116491E+03  0.453E-03    0.65       0.0  T
   2   -116.4912705 -0.170036E-06  0.273E-03    0.65       4.5  T
   3   -116.4912705 -0.153423E-08  0.127E-03    0.65       9.6  T
   4   -116.4912705 -0.250598E-07  0.370E-04    0.65      32.8  T
   5   -116.4912705 -0.320962E-08  0.141E-04    0.65      86.0  T
     SCC iter.                  ...        0 min,  0.026 sec
     gradient                   ...        0 min,  0.017 sec
 * total energy  :  -115.1303301 Eh     change       -0.4523838E-05 Eh
   gradient norm :     0.0006660 Eh/α   predicted    -0.2515656E-05 ( -44.39%)
   displ. norm   :     0.0348620 α      lambda       -0.4714453E-05
   maximum displ.:     0.0130423 α      in ANC's #3, #18, #5, ...

   *** GEOMETRY OPTIMIZATION CONVERGED AFTER 68 ITERATIONS ***

------------------------------------------------------------------------
 total energy gain   :        -0.0325000 Eh      -20.3941 kcal/mol
 total RMSD          :         1.8476603 a0        0.9777 Å
 total power (kW/mol):        -1.2548362 (step)  -20.7170 (real)
------------------------------------------------------------------------

 ANCopt (total)                0 d,  0 h,  0 min,  4.119 sec
 optimizer setup                ...        0 min,  0.001 sec (  0.017%)
 model hessian                  ...        0 min,  0.189 sec (  4.590%)
 ANC generation                 ...        0 min,  0.013 sec (  0.326%)
 coordinate transformation      ...        0 min,  0.003 sec (  0.065%)
 single point calculation       ...        0 min,  3.849 sec ( 93.450%)
 optimization log               ...        0 min,  0.035 sec (  0.846%)
 hessian update                 ...        0 min,  0.008 sec (  0.201%)
 rational function              ...        0 min,  0.014 sec (  0.333%)

================
 final structure:
================
68
 xtb: 6.7.1 (edcfbbe)
C            7.59549494913378       -1.53054169828634        2.82023498672980
C            6.92866878606174       -0.75156753115722        1.77262763917431
O            7.40958590647854       -0.74972292700931        0.53889165120967
N            6.65619918954286        0.04554214199682       -0.27877205585251
C            5.68476670934030        0.53072871219517        0.43557332004208
C            4.74480364558308        1.60694904775626       -0.01842242299988
O            5.06239087368751        2.76798252892336        0.23402906313760
N            3.65402931615490        1.23377445746918       -0.67516446724824
C            2.62821130469077        2.20288356582136       -1.00519807196398
C            1.41571876471630        1.97546712928507       -0.10364925486590
N            0.93497799539088        0.61533864302549       -0.28245393700420
C           -0.33246227604760        0.38125930220770        0.40076347307120
C           -1.40081252602134        1.33228229842696       -0.09433468946759
C           -1.53577776945761        1.60171366726309       -1.45311051546297
C           -2.53337584677465        2.43386887256347       -1.90939197085196
C           -3.43387248069222        3.01438682183840       -1.01473965525145
O           -4.38361008099738        3.82410429803300       -1.57032875122991
C           -5.33570984018885        4.44689352179699       -0.72383513286666
C           -6.26084035009672        5.27299252726645       -1.61883974731137
O           -5.61558308236253        6.39532999249131       -2.16918626343141
C           -3.31070824477415        2.74533053395976        0.34179329886966
C           -2.29817059253443        1.91038063875572        0.78759621935323
C           -0.85704938214158       -1.01389232003718        0.13988222372737
C           -1.55596124006707       -1.69308647202997        1.12425818947954
C           -2.10779399627214       -2.94169480549442        0.88635306882248
C           -1.96026275324681       -3.53297372264632       -0.36139331936830
O           -2.46084136073673       -4.75421154234157       -0.71377042886922
C           -3.25193356946624       -5.46843385415474        0.22173452818817
C           -3.74572538312819       -6.73405416646169       -0.48101642951134
O           -2.70964498278647       -7.65419297291072       -0.72253124991088
C           -1.25009782898640       -2.85829576624670       -1.35541153835556
C           -0.71319042657611       -1.61433182766778       -1.10733545137324
C            1.97170577948366       -0.31091881062624        0.13189502508731
C            3.18401251054914       -0.12878657821896       -0.78544536423264
C            5.79662273709152        0.05920644199818        1.78276947476452
N            4.91065535827195        0.32483764970716        2.82754439122048
O            3.86794887203454        0.90612237949056        2.55463578499351
O            5.20366928981628       -0.05131974736485        3.95232361208689
H            6.88326923253817       -1.80100582288182        3.59549726361124
H            8.06975422395136       -2.40577710098381        2.38564784910756
H            8.37051832577959       -0.91823715927274        3.28258448592446
H            2.34580983673897        2.06355749573101       -2.04998905821409
H            3.03846709858062        3.20168525201866       -0.85574826780946
H            1.71006751584383        2.16137997771643        0.94560169514257
H            0.62592843137460        2.67615150793637       -0.37378534679997
H           -0.21476301810801        0.51839932938836        1.49329502921794
H           -0.84082953274218        1.16343529128718       -2.14954197394967
H           -2.64151488894890        2.65063428123732       -2.95988976409793
H           -5.92172356065268        3.69283466730440       -0.18596010285499
H           -4.83283448430381        5.10583409978810       -0.00546028405769
H           -7.08910181773672        5.66159825842892       -1.02436200697173
H           -6.65561566361929        4.62723383062108       -2.41309978853494
H           -4.85092643050107        6.08949293364975       -2.67813223139257
H           -3.98812994696508        3.17801268111199        1.06010880721809
H           -2.21225349661404        1.71488980993265        1.84667954157729
H           -1.67885829384924       -1.24576117096886        2.09993215181337
H           -2.64454524006282       -3.43788612287657        1.67868794550235
H           -4.11082020255194       -4.86516382067321        0.53701102771255
H           -2.65130790793529       -5.74276047881906        1.09769245125918
H           -4.23523008782207       -6.44951007829900       -1.42086631663481
H           -4.46454006610265       -7.24794340441520        0.15903749686617
H           -2.03496187873451       -7.21831433414146       -1.26291968138892
H           -1.14074805841985       -3.33051482754469       -2.31835780102837
H           -0.16663647590157       -1.10069986043272       -1.88062582042833
H            2.27805603289193       -0.12412123570545        1.17877762531495
H            1.59868882570239       -1.33199842404794        0.05202675734608
H            3.97816523531812       -0.82548111123072       -0.52205958021541
H            2.88057631813823       -0.29931989347576       -1.82035833557070

 Bond Distances (Angstroems)
 ---------------------------
C1-C2=1.4659         C1-H39=1.0869        C1-H40=1.0862        C1-H41=1.0906        C2-C1=1.4659         C2-O3=1.3242         
C2-C35=1.3925        O3-C2=1.3242         O3-N4=1.3670         N4-O3=1.3670         N4-C5=1.2998         C5-N4=1.2998         
C5-C6=1.4993         C5-C35=1.4317        C6-C5=1.4993         C6-O7=1.2299         C6-N8=1.3268         O7-C6=1.2299         
N8-C6=1.3268         N8-C9=1.4493         N8-C34=1.4456        C9-N8=1.4493         C9-C10=1.5280        C9-H42=1.0912        
C9-H43=1.0901        C10-C9=1.5280        C10-N11=1.4536       C10-H44=1.1055       C10-H45=1.0898       N11-C10=1.4536       
N11-C12=1.4588       N11-C33=1.4507       C12-N11=1.4588       C12-C13=1.5136       C12-C23=1.5132       C12-H46=1.1074       
C13-C12=1.5136       C13-C14=1.3918       C13-C22=1.3846       C14-C13=1.3918       C14-C15=1.3769       C14-H47=1.0771       
C15-C14=1.3769       C15-C16=1.3958       C15-H48=1.0781       C16-C15=1.3958       C16-O17=1.3661       C16-C21=1.3884       
O17-C16=1.3661       O17-C18=1.4181       C18-O17=1.4181       C18-C19=1.5295       C18-H49=1.0961       C18-H50=1.0969       
C19-C18=1.5295       C19-O20=1.4067       C19-H51=1.0911       C19-H52=1.0971       O20-C19=1.4067       O20-H53=0.9681       
C21-C16=1.3884       C21-C22=1.3860       C21-H54=1.0780       C22-C13=1.3846       C22-C21=1.3860       C22-H55=1.0804       
C23-C12=1.5132       C23-C24=1.3852       C23-C32=1.3917       C24-C23=1.3852       C24-C25=1.3857       C24-H56=1.0803       
C25-C24=1.3857       C25-C26=1.3886       C25-H57=1.0780       C26-C25=1.3886       C26-O27=1.3661       C26-C31=1.3956       
O27-C26=1.3661       O27-C28=1.4181       C28-O27=1.4181       C28-C29=1.5295       C28-H58=1.0959       C28-H59=1.0970       
C29-C28=1.5295       C29-O30=1.4066       C29-H60=1.0972       C29-H61=1.0911       O30-C29=1.4066       O30-H62=0.9681       
C31-C26=1.3956       C31-C32=1.3774       C31-H63=1.0781       C32-C23=1.3917       C32-C31=1.3774       C32-H64=1.0773       
C33-N11=1.4507       C33-C34=1.5311       C33-H65=1.1067       C33-H66=1.0900       C34-N8=1.4456        C34-C33=1.5311       
C34-H67=1.0888       C34-H68=1.0919       C35-C2=1.3925        C35-C5=1.4317        C35-N36=1.3954       N36-C35=1.3954       
N36-O37=1.2246       N36-O38=1.2217       O37-N36=1.2246       O38-N36=1.2217       H39-C1=1.0869        H40-C1=1.0862        
H41-C1=1.0906        H42-C9=1.0912        H43-C9=1.0901        H44-C10=1.1055       H45-C10=1.0898       H46-C12=1.1074       
H47-C14=1.0771       H48-C15=1.0781       H49-C18=1.0961       H50-C18=1.0969       H51-C19=1.0911       H52-C19=1.0971       
H53-O20=0.9681       H54-C21=1.0780       H55-C22=1.0804       H56-C24=1.0803       H57-C25=1.0780       H58-C28=1.0959       
H59-C28=1.0970       H60-C29=1.0972       H61-C29=1.0911       H62-O30=0.9681       H63-C31=1.0781       H64-C32=1.0773       
H65-C33=1.1067       H66-C33=1.0900       H67-C34=1.0888       H68-C34=1.0919       
 C  H  Rav=1.0898 sigma=0.0089  Rmin=1.0771  Rmax=1.1074    28
 C  C  Rav=1.4355 sigma=0.0613  Rmin=1.3769  Rmax=1.5311    22
 N  C  Rav=1.4100 sigma=0.0592  Rmin=1.2998  Rmax=1.4588     8
 O  H  Rav=0.9681 sigma=0.0000  Rmin=0.9681  Rmax=0.9681     2
 O  C  Rav=1.3670 sigma=0.0602  Rmin=1.2299  Rmax=1.4181     8
 O  N  Rav=1.2711 sigma=0.0678  Rmin=1.2217  Rmax=1.3670     3

 selected bond angles (degree)
 --------------------
H39-C1-C2=110.11               H40-C1-C2=109.93               H40-C1-H39=111.78              H41-C1-C2=109.14               
H41-C1-H39=107.64              H41-C1-H40=108.16              O3-C2-C1=120.09                C35-C2-C1=132.38               
C35-C2-O3=107.53               N4-O3-C2=110.97                C5-N4-O3=107.48                C6-C5-N4=124.76                
C35-C5-N4=109.62               C35-C5-C6=124.77               O7-C6-C5=116.97                N8-C6-C5=117.61                
N8-C6-O7=125.41                C9-N8-C6=120.43                C34-N8-C6=124.76               C34-N8-C9=112.51               
C10-C9-N8=109.13               H42-C9-N8=108.41               H42-C9-C10=109.91              H43-C9-N8=108.37               
H43-C9-C10=110.74              H43-C9-H42=110.22              N11-C10-C9=109.22              H44-C10-C9=108.89              
H44-C10-N11=111.23             H45-C10-C9=109.46              H45-C10-N11=109.36             H45-C10-H44=108.67             

 selected dihedral angles (degree)
 ---------------------------------
O3-C2-C1-H39=205.96           O3-C2-C1-H40=329.54           O3-C2-C1-H41= 88.02           C35-C2-C1-H39= 25.75          
C35-C2-C1-H40=149.32          C35-C2-C1-H41=267.80          N4-O3-C2-C1=180.67            N4-O3-C2-C35=  0.83           
C5-N4-O3-C2=359.02            C6-C5-N4-O3=170.56            C35-C5-N4-O3=  0.70           O7-C6-C5-N4=268.93            
O7-C6-C5-C35= 77.29           N8-C6-C5-N4= 87.89            N8-C6-C5-C35=256.24           C9-N8-C6-C5=172.77            
C9-N8-C6-O7=351.63            C34-N8-C6-C5= 11.30           C34-N8-C6-O7=190.16           C10-C9-N8-C6=253.15           
C10-C9-N8-C34= 56.73          H42-C9-N8-C6=133.45           H42-C9-N8-C34=297.04          H43-C9-N8-C6= 13.82           
H43-C9-N8-C34=177.41          N11-C10-C9-N8=301.90          N11-C10-C9-H42= 60.67         N11-C10-C9-H43=182.69         
H44-C10-C9-N8= 63.54          H44-C10-C9-H42=182.31         H44-C10-C9-H43=304.33         H45-C10-C9-N8=182.21          
H45-C10-C9-H42=300.97         H45-C10-C9-H43= 63.00         
           -------------------------------------------------
          |                Final Singlepoint                |
           -------------------------------------------------

          ...................................................
          :                      SETUP                      :
          :.................................................:
          :  # basis functions                 182          :
          :  # atomic orbitals                 182          :
          :  # shells                          106          :
          :  # electrons                       202          :
          :  max. iterations                   250          :
          :  Hamiltonian                  GFN2-xTB          :
          :  restarted?                      false          :
          :  GBSA solvation                   true          :
          :  PC potential                    false          :
          :  electronic temp.          300.0000000     K    :
          :  accuracy                    1.0000000          :
          :  -> integral cutoff          0.2500000E+02      :
          :  -> integral neglect         0.1000000E-07      :
          :  -> SCF convergence          0.1000000E-05 Eh   :
          :  -> wf. convergence          0.1000000E-03 e    :
          :  Broyden damping             0.4000000          :
          :  net charge                          0          :
          :  unpaired electrons                  0          :
          ...................................................

 iter      E             dE          RMSdq      gap      omega  full diag
   1   -116.4912705 -0.116491E+03  0.721E-05    0.65       0.0  T
   2   -116.4912705 -0.349587E-10  0.463E-05    0.65     262.1  T
   3   -116.4912705 -0.447642E-11  0.276E-05    0.65     439.5  T

   *** convergence criteria satisfied after 3 iterations ***

         #    Occupation            Energy/Eh            Energy/eV
      -------------------------------------------------------------
         1        2.0000           -0.8013333             -21.8054
       ...           ...                  ...                  ...
        95        2.0000           -0.4161811             -11.3249
        96        2.0000           -0.4094730             -11.1423
        97        2.0000           -0.4077775             -11.0962
        98        2.0000           -0.4065180             -11.0619
        99        2.0000           -0.3841747             -10.4539
       100        2.0000           -0.3749643             -10.2033
       101        2.0000           -0.3641150              -9.9081 (HOMO)
       102        0.0000           -0.3403488              -9.2614 (LUMO)
       103                         -0.2815172              -7.6605
       104                         -0.2359244              -6.4198
       105                         -0.2276816              -6.1955
       106                         -0.2255833              -6.1384
       ...                                ...                  ...
       182                          0.6667736              18.1438
      -------------------------------------------------------------
                  HL-Gap            0.0237663 Eh            0.6467 eV
             Fermi-level           -0.3522319 Eh           -9.5847 eV

 SCC (total)                   0 d,  0 h,  0 min,  0.038 sec
 SCC setup                      ...        0 min,  0.001 sec (  2.996%)
 Dispersion                     ...        0 min,  0.002 sec (  4.185%)
 classical contributions        ...        0 min,  0.000 sec (  0.351%)
 integral evaluation            ...        0 min,  0.005 sec ( 13.117%)
 iterations                     ...        0 min,  0.015 sec ( 40.686%)
 molecular gradient             ...        0 min,  0.014 sec ( 36.703%)
 printout                       ...        0 min,  0.001 sec (  1.888%)

         :::::::::::::::::::::::::::::::::::::::::::::::::::::
         ::                     SUMMARY                     ::
         :::::::::::::::::::::::::::::::::::::::::::::::::::::
         :: total energy            -115.130330086105 Eh    ::
         :: total w/o Gsasa/hb      -115.118757826037 Eh    ::
         :: gradient norm              0.000665936342 Eh/a0 ::
         :: HOMO-LUMO gap              0.646712975277 eV    ::
         ::.................................................::
         :: SCC energy              -116.490592807132 Eh    ::
         :: -> isotropic ES            0.228564432965 Eh    ::
         :: -> anisotropic ES          0.007742286594 Eh    ::
         :: -> anisotropic XC          0.031063600526 Eh    ::
         :: -> dispersion             -0.076892984586 Eh    ::
         :: -> Gsolv                  -0.048384141144 Eh    ::
         ::    -> Gelec               -0.036811881076 Eh    ::
         ::    -> Gsasa                0.003575829166 Eh    ::
         ::    -> Ghb                 -0.016228848932 Eh    ::
         ::    -> Gshift               0.001080759698 Eh    ::
         :: repulsion energy           1.360262721026 Eh    ::
         :: add. restraining           0.000000000000 Eh    ::
         :: total charge               0.000000000081 e     ::
         :::::::::::::::::::::::::::::::::::::::::::::::::::::

           -------------------------------------------------
          |                Property Printout                |
           -------------------------------------------------

    * Orbital Energies and Occupations

         #    Occupation            Energy/Eh            Energy/eV
      -------------------------------------------------------------
         1        2.0000           -0.8013333             -21.8054
       ...           ...                  ...                  ...
        89        2.0000           -0.4389587             -11.9447
        90        2.0000           -0.4279942             -11.6463
        91        2.0000           -0.4247514             -11.5581
        92        2.0000           -0.4239338             -11.5358
        93        2.0000           -0.4211824             -11.4610
        94        2.0000           -0.4167223             -11.3396
        95        2.0000           -0.4161811             -11.3249
        96        2.0000           -0.4094730             -11.1423
        97        2.0000           -0.4077775             -11.0962
        98        2.0000           -0.4065180             -11.0619
        99        2.0000           -0.3841747             -10.4539
       100        2.0000           -0.3749643             -10.2033
       101        2.0000           -0.3641150              -9.9081 (HOMO)
       102        0.0000           -0.3403488              -9.2614 (LUMO)
       103                         -0.2815172              -7.6605
       104                         -0.2359244              -6.4198
       105                         -0.2276816              -6.1955
       106                         -0.2255833              -6.1384
       107                         -0.2239528              -6.0941
       108                         -0.2074485              -5.6450
       109                         -0.2052421              -5.5849
       110                         -0.0992554              -2.7009
       111                         -0.0864428              -2.3522
       112                         -0.0724644              -1.9719
       ...                                ...                  ...
       182                          0.6667736              18.1438
      -------------------------------------------------------------
                  HL-Gap            0.0237663 Eh            0.6467 eV
             Fermi-level           -0.3522319 Eh           -9.5847 eV

     #   Z          covCN         q      C6AA      α(0)
     1   6 C        3.754    -0.163    23.724     6.945
     2   6 C        2.985     0.180    24.149     8.061
     3   8 O        1.822    -0.087    15.636     5.340
     4   7 N        1.947    -0.136    24.708     7.371
     5   6 C        3.013     0.072    26.367     8.423
     6   6 C        2.767     0.276    22.331     7.739
     7   8 O        0.859    -0.511    24.021     6.571
     8   7 N        2.740    -0.054    22.287     7.011
     9   6 C        3.765    -0.016    20.898     6.516
    10   6 C        3.772     0.005    20.525     6.456
    11   7 N        2.735    -0.167    24.616     7.369
    12   6 C        3.817     0.039    19.904     6.350
    13   6 C        2.981    -0.003    28.086     8.693
    14   6 C        2.924    -0.039    28.977     8.828
    15   6 C        2.920    -0.062    29.543     8.913
    16   6 C        2.862     0.137    25.010     8.197
    17   8 O        1.705    -0.302    19.029     5.890
    18   6 C        3.688     0.065    19.675     6.349
    19   6 C        3.674     0.070    19.633     6.350
    20   8 O        1.655    -0.505    23.001     6.474
    21   6 C        2.916    -0.072    29.801     8.952
    22   6 C        2.926    -0.043    29.064     8.841
    23   6 C        2.980    -0.003    28.095     8.695
    24   6 C        2.926    -0.043    29.068     8.842
    25   6 C        2.916    -0.072    29.798     8.951
    26   6 C        2.862     0.137    25.011     8.198
    27   8 O        1.705    -0.302    19.026     5.889
    28   6 C        3.688     0.065    19.677     6.349
    29   6 C        3.674     0.070    19.632     6.349
    30   8 O        1.655    -0.505    22.998     6.474
    31   6 C        2.920    -0.062    29.547     8.914
    32   6 C        2.924    -0.040    28.988     8.829
    33   6 C        3.772     0.004    20.551     6.460
    34   6 C        3.758    -0.018    20.945     6.525
    35   6 C        2.958    -0.033    28.831     8.807
    36   7 N        2.756     0.560    13.375     5.432
    37   8 O        0.933    -0.447    22.613     6.377
    38   8 O        0.932    -0.434    22.339     6.339
    39   1 H        0.925     0.122     1.594     1.974
    40   1 H        0.925     0.132     1.523     1.930
    41   1 H        0.924     0.146     1.419     1.863
    42   1 H        0.924     0.090     1.875     2.142
    43   1 H        0.925     0.079     1.985     2.203
    44   1 H        0.922     0.016     2.795     2.614
    45   1 H        0.925     0.060     2.196     2.317
    46   1 H        0.922     0.010     2.896     2.661
    47   1 H        0.926     0.067     2.121     2.277
    48   1 H        0.926     0.060     2.205     2.322
    49   1 H        0.924     0.045     2.378     2.412
    50   1 H        0.924     0.050     2.315     2.379
    51   1 H        0.924     0.064     2.156     2.296
    52   1 H        0.924     0.047     2.358     2.401
    53   1 H        0.805     0.361     0.564     1.180
    54   1 H        0.926     0.041     2.431     2.438
    55   1 H        0.926     0.035     2.514     2.480
    56   1 H        0.926     0.035     2.519     2.482
    57   1 H        0.926     0.041     2.431     2.438
    58   1 H        0.924     0.045     2.380     2.413
    59   1 H        0.924     0.051     2.313     2.378
    60   1 H        0.924     0.047     2.363     2.404
    61   1 H        0.924     0.063     2.160     2.298
    62   1 H        0.805     0.361     0.563     1.179
    63   1 H        0.926     0.060     2.197     2.318
    64   1 H        0.926     0.067     2.123     2.279
    65   1 H        0.922     0.020     2.733     2.585
    66   1 H        0.925     0.064     2.158     2.297
    67   1 H        0.925     0.064     2.154     2.295
    68   1 H        0.924     0.099     1.795     2.095

 Mol. C6AA /au·bohr⁶  :      51443.247111
 Mol. C8AA /au·bohr⁸  :    1195618.284192
 Mol. α(0) /au        :        346.420182


Wiberg/Mayer (AO) data.
largest (>0.10) Wiberg bond orders for each atom

 ---------------------------------------------------------------------------
     #   Z sym  total        # sym  WBO       # sym  WBO       # sym  WBO
 ---------------------------------------------------------------------------
     1   6 C    3.961 --     2 C    1.064    39 H    0.955    40 H    0.955
                            41 H    0.913
     2   6 C    3.912 --    35 C    1.387     3 O    1.219     1 C    1.064
                             4 N    0.121
     3   8 O    2.491 --     2 C    1.219     4 N    1.061
     4   7 N    2.952 --     5 C    1.616     3 O    1.061     2 C    0.121
     5   6 C    3.970 --     4 N    1.616    35 C    1.202     6 C    0.940
     6   6 C    3.960 --     7 O    1.580     8 N    1.337     5 C    0.940
     7   8 O    1.946 --     6 C    1.580     8 N    0.208
     8   7 N    3.564 --     6 C    1.337    34 C    0.980     9 C    0.973
                             7 O    0.208
     9   6 C    3.955 --    10 C    0.992     8 N    0.973    43 H    0.967
                            42 H    0.961
    10   6 C    3.986 --    11 N    1.004     9 C    0.992    45 H    0.965
                            44 H    0.963
    11   7 N    3.133 --    33 C    1.008    10 C    1.004    12 C    0.980
    12   6 C    3.982 --    11 N    0.980    23 C    0.977    13 C    0.976
                            46 H    0.950
    13   6 C    3.985 --    22 C    1.425    14 C    1.382    12 C    0.976
    14   6 C    3.988 --    15 C    1.478    13 C    1.382    47 H    0.963
                            21 C    0.103
    15   6 C    3.986 --    14 C    1.478    16 C    1.346    48 H    0.967
                            22 C    0.107
    16   6 C    3.929 --    21 C    1.384    15 C    1.346    17 O    1.048
    17   8 O    2.202 --    16 C    1.048    18 C    0.963
    18   6 C    3.943 --    19 C    0.992    49 H    0.967    50 H    0.967
                            17 O    0.963
    19   6 C    3.957 --    20 O    1.006    18 C    0.992    51 H    0.970
                            52 H    0.968
    20   8 O    1.919 --    19 C    1.006    53 H    0.856
    21   6 C    3.987 --    22 C    1.432    16 C    1.384    54 H    0.966
                            14 C    0.103
    22   6 C    3.989 --    21 C    1.432    13 C    1.425    55 H    0.968
                            15 C    0.107
    23   6 C    3.985 --    24 C    1.423    32 C    1.383    12 C    0.977
    24   6 C    3.990 --    25 C    1.434    23 C    1.423    56 H    0.968
                            31 C    0.108
    25   6 C    3.987 --    24 C    1.434    26 C    1.382    57 H    0.966
                            32 C    0.103
    26   6 C    3.930 --    25 C    1.382    31 C    1.347    27 O    1.048
    27   8 O    2.202 --    26 C    1.048    28 C    0.963
    28   6 C    3.943 --    29 C    0.992    58 H    0.967    59 H    0.967
                            27 O    0.963
    29   6 C    3.957 --    30 O    1.006    28 C    0.992    61 H    0.970
                            60 H    0.968
    30   8 O    1.919 --    29 C    1.006    62 H    0.856
    31   6 C    3.986 --    32 C    1.476    26 C    1.347    63 H    0.967
                            24 C    0.108
    32   6 C    3.988 --    31 C    1.476    23 C    1.383    64 H    0.963
                            25 C    0.103
    33   6 C    3.986 --    11 N    1.008    34 C    0.989    66 H    0.964
                            65 H    0.954
    34   6 C    3.957 --    33 C    0.989     8 N    0.980    67 H    0.965
                            68 H    0.960
    35   6 C    3.936 --     2 C    1.387     5 C    1.202    36 N    1.045
    36   7 N    3.912 --    38 O    1.408    37 O    1.402    35 C    1.045
    37   8 O    1.884 --    36 N    1.402    38 O    0.317
    38   8 O    1.879 --    36 N    1.408    37 O    0.317
    39   1 H    0.985 --     1 C    0.955
    40   1 H    0.981 --     1 C    0.955
    41   1 H    0.978 --     1 C    0.913
    42   1 H    0.991 --     9 C    0.961
    43   1 H    0.993 --     9 C    0.967
    44   1 H    0.999 --    10 C    0.963
    45   1 H    0.996 --    10 C    0.965
    46   1 H    0.998 --    12 C    0.950
    47   1 H    0.995 --    14 C    0.963
    48   1 H    0.996 --    15 C    0.967
    49   1 H    0.998 --    18 C    0.967
    50   1 H    0.997 --    18 C    0.967
    51   1 H    0.995 --    19 C    0.970
    52   1 H    0.998 --    19 C    0.968
    53   1 H    0.870 --    20 O    0.856
    54   1 H    0.998 --    21 C    0.966
    55   1 H    0.999 --    22 C    0.968
    56   1 H    0.999 --    24 C    0.968
    57   1 H    0.998 --    25 C    0.966
    58   1 H    0.998 --    28 C    0.967
    59   1 H    0.997 --    28 C    0.967
    60   1 H    0.998 --    29 C    0.968
    61   1 H    0.995 --    29 C    0.970
    62   1 H    0.870 --    30 O    0.856
    63   1 H    0.996 --    31 C    0.967
    64   1 H    0.995 --    32 C    0.963
    65   1 H    0.999 --    33 C    0.954
    66   1 H    0.995 --    33 C    0.964
    67   1 H    0.996 --    34 C    0.965
    68   1 H    0.990 --    34 C    0.960
 ---------------------------------------------------------------------------

Topologies differ in total number of bonds
Writing topology from bond orders to xtbtopo.mol

molecular dipole:
                 x           y           z       tot (Debye)
 q only:       -0.126      -2.531      -1.232
   full:       -0.201      -2.403      -0.334       6.187
molecular quadrupole (traceless):
                xx          xy          yy          xz          yz          zz
 q only:       34.372     -39.745     -34.407      -2.320     -11.143       0.035
  q+dip:       33.633     -34.702     -44.905      -0.562      -5.944      11.271
   full:       35.685     -33.689     -42.533      -0.121      -6.804       6.848

           -------------------------------------------------
          |                Geometry Summary                 |
           -------------------------------------------------

      molecular mass/u    :      526.5394081
   center of mass at/Å    :        0.5399102       0.0938244       0.0743907
  moments of inertia/u·Å² :        0.5812198E+04   0.9992679E+04   0.1455218E+05
rotational constants/cm⁻¹ :        0.2900389E-02   0.1686998E-02   0.1158427E-02

 * 68 selected distances

     #   Z          #   Z                                           value/Å
     1   6 C        2   6 C                                       1.4659261
     2   6 C        3   8 O                                       1.3241561
     3   8 O        4   7 N                                       1.3669720
     4   7 N        5   6 C                                       1.2997602
     6   6 C        7   8 O                                       1.2298750
     6   6 C        8   7 N                                       1.3267850
     8   7 N        9   6 C                                       1.4492749
     9   6 C       10   6 C                                       1.5279552
    10   6 C       11   7 N                                       1.4536274
    11   7 N       12   6 C                                       1.4587613
    13   6 C       14   6 C                                       1.3917906
    14   6 C       15   6 C                                       1.3769086
    15   6 C       16   6 C                                       1.3958146
    16   6 C       17   8 O                                       1.3661345
    17   8 O       18   6 C                                       1.4180664
    18   6 C       19   6 C                                       1.5294900
    19   6 C       20   8 O                                       1.4067267
    16   6 C       21   6 C                                       1.3884318
    13   6 C       22   6 C                                       1.3846486
    21   6 C       22   6 C                                       1.3860427
    23   6 C       24   6 C                                       1.3851999
    24   6 C       25   6 C                                       1.3856917
    25   6 C       26   6 C                                       1.3886136
    26   6 C       27   8 O                                       1.3660786
    27   8 O       28   6 C                                       1.4181362
    28   6 C       29   6 C                                       1.5295373
    29   6 C       30   8 O                                       1.4065731
    26   6 C       31   6 C                                       1.3955634
    23   6 C       32   6 C                                       1.3916807
    31   6 C       32   6 C                                       1.3774099
    11   7 N       33   6 C                                       1.4506698
     8   7 N       34   6 C                                       1.4455624
    33   6 C       34   6 C                                       1.5311347 (max)
     2   6 C       35   6 C                                       1.3924747
     5   6 C       35   6 C                                       1.4317063
    35   6 C       36   7 N                                       1.3953685
    36   7 N       37   8 O                                       1.2245849
    36   7 N       38   8 O                                       1.2216710
     1   6 C       39   1 H                                       1.0869444
     1   6 C       40   1 H                                       1.0861975
     1   6 C       41   1 H                                       1.0905711
     9   6 C       42   1 H                                       1.0912153
     9   6 C       43   1 H                                       1.0900688
    10   6 C       44   1 H                                       1.1055010
    10   6 C       45   1 H                                       1.0898170
    12   6 C       46   1 H                                       1.1073780
    14   6 C       47   1 H                                       1.0770599
    15   6 C       48   1 H                                       1.0780664
    18   6 C       49   1 H                                       1.0960505
    18   6 C       50   1 H                                       1.0968815
    19   6 C       51   1 H                                       1.0910708
    19   6 C       52   1 H                                       1.0971331
    20   8 O       53   1 H                                       0.9681231
    21   6 C       54   1 H                                       1.0780034
    22   6 C       55   1 H                                       1.0803963
    24   6 C       56   1 H                                       1.0803442
    25   6 C       57   1 H                                       1.0780086
    28   6 C       58   1 H                                       1.0959108
    28   6 C       59   1 H                                       1.0969543
    29   6 C       60   1 H                                       1.0972230
    29   6 C       61   1 H                                       1.0910756
    30   8 O       62   1 H                                       0.9680947 (min)
    31   6 C       63   1 H                                       1.0780603
    32   6 C       64   1 H                                       1.0772731
    33   6 C       65   1 H                                       1.1066649
    33   6 C       66   1 H                                       1.0900112
    34   6 C       67   1 H                                       1.0887764
    34   6 C       68   1 H                                       1.0918792

 * 6 distinct bonds (by element types)

   Z      Z             #   av. dist./Å        max./Å        min./Å
   1 H    6 C          28     1.0898049     1.1073780     1.0770599
   6 C    6 C          19     1.4240011     1.5311347     1.3769086
   6 C    7 N           8     1.4099762     1.4587613     1.2997602
   1 H    8 O           2     0.9681089     0.9681231     0.9680947
   6 C    8 O           8     1.3669683     1.4181362     1.2298750
   7 N    8 O           3     1.2710760     1.3669720     1.2216710


optimized geometry written to: xtbopt.xyz


           -------------------------------------------------
          | TOTAL ENERGY             -115.130330086105 Eh   |
          | GRADIENT NORM               0.000665936342 Eh/α |
          | HOMO-LUMO GAP               0.646712975277 eV   |
           -------------------------------------------------
########################################################################
[WARNING] Runtime exception occurred
-2- restart_readRestart: Dimension missmatch in restart file.
-1- restart_readRestart: Number of electron missmatch in restart file.
########################################################################

------------------------------------------------------------------------
 * finished run on 2026/08/28 at 18:24:52.392     
------------------------------------------------------------------------
 total:
 * wall-time:     0 d,  0 h,  0 min,  4.292 sec
 *  cpu-time:     0 d,  0 h,  0 min, 29.359 sec
 * ratio c/w:     6.841 speedup
 SCF:
 * wall-time:     0 d,  0 h,  0 min,  0.084 sec
 *  cpu-time:     0 d,  0 h,  0 min,  0.672 sec
 * ratio c/w:     8.013 speedup
 ANC optimizer:
 * wall-time:     0 d,  0 h,  0 min,  4.162 sec
 *  cpu-time:     0 d,  0 h,  0 min, 28.500 sec
 * ratio c/w:     6.847 speedup

