      -----------------------------------------------------------      
     |                   =====================                   |     
     |                           x T B                           |     
     |                   =====================                   |     
     |                         S. Grimme                         |     
     |          Mulliken Center for Theoretical Chemistry        |     
     |                    University of Bonn                     |     
      -----------------------------------------------------------      

   * xtb version 6.7.1 (edcfbbe) compiled by 'VssAdministrator@runnervm171ch' on 2026-06-10

   xtb is free software: you can redistribute it and/or modify it under
   the terms of the GNU Lesser General Public License as published by
   the Free Software Foundation, either version 3 of the License, or
   (at your option) any later version.
   
   xtb is distributed in the hope that it will be useful,
   but WITHOUT ANY WARRANTY; without even the implied warranty of
   MERCHANTABILITY or FITNESS FOR A PARTICULAR PURPOSE.  See the
   GNU Lesser General Public License for more details.
   
   Cite this work as:
   * C. Bannwarth, E. Caldeweyher, S. Ehlert, A. Hansen, P. Pracht,
     J. Seibert, S. Spicher, S. Grimme, WIREs Comput. Mol. Sci., 2020, 11,
     e01493. DOI: 10.1002/wcms.1493
   
   for GFN2-xTB:
   * C. Bannwarth, S. Ehlert and S. Grimme., J. Chem. Theory Comput., 2019,
     15, 1652-1671. DOI: 10.1021/acs.jctc.8b01176
   for GFN1-xTB:
   * S. Grimme, C. Bannwarth, P. Shushkov, J. Chem. Theory Comput., 2017,
     13, 1989-2009. DOI: 10.1021/acs.jctc.7b00118
   for GFN0-xTB:
   * P. Pracht, E. Caldeweyher, S. Ehlert, S. Grimme, ChemRxiv, 2019, preprint.
     DOI: 10.26434/chemrxiv.8326202.v1
   for GFN-FF:
   * S. Spicher and S. Grimme, Angew. Chem. Int. Ed., 2020, 59, 15665-15673.
     DOI: 10.1002/anie.202004239
   
   for ALPB and GBSA implicit solvation:
   * S. Ehlert, M. Stahn, S. Spicher, S. Grimme, J. Chem. Theory Comput.,
     2021, 17, 4250-4261. DOI: 10.1021/acs.jctc.1c00471
   
   for ddCOSMO and CPCM-X implicit solvation:
   * M. Stahn, S. Ehlert, S. Grimme, J. Phys. Chem. A,
     2023, XX, XXXX-XXXX. DOI: 10.1021/acs.jpca.3c04382
   
   for DFT-D4:
   * E. Caldeweyher, C. Bannwarth and S. Grimme, J. Chem. Phys., 2017,
     147, 034112. DOI: 10.1063/1.4993215
   * E. Caldeweyher, S. Ehlert, A. Hansen, H. Neugebauer, S. Spicher,
     C. Bannwarth and S. Grimme, J. Chem. Phys., 2019, 150, 154122.
     DOI: 10.1063/1.5090222
   * E. Caldeweyher, J.-M. Mewes, S. Ehlert and S. Grimme, Phys. Chem. Chem. Phys.
     2020, 22, 8499-8512. DOI: 10.1039/D0CP00502A
   
   for sTDA-xTB:
   * S. Grimme and C. Bannwarth, J. Chem. Phys., 2016, 145, 054103.
     DOI: 10.1063/1.4959605
   
   in the mass-spec context:
   * V. Asgeirsson, C. Bauer and S. Grimme, Chem. Sci., 2017, 8, 4879.
     DOI: 10.1039/c7sc00601b
   * J. Koopman and S. Grimme, ACS Omega 2019, 4, 12, 15120-15133.
     DOI: 10.1021/acsomega.9b02011
   
   for metadynamics refer to:
   * S. Grimme, J. Chem. Theory Comput., 2019, 155, 2847-2862
     DOI: 10.1021/acs.jctc.9b00143
   
   for SPH calculations refer to:
   * S. Spicher and S. Grimme, J. Chem. Theory Comput., 2021, 17, 1701-1714
     DOI: 10.1021/acs.jctc.0c01306
   
   for ONIOM refer to:
   * C. Plett, A. Katbashev, S. Ehlert, S. Grimme, M. Bursch,
     Phys. Chem. Chem. Phys., 2023, 25, 17860-17868. DOI: 10.1039/D3CP02178E
   
   for DIPRO refer to:
   * J. Kohn, N. Gildemeister, S. Grimme, D. Fazzi, A. Hansen,
     J. Chem. Phys., 2023, just accepted.
   
   for PTB refer to:
   * S. Grimme, M. Mueller, A. Hansen, J. Chem. Phys., 2023, 158, 124111.
     DOI: 10.1063/5.0137838
   
   with help from (in alphabetical order)
   P. Atkinson, C. Bannwarth, F. Bohle, G. Brandenburg, E. Caldeweyher
   M. Checinski, S. Dohm, S. Ehlert, S. Ehrlich, I. Gerasimov, C. Hölzer
   A. Katbashev, J. Kohn, J. Koopman, C. Lavigne, S. Lehtola, F. März, M. Müller,
   F. Musil, H. Neugebauer, J. Pisarek, C. Plett, P. Pracht, F. Pultar,
   J. Seibert, P. Shushkov, S. Spicher, M. Stahn, M. Steiner, T. Strunk,
   J. Stückrath, T. Rose, and J. Unsleber
   
 * started run on 2026/08/28 at 18:24:52.472     
   ID    Z sym.   atoms
    1    6 C      1, 2, 5, 6, 9, 10, 12-18, 21-28, 31-35
    2    8 O      3, 7, 20, 30, 37, 38
    3    7 N      4, 8, 11, 19, 29, 36
    4    1 H      39-66

           -------------------------------------------------
          |                Calculation Setup                |
           -------------------------------------------------

          program call               : C:\Users\Christian\Miniconda3\Library\bin\xtb.exe M3_bisCH2CONH2.xyz --gfn 2 --opt --alpb water
          coordinate file            : M3_bisCH2CONH2.xyz
          omp threads                :                    12


           -------------------------------------------------
          |                 G F N 2 - x T B                 |
           -------------------------------------------------

        Reference                      10.1021/acs.jctc.8b01176
      * Hamiltonian:
        H0-scaling (s, p, d)           1.850000    2.230000    2.230000
        zeta-weighting                 0.500000
      * Dispersion:
        s8                             2.700000
        a1                             0.520000
        a2                             5.000000
        s9                             5.000000
      * Repulsion:
        kExp                           1.500000    1.000000
        rExp                           1.000000
      * Coulomb:
        alpha                          2.000000
        third order                    shell-resolved
        anisotropic                    true
        a3                             3.000000
        a5                             4.000000
        cn-shift                       1.200000
        cn-exp                         4.000000
        max-rad                        5.000000

      * Solvation model:               ALPB
        Solvent                        water
        Parameter file                 internal GFN2-xTB/ALPB
        Dielectric constant                8.0200E+01
        Reference state                gsolv [1 M gas/solution]
        Free energy shift                  1.0808E-03 Eh       6.7819E-01 kcal/mol
        Temperature                        2.9815E+02 K
        Density                            1.0000E+00 kg/L
        Solvent mass                       1.8000E+01 g/mol
        Interaction kernel             P16
        Born radius scaling (c1)           1.4744E+00
        Born radii integrator          GBOBC
        Born offset                        0.0000E+00 a0       0.0000E+00 AA
        H-bond correction              true
        Ion screening                  false
        Surface tension                    1.0000E-05 Eh       1.5569E+01 dyn/cm
        Grid points                               230 per atom

          ...................................................
          :                      SETUP                      :
          :.................................................:
          :  # basis functions                 180          :
          :  # atomic orbitals                 180          :
          :  # shells                          104          :
          :  # electrons                       198          :
          :  max. iterations                   250          :
          :  Hamiltonian                  GFN2-xTB          :
          :  restarted?                      false          :
          :  GBSA solvation                   true          :
          :  PC potential                    false          :
          :  electronic temp.          300.0000000     K    :
          :  accuracy                    1.0000000          :
          :  -> integral cutoff          0.2500000E+02      :
          :  -> integral neglect         0.1000000E-07      :
          :  -> SCF convergence          0.1000000E-05 Eh   :
          :  -> wf. convergence          0.1000000E-03 e    :
          :  Broyden damping             0.4000000          :
          :  net charge                          0          :
          :  unpaired electrons                  0          :
          ...................................................

 iter      E             dE          RMSdq      gap      omega  full diag
   1   -112.8799263 -0.112880E+03  0.468E+00    1.77       0.0  T
   2   -113.1519485 -0.272022E+00  0.243E+00    1.06       1.0  T
   3   -113.1583166 -0.636806E-02  0.118E+00    0.66       1.0  T
   4   -113.1634358 -0.511919E-02  0.481E-01    0.44       1.0  T
   5   -113.1712316 -0.779583E-02  0.941E-02    0.37       1.0  T
   6   -113.1713152 -0.836283E-04  0.508E-02    0.38       1.0  T
   7   -113.1713329 -0.176863E-04  0.252E-02    0.40       1.0  T
   8   -113.1713442 -0.112966E-04  0.963E-03    0.41       1.3  T
   9   -113.1713461 -0.185822E-05  0.451E-03    0.41       2.7  T
  10   -113.1713463 -0.204403E-06  0.222E-03    0.41       5.5  T
  11   -113.1713464 -0.759297E-07  0.962E-04    0.41      12.8  T
  12   -113.1713464 -0.156894E-07  0.438E-04    0.41      28.1  T

   *** convergence criteria satisfied after 12 iterations ***

         #    Occupation            Energy/Eh            Energy/eV
      -------------------------------------------------------------
         1        2.0000           -0.7949132             -21.6307
       ...           ...                  ...                  ...
        93        2.0000           -0.4073376             -11.0842
        94        2.0000           -0.4051391             -11.0244
        95        2.0000           -0.4041133             -10.9965
        96        2.0000           -0.4036454             -10.9837
        97        2.0000           -0.3921842             -10.6719
        98        2.0000           -0.3860140             -10.5040
        99        1.9993           -0.3621323              -9.8541 (HOMO)
       100        0.0007           -0.3469272              -9.4404 (LUMO)
       101                         -0.3073660              -8.3639
       102                         -0.2552326              -6.9452
       103                         -0.2373834              -6.4595
       104                         -0.2295771              -6.2471
       ...                                ...                  ...
       180                          0.6149799              16.7345
      -------------------------------------------------------------
                  HL-Gap            0.0152051 Eh            0.4138 eV
             Fermi-level           -0.3545297 Eh           -9.6472 eV

 SCC (total)                   0 d,  0 h,  0 min,  0.086 sec
 SCC setup                      ...        0 min,  0.001 sec (  1.375%)
 Dispersion                     ...        0 min,  0.002 sec (  2.275%)
 classical contributions        ...        0 min,  0.000 sec (  0.190%)
 integral evaluation            ...        0 min,  0.005 sec (  5.530%)
 iterations                     ...        0 min,  0.061 sec ( 71.394%)
 molecular gradient             ...        0 min,  0.016 sec ( 18.529%)
 printout                       ...        0 min,  0.001 sec (  0.678%)

         :::::::::::::::::::::::::::::::::::::::::::::::::::::
         ::                     SUMMARY                     ::
         :::::::::::::::::::::::::::::::::::::::::::::::::::::
         :: total energy            -111.828887042538 Eh    ::
         :: total w/o Gsasa/hb      -111.819490442441 Eh    ::
         :: gradient norm              0.121409239193 Eh/a0 ::
         :: HOMO-LUMO gap              0.413751794493 eV    ::
         ::.................................................::
         :: SCC energy              -113.170883505928 Eh    ::
         :: -> isotropic ES            0.244359076926 Eh    ::
         :: -> anisotropic ES          0.009183035276 Eh    ::
         :: -> anisotropic XC          0.046516305331 Eh    ::
         :: -> dispersion             -0.074816011770 Eh    ::
         :: -> Gsolv                  -0.058723081767 Eh    ::
         ::    -> Gelec               -0.049326481669 Eh    ::
         ::    -> Gsasa                0.004440548080 Eh    ::
         ::    -> Ghb                 -0.014917907875 Eh    ::
         ::    -> Gshift               0.001080759698 Eh    ::
         :: repulsion energy           1.341996463389 Eh    ::
         :: add. restraining           0.000000000000 Eh    ::
         :: total charge               0.000000000000 e     ::
         :::::::::::::::::::::::::::::::::::::::::::::::::::::

      ----------------------------------------------------------- 
     |                   =====================                   |
     |                        A N C O P T                        |
     |                   =====================                   |
     |               Approximate Normal Coordinate               |
     |                Rational Function Optimizer                |
      ----------------------------------------------------------- 
      ----------------------------------------------------------- 
     |                   =====================                   |
     |                        A N C O P T                        |
     |                   =====================                   |
     |               Approximate Normal Coordinate               |
     |                Rational Function Optimizer                |
      ----------------------------------------------------------- 

          ...................................................
          :                      SETUP                      :
          :.................................................:
          :   optimization level            normal          :
          :   max. optcycles                   200          :
          :   ANC micro-cycles                  20          :
          :   degrees of freedom               192          :
          :.................................................:
          :   RF solver                   davidson          :
          :   write xtbopt.log                true          :
          :   linear?                        false          :
          :   energy convergence         0.5000000E-05 Eh   :
          :   grad. convergence          0.1000000E-02 Eh/α :
          :   maxmium RF displ.          1.0000000          :
          :   Hlow (freq-cutoff)         0.1000000E-01      :
          :   Hmax (freq-cutoff)         5.0000000          :
          :   S6 in model hess.         20.0000000          :
          ...................................................

generating ANC from exact Hessian ...
Using Lindh-Hessian (1995)
 Shifting diagonal of input Hessian by    9.8923888916625183E-003
 Lowest  eigenvalues of input Hessian
    0.000000    0.000000    0.000000    0.000000    0.000000    0.000000
    0.010000    0.010011    0.010028    0.010226    0.010383    0.010480
    0.010508    0.011040    0.011194    0.011258    0.011292    0.012087
 Highest eigenvalues
    1.953831    2.176626    2.242417    2.247362    2.249447    2.522975


........................................................................
.............................. CYCLE    1 ..............................
........................................................................

 iter      E             dE          RMSdq      gap      omega  full diag
   1   -113.1713464 -0.113171E+03  0.201E-04    0.41       0.0  T
   2   -113.1713464 -0.308589E-09  0.134E-04    0.41      91.8  T
   3   -113.1713464 -0.796518E-10  0.785E-05    0.41     156.9  T
     SCC iter.                  ...        0 min,  0.014 sec
     gradient                   ...        0 min,  0.015 sec
 * total energy  :  -111.8288870 Eh     change       -0.2689077E-08 Eh
   gradient norm :     0.1214045 Eh/α   predicted     0.0000000E+00 (-100.00%)
   displ. norm   :     0.3599163 α      lambda       -0.2165288E-01
   maximum displ.:     0.1283568 α      in ANC's #64, #16, #21, ...

........................................................................
.............................. CYCLE    2 ..............................
........................................................................

 iter      E             dE          RMSdq      gap      omega  full diag
   1   -113.2396996 -0.113240E+03  0.200E-01    0.65       0.0  T
   2   -113.2401432 -0.443603E-03  0.121E-01    0.70       1.0  T
   3   -113.2401664 -0.231999E-04  0.575E-02    0.70       1.0  T
   4   -113.2401862 -0.197795E-04  0.155E-02    0.70       1.0  T
   5   -113.2401956 -0.944030E-05  0.501E-03    0.70       2.5  T
   6   -113.2401961 -0.433172E-06  0.253E-03    0.70       4.9  T
   7   -113.2401961 -0.222866E-07  0.107E-03    0.70      11.5  T
   8   -113.2401961 -0.234140E-07  0.368E-04    0.70      33.5  T
   9   -113.2401961 -0.278528E-08  0.170E-04    0.70      72.2  T
     SCC iter.                  ...        0 min,  0.035 sec
     gradient                   ...        0 min,  0.015 sec
 * total energy  :  -111.8441881 Eh     change       -0.1530107E-01 Eh
   gradient norm :     0.0552471 Eh/α   predicted    -0.1224368E-01 ( -19.98%)
   displ. norm   :     0.4213592 α      lambda       -0.9315421E-02
   maximum displ.:     0.1743362 α      in ANC's #16, #14, #21, ...

........................................................................
.............................. CYCLE    3 ..............................
........................................................................

 iter      E             dE          RMSdq      gap      omega  full diag
   1   -113.2823332 -0.113282E+03  0.158E-01    0.78       0.0  T
   2   -113.2827947 -0.461505E-03  0.940E-02    0.83       1.0  T
   3   -113.2828326 -0.379349E-04  0.495E-02    0.83       1.0  T
   4   -113.2828350 -0.233224E-05  0.156E-02    0.84       1.0  T
   5   -113.2828445 -0.951613E-05  0.416E-03    0.84       3.0  T
   6   -113.2828447 -0.239821E-06  0.207E-03    0.84       5.9  T
   7   -113.2828448 -0.217440E-07  0.916E-04    0.84      13.4  T
   8   -113.2828448 -0.140164E-07  0.329E-04    0.84      37.4  T
     SCC iter.                  ...        0 min,  0.037 sec
     gradient                   ...        0 min,  0.016 sec
 * total energy  :  -111.8497299 Eh     change       -0.5541824E-02 Eh
   gradient norm :     0.0235723 Eh/α   predicted    -0.5484659E-02 (  -1.03%)
   displ. norm   :     0.4313824 α      lambda       -0.4212068E-02
   maximum displ.:     0.1986491 α      in ANC's #16, #14, #21, ...

........................................................................
.............................. CYCLE    4 ..............................
........................................................................

 iter      E             dE          RMSdq      gap      omega  full diag
   1   -113.2925822 -0.113293E+03  0.112E-01    0.76       0.0  T
   2   -113.2927083 -0.126097E-03  0.642E-02    0.81       1.0  T
   3   -113.2927136 -0.526093E-05  0.295E-02    0.82       1.0  T
   4   -113.2927183 -0.474327E-05  0.850E-03    0.82       1.4  T
   5   -113.2927212 -0.288311E-05  0.296E-03    0.82       4.2  T
   6   -113.2927213 -0.875422E-07  0.139E-03    0.82       8.9  T
   7   -113.2927213 -0.148580E-07  0.576E-04    0.82      21.4  T
   8   -113.2927213 -0.635194E-08  0.229E-04    0.82      53.9  T
     SCC iter.                  ...        0 min,  0.036 sec
     gradient                   ...        0 min,  0.016 sec
 * total energy  :  -111.8522467 Eh     change       -0.2516732E-02 Eh
   gradient norm :     0.0294590 Eh/α   predicted    -0.2497948E-02 (  -0.75%)
   displ. norm   :     0.4612820 α      lambda       -0.3300981E-02
   maximum displ.:     0.2108604 α      in ANC's #14, #16, #18, ...

........................................................................
.............................. CYCLE    5 ..............................
........................................................................

 iter      E             dE          RMSdq      gap      omega  full diag
   1   -113.2917811 -0.113292E+03  0.102E-01    0.75       0.0  T
   2   -113.2918213 -0.401558E-04  0.591E-02    0.77       1.0  T
   3   -113.2918215 -0.178966E-06  0.178E-02    0.78       1.0  T
   4   -113.2918268 -0.527541E-05  0.561E-03    0.79       2.2  T
   5   -113.2918277 -0.926503E-06  0.275E-03    0.78       4.5  T
   6   -113.2918277 -0.607177E-07  0.112E-03    0.78      11.0  T
   7   -113.2918278 -0.166519E-07  0.411E-04    0.78      30.0  T
   8   -113.2918278 -0.343152E-08  0.190E-04    0.78      64.9  T
     SCC iter.                  ...        0 min,  0.036 sec
     gradient                   ...        0 min,  0.017 sec
 * total energy  :  -111.8547327 Eh     change       -0.2486003E-02 Eh
   gradient norm :     0.0229784 Eh/α   predicted    -0.2001691E-02 ( -19.48%)
   displ. norm   :     0.5115832 α      lambda       -0.2514242E-02
   maximum displ.:     0.2664919 α      in ANC's #14, #16, #18, ...

........................................................................
.............................. CYCLE    6 ..............................
........................................................................

 iter      E             dE          RMSdq      gap      omega  full diag
   1   -113.2912252 -0.113291E+03  0.109E-01    0.72       0.0  T
   2   -113.2912570 -0.317878E-04  0.639E-02    0.72       1.0  T
   3   -113.2912542  0.283376E-05  0.191E-02    0.73       1.0  T
   4   -113.2912636 -0.946223E-05  0.474E-03    0.73       2.6  T
   5   -113.2912640 -0.356221E-06  0.258E-03    0.73       4.8  T
   6   -113.2912640 -0.409805E-07  0.807E-04    0.73      15.3  T
   7   -113.2912640 -0.104158E-07  0.287E-04    0.73      42.9  T
     SCC iter.                  ...        0 min,  0.039 sec
     gradient                   ...        0 min,  0.015 sec
 * total energy  :  -111.8565715 Eh     change       -0.1838809E-02 Eh
   gradient norm :     0.0189458 Eh/α   predicted    -0.1586134E-02 ( -13.74%)
   displ. norm   :     0.4971914 α      lambda       -0.1690833E-02
   maximum displ.:     0.2588710 α      in ANC's #14, #16, #18, ...

........................................................................
.............................. CYCLE    7 ..............................
........................................................................

 iter      E             dE          RMSdq      gap      omega  full diag
   1   -113.2931580 -0.113293E+03  0.973E-02    0.74       0.0  T
   2   -113.2931772 -0.192055E-04  0.569E-02    0.74       1.0  T
   3   -113.2931726  0.459656E-05  0.170E-02    0.74       1.0  T
   4   -113.2931814 -0.884383E-05  0.405E-03    0.74       3.0  T
   5   -113.2931817 -0.321466E-06  0.199E-03    0.74       6.2  T
   6   -113.2931818 -0.183668E-07  0.852E-04    0.74      14.4  T
   7   -113.2931818 -0.703037E-08  0.326E-04    0.74      37.7  T
     SCC iter.                  ...        0 min,  0.032 sec
     gradient                   ...        0 min,  0.017 sec
 * total energy  :  -111.8578895 Eh     change       -0.1317987E-02 Eh
   gradient norm :     0.0162009 Eh/α   predicted    -0.1054403E-02 ( -20.00%)
   displ. norm   :     0.5249364 α      lambda       -0.1500954E-02
   maximum displ.:     0.2798203 α      in ANC's #14, #22, #18, ...

........................................................................
.............................. CYCLE    8 ..............................
........................................................................

 iter      E             dE          RMSdq      gap      omega  full diag
   1   -113.2990489 -0.113299E+03  0.941E-02    0.73       0.0  T
   2   -113.2990684 -0.194614E-04  0.551E-02    0.72       1.0  T
   3   -113.2990630  0.535613E-05  0.179E-02    0.73       1.0  T
   4   -113.2990737 -0.106254E-04  0.404E-03    0.72       3.0  T
   5   -113.2990739 -0.233143E-06  0.214E-03    0.72       5.8  T
   6   -113.2990739 -0.253637E-07  0.792E-04    0.72      15.5  T
   7   -113.2990739 -0.960897E-08  0.316E-04    0.72      38.9  T
     SCC iter.                  ...        0 min,  0.030 sec
     gradient                   ...        0 min,  0.015 sec
 * total energy  :  -111.8590312 Eh     change       -0.1141766E-02 Eh
   gradient norm :     0.0126727 Eh/α   predicted    -0.9572782E-03 ( -16.16%)
   displ. norm   :     0.5387758 α      lambda       -0.1172212E-02
   maximum displ.:     0.2739141 α      in ANC's #14, #18, #22, ...

........................................................................
.............................. CYCLE    9 ..............................
........................................................................

 iter      E             dE          RMSdq      gap      omega  full diag
   1   -113.3014388 -0.113301E+03  0.104E-01    0.74       0.0  T
   2   -113.3014803 -0.414812E-04  0.608E-02    0.74       1.0  T
   3   -113.3014794  0.907980E-06  0.210E-02    0.73       1.0  T
   4   -113.3014861 -0.673712E-05  0.456E-03    0.73       2.7  T
   5   -113.3014867 -0.545869E-06  0.231E-03    0.74       5.3  T
   6   -113.3014867 -0.349982E-07  0.911E-04    0.73      13.5  T
   7   -113.3014867 -0.108147E-07  0.354E-04    0.73      34.8  T
     SCC iter.                  ...        0 min,  0.032 sec
     gradient                   ...        0 min,  0.016 sec
 * total energy  :  -111.8597869 Eh     change       -0.7556170E-03 Eh
   gradient norm :     0.0153365 Eh/α   predicted    -0.7562417E-03 (   0.08%)
   displ. norm   :     0.4141822 α      lambda       -0.9250672E-03
   maximum displ.:     0.2014664 α      in ANC's #14, #18, #22, ...

........................................................................
.............................. CYCLE   10 ..............................
........................................................................

 iter      E             dE          RMSdq      gap      omega  full diag
   1   -113.3085264 -0.113309E+03  0.746E-02    0.73       0.0  T
   2   -113.3085694 -0.430468E-04  0.434E-02    0.72       1.0  T
   3   -113.3085718 -0.239209E-05  0.195E-02    0.72       1.0  T
   4   -113.3085759 -0.414784E-05  0.326E-03    0.72       3.8  T
   5   -113.3085761 -0.137586E-06  0.176E-03    0.72       7.0  T
   6   -113.3085761 -0.230856E-07  0.762E-04    0.72      16.2  T
   7   -113.3085761 -0.116243E-07  0.348E-04    0.72      35.4  T
     SCC iter.                  ...        0 min,  0.030 sec
     gradient                   ...        0 min,  0.016 sec
 * total energy  :  -111.8602290 Eh     change       -0.4421707E-03 Eh
   gradient norm :     0.0125137 Eh/α   predicted    -0.5418815E-03 (  22.55%)
   displ. norm   :     0.3263978 α      lambda       -0.4668331E-03
   maximum displ.:     0.1543161 α      in ANC's #14, #18, #22, ...

........................................................................
.............................. CYCLE   11 ..............................
........................................................................

 iter      E             dE          RMSdq      gap      omega  full diag
   1   -113.3039436 -0.113304E+03  0.683E-02    0.63       0.0  T
   2   -113.3039805 -0.369124E-04  0.399E-02    0.65       1.0  T
   3   -113.3039822 -0.177157E-05  0.168E-02    0.66       1.0  T
   4   -113.3039846 -0.240635E-05  0.446E-03    0.66       2.8  T
   5   -113.3039851 -0.502087E-06  0.205E-03    0.66       6.0  T
   6   -113.3039852 -0.504267E-07  0.105E-03    0.66      11.7  T
   7   -113.3039852 -0.854102E-08  0.360E-04    0.66      34.2  T
   8   -113.3039852 -0.299953E-08  0.141E-04    0.66      87.5  T
     SCC iter.                  ...        0 min,  0.038 sec
     gradient                   ...        0 min,  0.017 sec
 * total energy  :  -111.8604098 Eh     change       -0.1807810E-03 Eh
   gradient norm :     0.0143574 Eh/α   predicted    -0.2583165E-03 (  42.89%)
   displ. norm   :     0.1554969 α      lambda       -0.4667970E-03
   maximum displ.:     0.0622227 α      in ANC's #7, #18, #8, ...

........................................................................
.............................. CYCLE   12 ..............................
........................................................................

 iter      E             dE          RMSdq      gap      omega  full diag
   1   -113.3062980 -0.113306E+03  0.465E-02    0.74       0.0  T
   2   -113.3063330 -0.350706E-04  0.262E-02    0.74       1.0  T
   3   -113.3063352 -0.212262E-05  0.137E-02    0.73       1.0  T
   4   -113.3063357 -0.518478E-06  0.474E-03    0.73       2.6  T
   5   -113.3063361 -0.412329E-06  0.156E-03    0.73       7.9  T
   6   -113.3063361 -0.427620E-07  0.807E-04    0.73      15.2  T
   7   -113.3063361 -0.362587E-08  0.301E-04    0.73      40.9  T
     SCC iter.                  ...        0 min,  0.029 sec
     gradient                   ...        0 min,  0.014 sec
 * total energy  :  -111.8606076 Eh     change       -0.1977547E-03 Eh
   gradient norm :     0.0126454 Eh/α   predicted    -0.2390451E-03 (  20.88%)
   displ. norm   :     0.1390785 α      lambda       -0.3044727E-03
   maximum displ.:     0.0683600 α      in ANC's #7, #18, #11, ...

........................................................................
.............................. CYCLE   13 ..............................
........................................................................

 iter      E             dE          RMSdq      gap      omega  full diag
   1   -113.3063207 -0.113306E+03  0.367E-02    0.70       0.0  T
   2   -113.3063325 -0.117658E-04  0.211E-02    0.70       1.0  T
   3   -113.3063332 -0.722698E-06  0.978E-03    0.70       1.3  T
   4   -113.3063338 -0.581575E-06  0.183E-03    0.71       6.7  T
   5   -113.3063339 -0.736355E-07  0.900E-04    0.71      13.7  T
   6   -113.3063339 -0.639490E-08  0.409E-04    0.71      30.1  T
     SCC iter.                  ...        0 min,  0.027 sec
     gradient                   ...        0 min,  0.016 sec
 * total energy  :  -111.8607854 Eh     change       -0.1778113E-03 Eh
   gradient norm :     0.0077007 Eh/α   predicted    -0.1551868E-03 ( -12.72%)
   displ. norm   :     0.2348878 α      lambda       -0.3179545E-03
   maximum displ.:     0.1241400 α      in ANC's #7, #11, #18, ...

........................................................................
.............................. CYCLE   14 ..............................
........................................................................

 iter      E             dE          RMSdq      gap      omega  full diag
   1   -113.3071099 -0.113307E+03  0.535E-02    0.67       0.0  T
   2   -113.3071191 -0.915369E-05  0.312E-02    0.68       1.0  T
   3   -113.3071193 -0.187897E-06  0.909E-03    0.68       1.4  T
   4   -113.3071204 -0.117525E-05  0.204E-03    0.68       6.0  T
   5   -113.3071205 -0.509752E-07  0.109E-03    0.68      11.3  T
   6   -113.3071205 -0.100017E-07  0.409E-04    0.68      30.1  T
   7   -113.3071205 -0.246817E-08  0.178E-04    0.68      69.1  T
     SCC iter.                  ...        0 min,  0.028 sec
     gradient                   ...        0 min,  0.015 sec
 * total energy  :  -111.8609612 Eh     change       -0.1758227E-03 Eh
   gradient norm :     0.0095014 Eh/α   predicted    -0.1677566E-03 (  -4.59%)
   displ. norm   :     0.2503213 α      lambda       -0.2099923E-03
   maximum displ.:     0.1291435 α      in ANC's #7, #18, #11, ...

........................................................................
.............................. CYCLE   15 ..............................
........................................................................

 iter      E             dE          RMSdq      gap      omega  full diag
   1   -113.3049650 -0.113305E+03  0.566E-02    0.67       0.0  T
   2   -113.3049734 -0.844046E-05  0.330E-02    0.67       1.0  T
   3   -113.3049737 -0.242126E-06  0.861E-03    0.68       1.4  T
   4   -113.3049743 -0.624306E-06  0.196E-03    0.68       6.3  T
   5   -113.3049744 -0.905700E-07  0.111E-03    0.68      11.1  T
   6   -113.3049744 -0.101038E-07  0.270E-04    0.68      45.6  T
   7   -113.3049744 -0.114218E-08  0.147E-04    0.68      84.0  T
     SCC iter.                  ...        0 min,  0.030 sec
     gradient                   ...        0 min,  0.017 sec
 * total energy  :  -111.8611003 Eh     change       -0.1390925E-03 Eh
   gradient norm :     0.0070543 Eh/α   predicted    -0.1115925E-03 ( -19.77%)
   displ. norm   :     0.2259933 α      lambda       -0.1804426E-03
   maximum displ.:     0.1286438 α      in ANC's #7, #11, #9, ...

........................................................................
.............................. CYCLE   16 ..............................
........................................................................

 iter      E             dE          RMSdq      gap      omega  full diag
   1   -113.3054260 -0.113305E+03  0.554E-02    0.68       0.0  T
   2   -113.3054358 -0.976386E-05  0.328E-02    0.68       1.0  T
   3   -113.3054354  0.399105E-06  0.102E-02    0.68       1.2  T
   4   -113.3054369 -0.148635E-05  0.209E-03    0.68       5.9  T
   5   -113.3054370 -0.129981E-06  0.966E-04    0.69      12.7  T
   6   -113.3054370 -0.488645E-08  0.356E-04    0.68      34.6  T
     SCC iter.                  ...        0 min,  0.028 sec
     gradient                   ...        0 min,  0.016 sec
 * total energy  :  -111.8612083 Eh     change       -0.1080581E-03 Eh
   gradient norm :     0.0054174 Eh/α   predicted    -0.9483297E-04 ( -12.24%)
   displ. norm   :     0.1553010 α      lambda       -0.1017546E-03
   maximum displ.:     0.0870752 α      in ANC's #7, #9, #11, ...

........................................................................
.............................. CYCLE   17 ..............................
........................................................................

 iter      E             dE          RMSdq      gap      omega  full diag
   1   -113.3062098 -0.113306E+03  0.353E-02    0.70       0.0  T
   2   -113.3062136 -0.386582E-05  0.205E-02    0.70       1.0  T
   3   -113.3062134  0.262723E-06  0.664E-03    0.70       1.9  T
   4   -113.3062141 -0.727630E-06  0.154E-03    0.70       8.0  T
   5   -113.3062142 -0.769061E-07  0.659E-04    0.70      18.7  T
   6   -113.3062142 -0.267784E-08  0.286E-04    0.70      43.0  T
     SCC iter.                  ...        0 min,  0.025 sec
     gradient                   ...        0 min,  0.017 sec
 * total energy  :  -111.8612662 Eh     change       -0.5783732E-04 Eh
   gradient norm :     0.0042705 Eh/α   predicted    -0.5210659E-04 (  -9.91%)
   displ. norm   :     0.1266123 α      lambda       -0.7407087E-04
   maximum displ.:     0.0693908 α      in ANC's #7, #9, #11, ...

........................................................................
.............................. CYCLE   18 ..............................
........................................................................

 iter      E             dE          RMSdq      gap      omega  full diag
   1   -113.3081034 -0.113308E+03  0.274E-02    0.69       0.0  T
   2   -113.3081057 -0.227471E-05  0.160E-02    0.70       1.0  T
   3   -113.3081054  0.215151E-06  0.503E-03    0.70       2.4  T
   4   -113.3081059 -0.492864E-06  0.122E-03    0.70      10.1  T
   5   -113.3081060 -0.544235E-07  0.502E-04    0.70      24.5  T
   6   -113.3081060 -0.126199E-08  0.178E-04    0.70      69.2  T
     SCC iter.                  ...        0 min,  0.031 sec
     gradient                   ...        0 min,  0.016 sec
 * total energy  :  -111.8613097 Eh     change       -0.4354084E-04 Eh
   gradient norm :     0.0036062 Eh/α   predicted    -0.3763062E-04 ( -13.57%)
   displ. norm   :     0.1385904 α      lambda       -0.5764071E-04
   maximum displ.:     0.0778634 α      in ANC's #7, #9, #14, ...

........................................................................
.............................. CYCLE   19 ..............................
........................................................................

 iter      E             dE          RMSdq      gap      omega  full diag
   1   -113.3070355 -0.113307E+03  0.253E-02    0.68       0.0  T
   2   -113.3070377 -0.218256E-05  0.146E-02    0.68       1.0  T
   3   -113.3070377 -0.822878E-07  0.419E-03    0.69       2.9  T
   4   -113.3070379 -0.155640E-06  0.112E-03    0.69      11.0  T
   5   -113.3070379 -0.334497E-07  0.588E-04    0.69      20.9  T
   6   -113.3070379 -0.304252E-08  0.206E-04    0.69      59.6  T
     SCC iter.                  ...        0 min,  0.024 sec
     gradient                   ...        0 min,  0.016 sec
 * total energy  :  -111.8613425 Eh     change       -0.3280534E-04 Eh
   gradient norm :     0.0045001 Eh/α   predicted    -0.2937531E-04 ( -10.46%)
   displ. norm   :     0.0903426 α      lambda       -0.4091639E-04
   maximum displ.:     0.0512860 α      in ANC's #7, #9, #5, ...

........................................................................
.............................. CYCLE   20 ..............................
........................................................................

 iter      E             dE          RMSdq      gap      omega  full diag
   1   -113.3074760 -0.113307E+03  0.152E-02    0.69       0.0  T
   2   -113.3074767 -0.749223E-06  0.873E-03    0.69       1.4  T
   3   -113.3074767  0.527623E-07  0.270E-03    0.69       4.6  T
   4   -113.3074768 -0.140527E-06  0.595E-04    0.69      20.7  T
   5   -113.3074768 -0.104173E-07  0.248E-04    0.69      49.6  T
     SCC iter.                  ...        0 min,  0.025 sec
     gradient                   ...        0 min,  0.016 sec
 * total energy  :  -111.8613741 Eh     change       -0.3156584E-04 Eh
   gradient norm :     0.0033407 Eh/α   predicted    -0.2062706E-04 ( -34.65%)
   displ. norm   :     0.1799970 α      lambda       -0.6467998E-04
   maximum displ.:     0.1044902 α      in ANC's #7, #9, #5, ...
 * RMSD in coord.:     0.5856243 α      energy gain  -0.3248705E-01 Eh

generating ANC from exact Hessian ...
Using Lindh-Hessian (1995)
 Shifting diagonal of input Hessian by    9.8816748754022628E-003
 Lowest  eigenvalues of input Hessian
    0.000000    0.000000    0.000000    0.000000    0.000000    0.000000
    0.010000    0.010008    0.010026    0.010235    0.010431    0.010471
    0.010556    0.011149    0.011266    0.011413    0.011505    0.012390
 Highest eigenvalues
    2.057225    2.312044    2.336684    2.337018    2.350651    2.642716


........................................................................
.............................. CYCLE   21 ..............................
........................................................................

 iter      E             dE          RMSdq      gap      omega  full diag
   1   -113.3075215 -0.113308E+03  0.258E-02    0.70       0.0  T
   2   -113.3075222 -0.763033E-06  0.149E-02    0.70       1.0  T
   3   -113.3075222  0.586320E-07  0.261E-03    0.69       4.7  T
   4   -113.3075224 -0.238835E-06  0.851E-04    0.69      14.5  T
   5   -113.3075224 -0.108401E-07  0.416E-04    0.69      29.6  T
     SCC iter.                  ...        0 min,  0.023 sec
     gradient                   ...        0 min,  0.017 sec
 * total energy  :  -111.8614240 Eh     change       -0.4990008E-04 Eh
   gradient norm :     0.0033041 Eh/α   predicted     0.0000000E+00 (-100.00%)
   displ. norm   :     0.0354254 α      lambda       -0.3622717E-04
   maximum displ.:     0.0144732 α      in ANC's #11, #5, #9, ...

........................................................................
.............................. CYCLE   22 ..............................
........................................................................

 iter      E             dE          RMSdq      gap      omega  full diag
   1   -113.3076880 -0.113308E+03  0.810E-03    0.69       0.0  T
   2   -113.3076882 -0.214925E-06  0.474E-03    0.69       2.6  T
   3   -113.3076882  0.192462E-07  0.153E-03    0.70       8.0  T
   4   -113.3076883 -0.585230E-07  0.387E-04    0.70      31.8  T
   5   -113.3076883 -0.351780E-08  0.199E-04    0.70      61.9  T
     SCC iter.                  ...        0 min,  0.021 sec
     gradient                   ...        0 min,  0.015 sec
 * total energy  :  -111.8614548 Eh     change       -0.3081576E-04 Eh
   gradient norm :     0.0016974 Eh/α   predicted    -0.1851585E-04 ( -39.91%)
   displ. norm   :     0.1774355 α      lambda       -0.7616390E-04
   maximum displ.:     0.0785968 α      in ANC's #11, #5, #9, ...

........................................................................
.............................. CYCLE   23 ..............................
........................................................................

 iter      E             dE          RMSdq      gap      omega  full diag
   1   -113.3074106 -0.113307E+03  0.328E-02    0.70       0.0  T
   2   -113.3074133 -0.276908E-05  0.190E-02    0.70       1.0  T
   3   -113.3074131  0.260379E-06  0.530E-03    0.70       2.3  T
   4   -113.3074140 -0.888143E-06  0.164E-03    0.70       7.5  T
   5   -113.3074140 -0.532839E-07  0.881E-04    0.70      14.0  T
   6   -113.3074140 -0.350427E-08  0.304E-04    0.70      40.6  T
     SCC iter.                  ...        0 min,  0.024 sec
     gradient                   ...        0 min,  0.016 sec
 * total energy  :  -111.8615019 Eh     change       -0.4705739E-04 Eh
   gradient norm :     0.0039362 Eh/α   predicted    -0.3861508E-04 ( -17.94%)
   displ. norm   :     0.0362848 α      lambda       -0.2448335E-04
   maximum displ.:     0.0179703 α      in ANC's #11, #5, #2, ...

........................................................................
.............................. CYCLE   24 ..............................
........................................................................

 iter      E             dE          RMSdq      gap      omega  full diag
   1   -113.3074510 -0.113307E+03  0.751E-03    0.70       0.0  T
   2   -113.3074511 -0.984513E-07  0.439E-03    0.70       2.8  T
   3   -113.3074511  0.137191E-07  0.103E-03    0.70      11.9  T
   4   -113.3074511 -0.407316E-07  0.328E-04    0.70      37.5  T
   5   -113.3074512 -0.150139E-08  0.176E-04    0.70      70.1  T
     SCC iter.                  ...        0 min,  0.028 sec
     gradient                   ...        0 min,  0.015 sec
 * total energy  :  -111.8615195 Eh     change       -0.1767720E-04 Eh
   gradient norm :     0.0027929 Eh/α   predicted    -0.1225858E-04 ( -30.65%)
   displ. norm   :     0.1043670 α      lambda       -0.5309840E-04
   maximum displ.:     0.0505767 α      in ANC's #11, #5, #12, ...

........................................................................
.............................. CYCLE   25 ..............................
........................................................................

 iter      E             dE          RMSdq      gap      omega  full diag
   1   -113.3076380 -0.113308E+03  0.210E-02    0.70       0.0  T
   2   -113.3076388 -0.811644E-06  0.122E-02    0.70       1.0  T
   3   -113.3076387  0.132914E-06  0.297E-03    0.70       4.1  T
   4   -113.3076390 -0.318893E-06  0.817E-04    0.70      15.1  T
   5   -113.3076390 -0.108886E-07  0.431E-04    0.70      28.6  T
     SCC iter.                  ...        0 min,  0.021 sec
     gradient                   ...        0 min,  0.014 sec
 * total energy  :  -111.8615545 Eh     change       -0.3490728E-04 Eh
   gradient norm :     0.0018621 Eh/α   predicted    -0.2684025E-04 ( -23.11%)
   displ. norm   :     0.1964156 α      lambda       -0.3065930E-04
   maximum displ.:     0.0944851 α      in ANC's #11, #5, #2, ...

........................................................................
.............................. CYCLE   26 ..............................
........................................................................

 iter      E             dE          RMSdq      gap      omega  full diag
   1   -113.3073940 -0.113307E+03  0.357E-02    0.69       0.0  T
   2   -113.3073950 -0.966438E-06  0.207E-02    0.70       1.0  T
   3   -113.3073950 -0.583226E-07  0.293E-03    0.70       4.2  T
   4   -113.3073954 -0.351189E-06  0.130E-03    0.70       9.5  T
   5   -113.3073954 -0.120919E-07  0.621E-04    0.70      19.8  T
   6   -113.3073954 -0.567441E-08  0.179E-04    0.70      68.9  T
     SCC iter.                  ...        0 min,  0.030 sec
     gradient                   ...        0 min,  0.016 sec
 * total energy  :  -111.8615876 Eh     change       -0.3315666E-04 Eh
   gradient norm :     0.0033554 Eh/α   predicted    -0.1561408E-04 ( -52.91%)
   displ. norm   :     0.1703205 α      lambda       -0.3817056E-04
   maximum displ.:     0.0804897 α      in ANC's #11, #5, #2, ...

........................................................................
.............................. CYCLE   27 ..............................
........................................................................

 iter      E             dE          RMSdq      gap      omega  full diag
   1   -113.3072528 -0.113307E+03  0.307E-02    0.70       0.0  T
   2   -113.3072533 -0.538268E-06  0.179E-02    0.70       1.0  T
   3   -113.3072533  0.293018E-08  0.246E-03    0.70       5.0  T
   4   -113.3072536 -0.271425E-06  0.104E-03    0.70      11.8  T
   5   -113.3072536 -0.418947E-08  0.396E-04    0.70      31.1  T
   6   -113.3072536 -0.334907E-08  0.125E-04    0.70      98.3  T
     SCC iter.                  ...        0 min,  0.025 sec
     gradient                   ...        0 min,  0.016 sec
 * total energy  :  -111.8616201 Eh     change       -0.3251830E-04 Eh
   gradient norm :     0.0029803 Eh/α   predicted    -0.1963923E-04 ( -39.61%)
   displ. norm   :     0.3312015 α      lambda       -0.7027940E-04
   maximum displ.:     0.1549574 α      in ANC's #11, #5, #2, ...

........................................................................
.............................. CYCLE   28 ..............................
........................................................................

 iter      E             dE          RMSdq      gap      omega  full diag
   1   -113.3068129 -0.113307E+03  0.603E-02    0.70       0.0  T
   2   -113.3068148 -0.194368E-05  0.353E-02    0.70       1.0  T
   3   -113.3068148  0.339286E-07  0.463E-03    0.70       2.7  T
   4   -113.3068157 -0.930705E-06  0.191E-03    0.70       6.4  T
   5   -113.3068157 -0.217314E-07  0.847E-04    0.70      14.5  T
   6   -113.3068157 -0.928806E-08  0.257E-04    0.70      48.0  T
     SCC iter.                  ...        0 min,  0.027 sec
     gradient                   ...        0 min,  0.017 sec
 * total energy  :  -111.8616712 Eh     change       -0.5111977E-04 Eh
   gradient norm :     0.0024757 Eh/α   predicted    -0.3899986E-04 ( -23.71%)
   displ. norm   :     0.2828889 α      lambda       -0.4926177E-04
   maximum displ.:     0.1301492 α      in ANC's #11, #5, #2, ...

........................................................................
.............................. CYCLE   29 ..............................
........................................................................

 iter      E             dE          RMSdq      gap      omega  full diag
   1   -113.3067414 -0.113307E+03  0.517E-02    0.71       0.0  T
   2   -113.3067427 -0.133629E-05  0.303E-02    0.71       1.0  T
   3   -113.3067428 -0.546662E-07  0.348E-03    0.71       3.5  T
   4   -113.3067433 -0.486370E-06  0.151E-03    0.71       8.1  T
   5   -113.3067433 -0.216017E-07  0.733E-04    0.71      16.8  T
   6   -113.3067433 -0.573822E-08  0.214E-04    0.71      57.6  T
     SCC iter.                  ...        0 min,  0.028 sec
     gradient                   ...        0 min,  0.015 sec
 * total energy  :  -111.8617082 Eh     change       -0.3694547E-04 Eh
   gradient norm :     0.0024576 Eh/α   predicted    -0.2660857E-04 ( -27.98%)
   displ. norm   :     0.2316646 α      lambda       -0.4428899E-04
   maximum displ.:     0.1036257 α      in ANC's #2, #5, #11, ...

........................................................................
.............................. CYCLE   30 ..............................
........................................................................

 iter      E             dE          RMSdq      gap      omega  full diag
   1   -113.3077544 -0.113308E+03  0.425E-02    0.72       0.0  T
   2   -113.3077556 -0.117938E-05  0.250E-02    0.72       1.0  T
   3   -113.3077557 -0.105894E-06  0.272E-03    0.72       4.5  T
   4   -113.3077559 -0.218486E-06  0.118E-03    0.72      10.4  T
   5   -113.3077559 -0.185859E-07  0.627E-04    0.72      19.6  T
   6   -113.3077559 -0.459522E-08  0.194E-04    0.72      63.5  T
     SCC iter.                  ...        0 min,  0.025 sec
     gradient                   ...        0 min,  0.017 sec
 * total energy  :  -111.8617406 Eh     change       -0.3239261E-04 Eh
   gradient norm :     0.0021635 Eh/α   predicted    -0.2336591E-04 ( -27.87%)
   displ. norm   :     0.2837055 α      lambda       -0.3335093E-04
   maximum displ.:     0.1274596 α      in ANC's #2, #5, #11, ...

........................................................................
.............................. CYCLE   31 ..............................
........................................................................

 iter      E             dE          RMSdq      gap      omega  full diag
   1   -113.3070493 -0.113307E+03  0.518E-02    0.71       0.0  T
   2   -113.3070504 -0.112026E-05  0.305E-02    0.72       1.0  T
   3   -113.3070507 -0.246870E-06  0.268E-03    0.72       4.6  T
   4   -113.3070509 -0.221645E-06  0.137E-03    0.72       9.0  T
   5   -113.3070509 -0.152877E-07  0.622E-04    0.72      19.8  T
   6   -113.3070509 -0.790770E-08  0.191E-04    0.72      64.4  T
     SCC iter.                  ...        0 min,  0.029 sec
     gradient                   ...        0 min,  0.015 sec
 * total energy  :  -111.8617624 Eh     change       -0.2180362E-04 Eh
   gradient norm :     0.0022363 Eh/α   predicted    -0.1801833E-04 ( -17.36%)
   displ. norm   :     0.1327224 α      lambda       -0.2830088E-04
   maximum displ.:     0.0682523 α      in ANC's #2, #5, #12, ...

........................................................................
.............................. CYCLE   32 ..............................
........................................................................

 iter      E             dE          RMSdq      gap      omega  full diag
   1   -113.3089371 -0.113309E+03  0.237E-02    0.72       0.0  T
   2   -113.3089379 -0.815871E-06  0.139E-02    0.72       1.0  T
   3   -113.3089379 -0.632156E-09  0.246E-03    0.72       5.0  T
   4   -113.3089380 -0.139696E-06  0.698E-04    0.72      17.6  T
   5   -113.3089380 -0.684273E-08  0.379E-04    0.72      32.4  T
     SCC iter.                  ...        0 min,  0.022 sec
     gradient                   ...        0 min,  0.016 sec
 * total energy  :  -111.8617783 Eh     change       -0.1590824E-04 Eh
   gradient norm :     0.0019439 Eh/α   predicted    -0.1440580E-04 (  -9.44%)
   displ. norm   :     0.2087761 α      lambda       -0.1565260E-04
   maximum displ.:     0.1030010 α      in ANC's #2, #5, #12, ...

........................................................................
.............................. CYCLE   33 ..............................
........................................................................

 iter      E             dE          RMSdq      gap      omega  full diag
   1   -113.3081610 -0.113308E+03  0.370E-02    0.71       0.0  T
   2   -113.3081616 -0.640063E-06  0.217E-02    0.71       1.0  T
   3   -113.3081617 -0.999669E-07  0.196E-03    0.72       6.3  T
   4   -113.3081619 -0.133477E-06  0.968E-04    0.72      12.7  T
   5   -113.3081619 -0.111286E-07  0.452E-04    0.72      27.2  T
     SCC iter.                  ...        0 min,  0.029 sec
     gradient                   ...        0 min,  0.015 sec
 * total energy  :  -111.8617953 Eh     change       -0.1700578E-04 Eh
   gradient norm :     0.0016614 Eh/α   predicted    -0.7980947E-05 ( -53.07%)
   displ. norm   :     0.1314594 α      lambda       -0.2082312E-04
   maximum displ.:     0.0657957 α      in ANC's #2, #4, #14, ...

........................................................................
.............................. CYCLE   34 ..............................
........................................................................

 iter      E             dE          RMSdq      gap      omega  full diag
   1   -113.3087361 -0.113309E+03  0.195E-02    0.71       0.0  T
   2   -113.3087367 -0.598873E-06  0.112E-02    0.71       1.1  T
   3   -113.3087367  0.529715E-08  0.188E-03    0.71       6.6  T
   4   -113.3087368 -0.997483E-07  0.660E-04    0.71      18.7  T
   5   -113.3087368 -0.113205E-07  0.330E-04    0.71      37.3  T
     SCC iter.                  ...        0 min,  0.020 sec
     gradient                   ...        0 min,  0.015 sec
 * total energy  :  -111.8618164 Eh     change       -0.2107065E-04 Eh
   gradient norm :     0.0023130 Eh/α   predicted    -0.1049344E-04 ( -50.20%)
   displ. norm   :     0.1081596 α      lambda       -0.1544495E-04
   maximum displ.:     0.0567658 α      in ANC's #2, #4, #5, ...

........................................................................
.............................. CYCLE   35 ..............................
........................................................................

 iter      E             dE          RMSdq      gap      omega  full diag
   1   -113.3084661 -0.113308E+03  0.174E-02    0.71       0.0  T
   2   -113.3084663 -0.177103E-06  0.101E-02    0.71       1.2  T
   3   -113.3084663 -0.100399E-07  0.104E-03    0.71      11.8  T
   4   -113.3084664 -0.461250E-07  0.470E-04    0.71      26.2  T
   5   -113.3084664 -0.327442E-08  0.224E-04    0.71      55.1  T
     SCC iter.                  ...        0 min,  0.023 sec
     gradient                   ...        0 min,  0.017 sec
 * total energy  :  -111.8618286 Eh     change       -0.1220423E-04 Eh
   gradient norm :     0.0017104 Eh/α   predicted    -0.7818901E-05 ( -35.93%)
   displ. norm   :     0.1784875 α      lambda       -0.1600552E-04
   maximum displ.:     0.0931380 α      in ANC's #4, #2, #5, ...

........................................................................
.............................. CYCLE   36 ..............................
........................................................................

 iter      E             dE          RMSdq      gap      omega  full diag
   1   -113.3082611 -0.113308E+03  0.256E-02    0.71       0.0  T
   2   -113.3082615 -0.438386E-06  0.148E-02    0.71       1.0  T
   3   -113.3082615  0.383267E-07  0.194E-03    0.71       6.3  T
   4   -113.3082617 -0.177227E-06  0.741E-04    0.71      16.6  T
   5   -113.3082617 -0.819527E-08  0.357E-04    0.71      34.5  T
     SCC iter.                  ...        0 min,  0.025 sec
     gradient                   ...        0 min,  0.015 sec
 * total energy  :  -111.8618436 Eh     change       -0.1502379E-04 Eh
   gradient norm :     0.0013585 Eh/α   predicted    -0.8117305E-05 ( -45.97%)
   displ. norm   :     0.0783832 α      lambda       -0.6820793E-05
   maximum displ.:     0.0432691 α      in ANC's #4, #2, #3, ...

........................................................................
.............................. CYCLE   37 ..............................
........................................................................

 iter      E             dE          RMSdq      gap      omega  full diag
   1   -113.3086716 -0.113309E+03  0.106E-02    0.71       0.0  T
   2   -113.3086717 -0.123402E-06  0.611E-03    0.71       2.0  T
   3   -113.3086717  0.298546E-08  0.934E-04    0.71      13.2  T
   4   -113.3086717 -0.240147E-07  0.324E-04    0.71      38.0  T
     SCC iter.                  ...        0 min,  0.017 sec
     gradient                   ...        0 min,  0.016 sec
 * total energy  :  -111.8618516 Eh     change       -0.7988789E-05 Eh
   gradient norm :     0.0009096 Eh/α   predicted    -0.3421232E-05 ( -57.17%)
   displ. norm   :     0.1176244 α      lambda       -0.9917891E-05
   maximum displ.:     0.0646853 α      in ANC's #2, #4, #3, ...

........................................................................
.............................. CYCLE   38 ..............................
........................................................................

 iter      E             dE          RMSdq      gap      omega  full diag
   1   -113.3086010 -0.113309E+03  0.165E-02    0.71       0.0  T
   2   -113.3086013 -0.301945E-06  0.950E-03    0.70       1.3  T
   3   -113.3086013 -0.366693E-08  0.163E-03    0.71       7.6  T
   4   -113.3086014 -0.869721E-07  0.616E-04    0.71      20.0  T
   5   -113.3086014 -0.422064E-08  0.312E-04    0.71      39.5  T
     SCC iter.                  ...        0 min,  0.029 sec
     gradient                   ...        0 min,  0.015 sec
 * total energy  :  -111.8618612 Eh     change       -0.9616499E-05 Eh
   gradient norm :     0.0013008 Eh/α   predicted    -0.4993120E-05 ( -48.08%)
   displ. norm   :     0.0940678 α      lambda       -0.6126207E-05
   maximum displ.:     0.0524650 α      in ANC's #2, #4, #3, ...

........................................................................
.............................. CYCLE   39 ..............................
........................................................................

 iter      E             dE          RMSdq      gap      omega  full diag
   1   -113.3087104 -0.113309E+03  0.135E-02    0.71       0.0  T
   2   -113.3087107 -0.254668E-06  0.784E-03    0.71       1.6  T
   3   -113.3087107 -0.333590E-08  0.129E-03    0.71       9.5  T
   4   -113.3087107 -0.473515E-07  0.473E-04    0.71      26.0  T
   5   -113.3087107 -0.428521E-08  0.252E-04    0.71      48.8  T
     SCC iter.                  ...        0 min,  0.021 sec
     gradient                   ...        0 min,  0.015 sec
 * total energy  :  -111.8618672 Eh     change       -0.5994849E-05 Eh
   gradient norm :     0.0012024 Eh/α   predicted    -0.3080152E-05 ( -48.62%)
   displ. norm   :     0.0970905 α      lambda       -0.5739240E-05
   maximum displ.:     0.0545009 α      in ANC's #2, #4, #3, ...

........................................................................
.............................. CYCLE   40 ..............................
........................................................................

 iter      E             dE          RMSdq      gap      omega  full diag
   1   -113.3088677 -0.113309E+03  0.136E-02    0.71       0.0  T
   2   -113.3088679 -0.215751E-06  0.786E-03    0.71       1.6  T
   3   -113.3088679 -0.282194E-07  0.106E-03    0.71      11.6  T
   4   -113.3088680 -0.269719E-07  0.475E-04    0.71      25.9  T
   5   -113.3088680 -0.273681E-08  0.254E-04    0.71      48.4  T
     SCC iter.                  ...        0 min,  0.025 sec
     gradient                   ...        0 min,  0.017 sec
 * total energy  :  -111.8618734 Eh     change       -0.6172312E-05 Eh
   gradient norm :     0.0012021 Eh/α   predicted    -0.2885726E-05 ( -53.25%)
   displ. norm   :     0.1279062 α      lambda       -0.7444482E-05
   maximum displ.:     0.0722586 α      in ANC's #2, #4, #3, ...

........................................................................
.............................. CYCLE   41 ..............................
........................................................................

 iter      E             dE          RMSdq      gap      omega  full diag
   1   -113.3087572 -0.113309E+03  0.188E-02    0.70       0.0  T
   2   -113.3087576 -0.402848E-06  0.110E-02    0.70       1.1  T
   3   -113.3087577 -0.803062E-07  0.135E-03    0.70       9.1  T
   4   -113.3087577 -0.344971E-07  0.677E-04    0.70      18.2  T
   5   -113.3087577 -0.470382E-08  0.360E-04    0.70      34.2  T
     SCC iter.                  ...        0 min,  0.019 sec
     gradient                   ...        0 min,  0.013 sec
 * total energy  :  -111.8618804 Eh     change       -0.7041813E-05 Eh
   gradient norm :     0.0009979 Eh/α   predicted    -0.3753089E-05 ( -46.70%)
   displ. norm   :     0.0969435 α      lambda       -0.5124805E-05
   maximum displ.:     0.0558381 α      in ANC's #2, #4, #3, ...

........................................................................
.............................. CYCLE   42 ..............................
........................................................................

 iter      E             dE          RMSdq      gap      omega  full diag
   1   -113.3087146 -0.113309E+03  0.158E-02    0.70       0.0  T
   2   -113.3087148 -0.181167E-06  0.928E-03    0.70       1.3  T
   3   -113.3087148 -0.206135E-07  0.103E-03    0.70      12.0  T
   4   -113.3087148 -0.299017E-07  0.463E-04    0.70      26.6  T
   5   -113.3087148 -0.312987E-08  0.230E-04    0.70      53.6  T
     SCC iter.                  ...        0 min,  0.020 sec
     gradient                   ...        0 min,  0.015 sec
 * total energy  :  -111.8618856 Eh     change       -0.5208755E-05 Eh
   gradient norm :     0.0010771 Eh/α   predicted    -0.2577375E-05 ( -50.52%)
   displ. norm   :     0.0902285 α      lambda       -0.4082768E-05
   maximum displ.:     0.0518441 α      in ANC's #2, #4, #3, ...
 * RMSD in coord.:     0.3442413 α      energy gain  -0.5115298E-03 Eh

generating ANC from exact Hessian ...
Using Lindh-Hessian (1995)
 Shifting diagonal of input Hessian by    9.8877363642632301E-003
 Lowest  eigenvalues of input Hessian
    0.000000    0.000000    0.000000    0.000000    0.000000    0.000000
    0.010000    0.010012    0.010031    0.010243    0.010434    0.010455
    0.010571    0.011149    0.011288    0.011403    0.011493    0.012418
 Highest eigenvalues
    2.056690    2.315484    2.338908    2.339737    2.349235    2.642576


........................................................................
.............................. CYCLE   43 ..............................
........................................................................

 iter      E             dE          RMSdq      gap      omega  full diag
   1   -113.3088120 -0.113309E+03  0.145E-02    0.70       0.0  T
   2   -113.3088122 -0.176529E-06  0.846E-03    0.70       1.5  T
   3   -113.3088122 -0.158055E-07  0.998E-04    0.70      12.3  T
   4   -113.3088122 -0.261680E-07  0.392E-04    0.70      31.4  T
     SCC iter.                  ...        0 min,  0.017 sec
     gradient                   ...        0 min,  0.015 sec
 * total energy  :  -111.8618899 Eh     change       -0.4236109E-05 Eh
   gradient norm :     0.0007397 Eh/α   predicted     0.0000000E+00 (-100.00%)
   displ. norm   :     0.0109619 α      lambda       -0.1892314E-05
   maximum displ.:     0.0037778 α      in ANC's #28, #11, #5, ...

   *** GEOMETRY OPTIMIZATION CONVERGED AFTER 43 ITERATIONS ***

------------------------------------------------------------------------
 total energy gain   :        -0.0330028 Eh      -20.7096 kcal/mol
 total RMSD          :         0.7466827 a0        0.3951 Å
 total power (kW/mol):        -2.0150903 (step)  -36.3063 (real)
------------------------------------------------------------------------

 ANCopt (total)                0 d,  0 h,  0 min,  2.387 sec
 optimizer setup                ...        0 min,  0.000 sec (  0.020%)
 model hessian                  ...        0 min,  0.131 sec (  5.494%)
 ANC generation                 ...        0 min,  0.010 sec (  0.403%)
 coordinate transformation      ...        0 min,  0.002 sec (  0.097%)
 single point calculation       ...        0 min,  2.204 sec ( 92.360%)
 optimization log               ...        0 min,  0.021 sec (  0.869%)
 hessian update                 ...        0 min,  0.005 sec (  0.209%)
 rational function              ...        0 min,  0.009 sec (  0.394%)

================
 final structure:
================
66
 xtb: 6.7.1 (edcfbbe)
C            8.14719291847625       -2.48786511672688        1.27264999899533
C            7.01358533223737       -1.61415484430302        0.95710264802927
O            6.65207476003253       -1.42200813007391       -0.30179554646777
N            5.58560313630720       -0.57035142309649       -0.37819477140995
C            5.25947814384280       -0.24167263229186        0.83731818411781
C            4.27404511288003        0.83052514500504        1.19258931385055
O            4.73226238934977        1.94390667365970        1.44728251859475
N            2.99226176334412        0.50040385448628        1.23972721868217
C            2.43600622812627       -0.77569544776435        0.85289474695505
C            1.53947068959142       -0.58094532518274       -0.37073136123889
N            0.48642749080527        0.36475037509659       -0.04305266629305
C           -0.50765796567932        0.47655310586845       -1.10548985718972
C           -1.14478003461578       -0.86060583137641       -1.41420129454859
C           -1.51064823552573       -1.72562274744073       -0.39083403372697
C           -2.14014273547129       -2.92316605230961       -0.67440084706273
C           -2.42105673019288       -3.28379464352783       -1.98665189162220
C           -3.13178942126947       -4.56868648745521       -2.31029492629827
C           -4.55042803717255       -4.27733300995397       -2.78407728613063
N           -5.31953214256219       -3.65414506293373       -1.88454973801953
O           -4.95548020883331       -4.59540910883656       -3.89645451820458
C           -2.05664057402357       -2.41602498215600       -3.00880674638623
C           -1.42555077203207       -1.21886879165628       -2.72584910324801
C           -1.64143110585736        1.39428388303208       -0.70230268725123
C           -2.12878714256211        1.39571824728016        0.59823694243535
C           -3.19568133040289        2.20214501367984        0.94803881160319
C           -3.81046165132581        3.01432211155037        0.00335760022794
C           -4.95382848935372        3.91913324021016        0.37463202867003
C           -4.45232538795179        5.35698605445766        0.42179838135747
N           -3.63409542254103        5.62658664188229        1.44514970085247
O           -4.76552048773479        6.19572809510072       -0.41525597336310
C           -3.32446222266867        3.00859099839453       -1.29832047272122
C           -2.25244071070905        2.20829310919842       -1.64670970804987
C            1.08421410337567        1.64961677850850        0.27867039616640
C            1.97657625238079        1.49734519424050        1.50887574381744
C            6.14633958143318       -0.87940632554107        1.76088294186349
N            6.10122178417510       -0.79685862152857        3.15498265089792
O            5.13520155789031       -0.24938775353506        3.66298974304336
O            7.02086346933797       -1.28666923666314        3.78904916930939
H            9.03363558141797       -1.87766641841739        1.44816086792087
H            7.95252357697671       -3.03396602557169        2.19301954081799
H            8.33964914825407       -3.15832121279814        0.44086186979029
H            3.23195172994278       -1.48268930254445        0.62658561751987
H            1.83664278091191       -1.15240453829740        1.68564151046041
H            2.15673517240459       -0.22579665916496       -1.21550143915123
H            1.09148580734499       -1.53597783728759       -0.64552926939712
H           -0.04600380259976        0.87014429901149       -2.03191727571143
H           -1.28703815943887       -1.45891955707357        0.62887073606373
H           -2.40599482524122       -3.58865705524728        0.13359956130104
H           -3.18235404783808       -5.21128237041207       -1.43105389014074
H           -2.61924403329684       -5.10149990835594       -3.11210174508226
H           -6.25941373014055       -3.39282746306132       -2.13410247010363
H           -4.94276635442909       -3.35498832284337       -1.00144305657058
H           -2.27320764856718       -2.68438700826762       -4.03290475431332
H           -1.14792984411686       -0.55901123746875       -3.53511813108349
H           -1.65568734657405        0.77180283207529        1.33856839002743
H           -3.56240895426229        2.18629591783757        1.96366944274279
H           -5.74201109476797        3.86610561180205       -0.37676167059024
H           -5.36049112972595        3.64674435390923        1.34790142983021
H           -3.22672378614047        6.54402959415135        1.52496512404644
H           -3.35754963741899        4.90769386862142        2.09099199798998
H           -3.78787400144034        3.64473124852342       -2.03873128087929
H           -1.88812331689947        2.21897806892184       -2.66389704328682
H            1.69033902924919        2.03533192631912       -0.56186072689150
H            0.29536588135735        2.37072249030148        0.49263423034153
H            2.47497852213762        2.43637047540560        1.75022378790806
H            1.38143157777624        1.16322528261154        2.36120533620223

 Bond Distances (Angstroems)
 ---------------------------
C1-C2=1.4656         C1-H39=1.0904        C1-H40=1.0878        C1-H41=1.0856        C2-C1=1.4656         C2-O3=1.3238         
C2-C35=1.3921        O3-C2=1.3238         O3-N4=1.3669         N4-O3=1.3669         N4-C5=1.3007         C5-N4=1.3007         
C5-C6=1.4990         C5-C35=1.4305        C6-C5=1.4990         C6-O7=1.2306         C6-N8=1.3245         O7-C6=1.2306         
N8-C6=1.3245         N8-C9=1.4448         N8-C34=1.4484        C9-N8=1.4448         C9-C10=1.5294        C9-H42=1.0884        
C9-H43=1.0930        C10-C9=1.5294        C10-N11=1.4528       C10-H44=1.1049       C10-H45=1.0901       N11-C10=1.4528       
N11-C12=1.4593       N11-C33=1.4532       C12-N11=1.4593       C12-C13=1.5130       C12-C23=1.5134       C12-H46=1.1074       
C13-C12=1.5130       C13-C14=1.3890       C13-C22=1.3884       C14-C13=1.3890       C14-C15=1.3823       C14-H47=1.0775       
C15-C14=1.3823       C15-C16=1.3896       C15-H48=1.0800       C16-C15=1.3896       C16-C17=1.5036       C16-C21=1.3895       
C17-C16=1.5036       C17-C18=1.5238       C17-H49=1.0902       C17-H50=1.0906       C18-C17=1.5238       C18-N19=1.3375       
C18-O20=1.2258       N19-C18=1.3375       N19-H51=1.0069       N19-H52=1.0056       O20-C18=1.2258       C21-C16=1.3895       
C21-C22=1.3826       C21-H53=1.0806       C22-C13=1.3884       C22-C21=1.3826       C22-H54=1.0805       C23-C12=1.5134       
C23-C24=1.3889       C23-C32=1.3885       C24-C23=1.3889       C24-C25=1.3824       C24-H55=1.0776       C25-C24=1.3824       
C25-C26=1.3892       C25-H56=1.0799       C26-C25=1.3892       C26-C27=1.5046       C26-C31=1.3895       C27-C26=1.5046       
C27-C28=1.5235       C27-H57=1.0902       C27-H58=1.0894       C28-C27=1.5235       C28-N29=1.3377       C28-O30=1.2257       
N29-C28=1.3377       N29-H59=1.0070       N29-H60=1.0052       O30-C28=1.2257       C31-C26=1.3895       C31-C32=1.3824       
C31-H61=1.0806       C32-C23=1.3885       C32-C31=1.3824       C32-H62=1.0805       C33-N11=1.4532       C33-C34=1.5274       
C33-H63=1.1057       C33-H64=1.0900       C34-N8=1.4484        C34-C33=1.5274       C34-H65=1.0901       C34-H66=1.0919       
C35-C2=1.3921        C35-C5=1.4305        C35-N36=1.3973       N36-C35=1.3973       N36-O37=1.2211       N36-O38=1.2197       
O37-N36=1.2211       O38-N36=1.2197       H39-C1=1.0904        H40-C1=1.0878        H41-C1=1.0856        H42-C9=1.0884        
H43-C9=1.0930        H44-C10=1.1049       H45-C10=1.0901       H46-C12=1.1074       H47-C14=1.0775       H48-C15=1.0800       
H49-C17=1.0902       H50-C17=1.0906       H51-N19=1.0069       H52-N19=1.0056       H53-C21=1.0806       H54-C22=1.0805       
H55-C24=1.0776       H56-C25=1.0799       H57-C27=1.0902       H58-C27=1.0894       H59-N29=1.0070       H60-N29=1.0052       
H61-C31=1.0806       H62-C32=1.0805       H63-C33=1.1057       H64-C33=1.0900       H65-C34=1.0901       H66-C34=1.0919       
 C  H  Rav=1.0885 sigma=0.0082  Rmin=1.0775  Rmax=1.1074    24
 C  C  Rav=1.4403 sigma=0.0609  Rmin=1.3823  Rmax=1.5294    24
 N  H  Rav=1.0062 sigma=0.0008  Rmin=1.0052  Rmax=1.0070     4
 N  C  Rav=1.3956 sigma=0.0605  Rmin=1.3007  Rmax=1.4593    10
 O  C  Rav=1.2515 sigma=0.0418  Rmin=1.2257  Rmax=1.3238     4
 O  N  Rav=1.2692 sigma=0.0691  Rmin=1.2197  Rmax=1.3669     3

 selected bond angles (degree)
 --------------------
H39-C1-C2=109.26               H40-C1-C2=110.06               H40-C1-H39=106.87              H41-C1-C2=109.90               
H41-C1-H39=108.96              H41-C1-H40=111.71              O3-C2-C1=120.17                C35-C2-C1=132.23               
C35-C2-O3=107.60               N4-O3-C2=110.89                C5-N4-O3=107.51                C6-C5-N4=124.55                
C35-C5-N4=109.59               C35-C5-C6=124.99               O7-C6-C5=116.83                N8-C6-C5=117.80                
N8-C6-O7=125.34                C9-N8-C6=125.68                C34-N8-C6=120.91               C34-N8-C9=112.81               
C10-C9-N8=109.11               H42-C9-N8=110.36               H42-C9-C10=110.19              H43-C9-N8=108.15               
H43-C9-C10=109.39              H43-C9-H42=109.61              N11-C10-C9=109.11              H44-C10-C9=108.98              
H44-C10-N11=111.60             H45-C10-C9=109.33              H45-C10-N11=109.22             H45-C10-H44=108.57             

 selected dihedral angles (degree)
 ---------------------------------
O3-C2-C1-H39= 99.03           O3-C2-C1-H40=216.09           O3-C2-C1-H41=339.53           C35-C2-C1-H39=278.52          
C35-C2-C1-H40= 35.58          C35-C2-C1-H41=159.02          N4-O3-C2-C1=180.46            N4-O3-C2-C35=  0.86           
C5-N4-O3-C2=358.97            C6-C5-N4-O3=170.49            C35-C5-N4-O3=  0.77           O7-C6-C5-N4=264.32            
O7-C6-C5-C35= 72.49           N8-C6-C5-N4= 85.94            N8-C6-C5-C35=254.11           C9-N8-C6-C5=353.62            
C9-N8-C6-O7=175.39            C34-N8-C6-C5=183.17           C34-N8-C6-O7=  4.94           C10-C9-N8-C6=245.68           
C10-C9-N8-C34= 56.79          H42-C9-N8-C6=  6.88           H42-C9-N8-C34=178.00          H43-C9-N8-C6=126.77           
H43-C9-N8-C34=297.89          N11-C10-C9-N8=301.27          N11-C10-C9-H42=179.96         N11-C10-C9-H43= 59.40         
H44-C10-C9-N8= 63.35          H44-C10-C9-H42=302.05         H44-C10-C9-H43=181.49         H45-C10-C9-N8=181.88          
H45-C10-C9-H42= 60.57         H45-C10-C9-H43=300.01         
           -------------------------------------------------
          |                Final Singlepoint                |
           -------------------------------------------------

          ...................................................
          :                      SETUP                      :
          :.................................................:
          :  # basis functions                 180          :
          :  # atomic orbitals                 180          :
          :  # shells                          104          :
          :  # electrons                       198          :
          :  max. iterations                   250          :
          :  Hamiltonian                  GFN2-xTB          :
          :  restarted?                      false          :
          :  GBSA solvation                   true          :
          :  PC potential                    false          :
          :  electronic temp.          300.0000000     K    :
          :  accuracy                    1.0000000          :
          :  -> integral cutoff          0.2500000E+02      :
          :  -> integral neglect         0.1000000E-07      :
          :  -> SCF convergence          0.1000000E-05 Eh   :
          :  -> wf. convergence          0.1000000E-03 e    :
          :  Broyden damping             0.4000000          :
          :  net charge                          0          :
          :  unpaired electrons                  0          :
          ...................................................

 iter      E             dE          RMSdq      gap      omega  full diag
   1   -113.3088122 -0.113309E+03  0.209E-04    0.70       0.0  T
   2   -113.3088122 -0.319162E-09  0.129E-04    0.70      95.3  T
   3   -113.3088122 -0.765112E-10  0.802E-05    0.70     153.6  T

   *** convergence criteria satisfied after 3 iterations ***

         #    Occupation            Energy/Eh            Energy/eV
      -------------------------------------------------------------
         1        2.0000           -0.8015718             -21.8119
       ...           ...                  ...                  ...
        93        2.0000           -0.4073285             -11.0840
        94        2.0000           -0.4064939             -11.0613
        95        2.0000           -0.4056110             -11.0372
        96        2.0000           -0.4042514             -11.0002
        97        2.0000           -0.3893690             -10.5953
        98        2.0000           -0.3821255             -10.3982
        99        2.0000           -0.3636195              -9.8946 (HOMO)
       100        0.0000           -0.3377832              -9.1915 (LUMO)
       101                         -0.2821677              -7.6782
       102                         -0.2349912              -6.3944
       103                         -0.2347941              -6.3891
       104                         -0.2253216              -6.1313
       ...                                ...                  ...
       180                          0.6550961              17.8261
      -------------------------------------------------------------
                  HL-Gap            0.0258363 Eh            0.7030 eV
             Fermi-level           -0.3507013 Eh           -9.5431 eV

 SCC (total)                   0 d,  0 h,  0 min,  0.044 sec
 SCC setup                      ...        0 min,  0.001 sec (  2.912%)
 Dispersion                     ...        0 min,  0.001 sec (  3.000%)
 classical contributions        ...        0 min,  0.000 sec (  0.339%)
 integral evaluation            ...        0 min,  0.005 sec ( 11.202%)
 iterations                     ...        0 min,  0.018 sec ( 41.417%)
 molecular gradient             ...        0 min,  0.017 sec ( 39.333%)
 printout                       ...        0 min,  0.001 sec (  1.730%)

         :::::::::::::::::::::::::::::::::::::::::::::::::::::
         ::                     SUMMARY                     ::
         :::::::::::::::::::::::::::::::::::::::::::::::::::::
         :: total energy            -111.861889861880 Eh    ::
         :: total w/o Gsasa/hb      -111.851501110871 Eh    ::
         :: gradient norm              0.000738580940 Eh/a0 ::
         :: HOMO-LUMO gap              0.703041478886 eV    ::
         ::.................................................::
         :: SCC energy              -113.308032193042 Eh    ::
         :: -> isotropic ES            0.257884504711 Eh    ::
         :: -> anisotropic ES          0.006810527430 Eh    ::
         :: -> anisotropic XC          0.042412788256 Eh    ::
         :: -> dispersion             -0.077689030766 Eh    ::
         :: -> Gsolv                  -0.065969700185 Eh    ::
         ::    -> Gelec               -0.055580949176 Eh    ::
         ::    -> Gsasa                0.004271949656 Eh    ::
         ::    -> Ghb                 -0.015741460362 Eh    ::
         ::    -> Gshift               0.001080759698 Eh    ::
         :: repulsion energy           1.446142331162 Eh    ::
         :: add. restraining           0.000000000000 Eh    ::
         :: total charge              -0.000000000000 e     ::
         :::::::::::::::::::::::::::::::::::::::::::::::::::::

           -------------------------------------------------
          |                Property Printout                |
           -------------------------------------------------

    * Orbital Energies and Occupations

         #    Occupation            Energy/Eh            Energy/eV
      -------------------------------------------------------------
         1        2.0000           -0.8015718             -21.8119
       ...           ...                  ...                  ...
        87        2.0000           -0.4238712             -11.5341
        88        2.0000           -0.4225076             -11.4970
        89        2.0000           -0.4209693             -11.4552
        90        2.0000           -0.4206021             -11.4452
        91        2.0000           -0.4193325             -11.4106
        92        2.0000           -0.4114638             -11.1965
        93        2.0000           -0.4073285             -11.0840
        94        2.0000           -0.4064939             -11.0613
        95        2.0000           -0.4056110             -11.0372
        96        2.0000           -0.4042514             -11.0002
        97        2.0000           -0.3893690             -10.5953
        98        2.0000           -0.3821255             -10.3982
        99        2.0000           -0.3636195              -9.8946 (HOMO)
       100        0.0000           -0.3377832              -9.1915 (LUMO)
       101                         -0.2821677              -7.6782
       102                         -0.2349912              -6.3944
       103                         -0.2347941              -6.3891
       104                         -0.2253216              -6.1313
       105                         -0.2225919              -6.0570
       106                         -0.2193170              -5.9679
       107                         -0.2083659              -5.6699
       108                         -0.2048018              -5.5729
       109                         -0.2032915              -5.5318
       110                         -0.1030765              -2.8049
       ...                                ...                  ...
       180                          0.6550961              17.8261
      -------------------------------------------------------------
                  HL-Gap            0.0258363 Eh            0.7030 eV
             Fermi-level           -0.3507013 Eh           -9.5431 eV

     #   Z          covCN         q      C6AA      α(0)
     1   6 C        3.754    -0.162    23.705     6.943
     2   6 C        2.987     0.180    24.130     8.058
     3   8 O        1.821    -0.088    15.653     5.343
     4   7 N        1.948    -0.139    24.772     7.381
     5   6 C        3.014     0.073    26.358     8.422
     6   6 C        2.766     0.274    22.367     7.745
     7   8 O        0.859    -0.514    24.101     6.582
     8   7 N        2.740    -0.052    22.254     7.006
     9   6 C        3.756    -0.018    20.940     6.524
    10   6 C        3.771     0.003    20.568     6.463
    11   7 N        2.734    -0.173    24.737     7.387
    12   6 C        3.819     0.039    19.910     6.350
    13   6 C        2.983     0.005    27.899     8.664
    14   6 C        2.923    -0.041    29.024     8.835
    15   6 C        2.923    -0.047    29.174     8.858
    16   6 C        2.972     0.012    27.747     8.640
    17   6 C        3.813    -0.104    22.483     6.749
    18   6 C        2.746     0.295    21.997     7.680
    19   7 N        2.639    -0.293    27.547     7.795
    20   8 O        0.859    -0.535    24.581     6.647
    21   6 C        2.924    -0.041    29.017     8.834
    22   6 C        2.923    -0.040    29.005     8.832
    23   6 C        2.983     0.005    27.907     8.665
    24   6 C        2.923    -0.041    29.025     8.835
    25   6 C        2.923    -0.047    29.171     8.857
    26   6 C        2.974     0.013    27.730     8.638
    27   6 C        3.813    -0.104    22.476     6.748
    28   6 C        2.747     0.295    21.996     7.680
    29   7 N        2.639    -0.294    27.569     7.798
    30   8 O        0.859    -0.535    24.574     6.646
    31   6 C        2.924    -0.041    29.014     8.833
    32   6 C        2.923    -0.041    29.017     8.834
    33   6 C        3.772     0.005    20.519     6.455
    34   6 C        3.763    -0.015    20.884     6.514
    35   6 C        2.959    -0.035    28.867     8.813
    36   7 N        2.756     0.571    13.254     5.407
    37   8 O        0.933    -0.441    22.476     6.358
    38   8 O        0.932    -0.428    22.214     6.321
    39   1 H        0.924     0.144     1.433     1.872
    40   1 H        0.925     0.128     1.553     1.949
    41   1 H        0.925     0.128     1.553     1.949
    42   1 H        0.925     0.064     2.154     2.295
    43   1 H        0.924     0.093     1.846     2.124
    44   1 H        0.922     0.020     2.733     2.585
    45   1 H        0.925     0.066     2.128     2.281
    46   1 H        0.922     0.009     2.911     2.668
    47   1 H        0.926     0.063     2.159     2.298
    48   1 H        0.926     0.052     2.299     2.371
    49   1 H        0.925     0.077     2.008     2.216
    50   1 H        0.924     0.069     2.099     2.266
    51   1 H        0.860     0.243     0.911     1.495
    52   1 H        0.860     0.239     0.926     1.508
    53   1 H        0.926     0.031     2.569     2.507
    54   1 H        0.926     0.030     2.584     2.514
    55   1 H        0.926     0.064     2.152     2.294
    56   1 H        0.926     0.052     2.294     2.369
    57   1 H        0.924     0.068     2.104     2.268
    58   1 H        0.925     0.076     2.024     2.225
    59   1 H        0.860     0.242     0.914     1.497
    60   1 H        0.860     0.240     0.922     1.504
    61   1 H        0.926     0.031     2.570     2.507
    62   1 H        0.926     0.029     2.599     2.521
    63   1 H        0.922     0.014     2.832     2.632
    64   1 H        0.925     0.063     2.168     2.302
    65   1 H        0.925     0.079     1.995     2.209
    66   1 H        0.924     0.087     1.909     2.161

 Mol. C6AA /au·bohr⁶  :      51319.461506
 Mol. C8AA /au·bohr⁸  :    1208838.297405
 Mol. α(0) /au        :        348.525851


Wiberg/Mayer (AO) data.
largest (>0.10) Wiberg bond orders for each atom

 ---------------------------------------------------------------------------
     #   Z sym  total        # sym  WBO       # sym  WBO       # sym  WBO
 ---------------------------------------------------------------------------
     1   6 C    3.962 --     2 C    1.065    41 H    0.962    40 H    0.946
                            39 H    0.915
     2   6 C    3.916 --    35 C    1.390     3 O    1.219     1 C    1.065
                             4 N    0.121
     3   8 O    2.491 --     2 C    1.219     4 N    1.061
     4   7 N    2.950 --     5 C    1.612     3 O    1.061     2 C    0.121
     5   6 C    3.970 --     4 N    1.612    35 C    1.206     6 C    0.940
     6   6 C    3.960 --     7 O    1.574     8 N    1.344     5 C    0.940
     7   8 O    1.943 --     6 C    1.574     8 N    0.211
     8   7 N    3.573 --     6 C    1.344     9 C    0.980    34 C    0.973
                             7 O    0.211
     9   6 C    3.957 --    10 C    0.991     8 N    0.980    42 H    0.965
                            43 H    0.960
    10   6 C    3.985 --    11 N    1.006     9 C    0.991    45 H    0.964
                            44 H    0.963
    11   7 N    3.122 --    10 C    1.006    33 C    1.005    12 C    0.980
    12   6 C    3.981 --    11 N    0.980    23 C    0.976    13 C    0.976
                            46 H    0.950
    13   6 C    3.984 --    22 C    1.409    14 C    1.403    12 C    0.976
                            16 C    0.104
    14   6 C    3.989 --    15 C    1.450    13 C    1.403    47 H    0.964
                            21 C    0.110
    15   6 C    3.990 --    14 C    1.450    16 C    1.406    48 H    0.966
                            22 C    0.106
    16   6 C    3.984 --    21 C    1.407    15 C    1.406    17 C    1.001
                            13 C    0.104
    17   6 C    3.993 --    16 C    1.001    50 H    0.965    49 H    0.957
                            18 C    0.952
    18   6 C    3.939 --    20 O    1.623    19 N    1.323    17 C    0.952
    19   7 N    3.399 --    18 C    1.323    52 H    0.923    51 H    0.920
                            20 O    0.197
    20   8 O    1.922 --    18 C    1.623    19 N    0.197
    21   6 C    3.992 --    22 C    1.450    16 C    1.407    53 H    0.970
                            14 C    0.110
    22   6 C    3.990 --    21 C    1.450    13 C    1.409    54 H    0.968
                            15 C    0.106
    23   6 C    3.984 --    32 C    1.409    24 C    1.403    12 C    0.976
                            26 C    0.104
    24   6 C    3.988 --    25 C    1.449    23 C    1.403    55 H    0.963
                            31 C    0.110
    25   6 C    3.989 --    24 C    1.449    26 C    1.407    56 H    0.966
                            32 C    0.106
    26   6 C    3.985 --    25 C    1.407    31 C    1.406    27 C    0.997
                            23 C    0.104
    27   6 C    3.993 --    26 C    0.997    57 H    0.966    58 H    0.961
                            28 C    0.951
    28   6 C    3.939 --    30 O    1.624    29 N    1.322    27 C    0.951
    29   7 N    3.398 --    28 C    1.322    60 H    0.923    59 H    0.920
                            30 O    0.197
    30   8 O    1.922 --    28 C    1.624    29 N    0.197
    31   6 C    3.992 --    32 C    1.451    26 C    1.406    61 H    0.970
                            24 C    0.110
    32   6 C    3.990 --    31 C    1.451    23 C    1.409    62 H    0.968
                            25 C    0.106
    33   6 C    3.986 --    11 N    1.005    34 C    0.993    64 H    0.964
                            63 H    0.963
    34   6 C    3.954 --    33 C    0.993     8 N    0.973    65 H    0.967
                            66 H    0.961
    35   6 C    3.936 --     2 C    1.390     5 C    1.206    36 N    1.039
    36   7 N    3.916 --    37 O    1.418    38 O    1.417    35 C    1.039
    37   8 O    1.894 --    36 N    1.418    38 O    0.327
    38   8 O    1.891 --    36 N    1.417    37 O    0.327
    39   1 H    0.979 --     1 C    0.915
    40   1 H    0.984 --     1 C    0.946
    41   1 H    0.983 --     1 C    0.962
    42   1 H    0.996 --     9 C    0.965
    43   1 H    0.991 --     9 C    0.960
    44   1 H    1.000 --    10 C    0.963
    45   1 H    0.995 --    10 C    0.964
    46   1 H    0.999 --    12 C    0.950
    47   1 H    0.996 --    14 C    0.964
    48   1 H    0.997 --    15 C    0.966
    49   1 H    0.994 --    17 C    0.957
    50   1 H    0.995 --    17 C    0.965
    51   1 H    0.941 --    19 N    0.920
    52   1 H    0.943 --    19 N    0.923
    53   1 H    0.999 --    21 C    0.970
    54   1 H    0.999 --    22 C    0.968
    55   1 H    0.995 --    24 C    0.963
    56   1 H    0.997 --    25 C    0.966
    57   1 H    0.995 --    27 C    0.966
    58   1 H    0.994 --    27 C    0.961
    59   1 H    0.941 --    29 N    0.920
    60   1 H    0.942 --    29 N    0.923
    61   1 H    0.999 --    31 C    0.970
    62   1 H    0.999 --    32 C    0.968
    63   1 H    1.000 --    33 C    0.963
    64   1 H    0.996 --    33 C    0.964
    65   1 H    0.993 --    34 C    0.967
    66   1 H    0.992 --    34 C    0.961
 ---------------------------------------------------------------------------

Topologies differ in total number of bonds
Writing topology from bond orders to xtbtopo.mol

molecular dipole:
                 x           y           z       tot (Debye)
 q only:        0.024      -2.605       1.975
   full:        0.388      -2.416       2.010       8.048
molecular quadrupole (traceless):
                xx          xy          yy          xz          yz          zz
 q only:       25.708     -31.823      -4.303     -75.251      -7.270     -21.405
  q+dip:       23.598     -28.130      -7.946     -75.972     -10.770     -15.652
   full:       25.979     -27.553      -6.112     -75.061      -9.860     -19.867

           -------------------------------------------------
          |                Geometry Summary                 |
           -------------------------------------------------

      molecular mass/u    :      520.5381232
   center of mass at/Å    :        0.4099945       0.0345690       0.0004587
  moments of inertia/u·Å² :        0.4755858E+04   0.1076132E+05   0.1449360E+05
rotational constants/cm⁻¹ :        0.3544603E-02   0.1566503E-02   0.1163109E-02

 * 62 selected distances

     #   Z          #   Z                                           value/Å
     1   6 C        2   6 C                                       1.4656078
     2   6 C        3   8 O                                       1.3237958
     3   8 O        4   7 N                                       1.3669375
     4   7 N        5   6 C                                       1.3007149
     6   6 C        7   8 O                                       1.2306301
     6   6 C        8   7 N                                       1.3244512
     8   7 N        9   6 C                                       1.4448147
     9   6 C       10   6 C                                       1.5293675 (max)
    10   6 C       11   7 N                                       1.4527953
    11   7 N       12   6 C                                       1.4592734
    13   6 C       14   6 C                                       1.3890265
    14   6 C       15   6 C                                       1.3823110
    15   6 C       16   6 C                                       1.3895930
    18   6 C       19   7 N                                       1.3375479
    18   6 C       20   8 O                                       1.2258153
    16   6 C       21   6 C                                       1.3894690
    13   6 C       22   6 C                                       1.3883821
    21   6 C       22   6 C                                       1.3825783
    23   6 C       24   6 C                                       1.3888562
    24   6 C       25   6 C                                       1.3823708
    25   6 C       26   6 C                                       1.3892478
    28   6 C       29   7 N                                       1.3376969
    28   6 C       30   8 O                                       1.2256589
    26   6 C       31   6 C                                       1.3894583
    23   6 C       32   6 C                                       1.3884699
    31   6 C       32   6 C                                       1.3824190
    11   7 N       33   6 C                                       1.4531816
     8   7 N       34   6 C                                       1.4484303
    33   6 C       34   6 C                                       1.5273842
     2   6 C       35   6 C                                       1.3921328
     5   6 C       35   6 C                                       1.4304544
    35   6 C       36   7 N                                       1.3972702
    36   7 N       37   8 O                                       1.2210614
    36   7 N       38   8 O                                       1.2197114
     1   6 C       39   1 H                                       1.0903794
     1   6 C       40   1 H                                       1.0877512
     1   6 C       41   1 H                                       1.0855517
     9   6 C       42   1 H                                       1.0883867
     9   6 C       43   1 H                                       1.0929838
    10   6 C       44   1 H                                       1.1048904
    10   6 C       45   1 H                                       1.0900879
    12   6 C       46   1 H                                       1.1073873
    14   6 C       47   1 H                                       1.0774647
    15   6 C       48   1 H                                       1.0800095
    17   6 C       49   1 H                                       1.0902070
    17   6 C       50   1 H                                       1.0906362
    19   7 N       51   1 H                                       1.0069464
    19   7 N       52   1 H                                       1.0056465
    21   6 C       53   1 H                                       1.0806000
    22   6 C       54   1 H                                       1.0804638
    24   6 C       55   1 H                                       1.0775828
    25   6 C       56   1 H                                       1.0799288
    27   6 C       57   1 H                                       1.0902461
    27   6 C       58   1 H                                       1.0894144
    29   7 N       59   1 H                                       1.0069875
    29   7 N       60   1 H                                       1.0051850 (min)
    31   6 C       61   1 H                                       1.0805708
    32   6 C       62   1 H                                       1.0805145
    33   6 C       63   1 H                                       1.1057379
    33   6 C       64   1 H                                       1.0899797
    34   6 C       65   1 H                                       1.0901479
    34   6 C       66   1 H                                       1.0919246

 * 6 distinct bonds (by element types)

   Z      Z             #   av. dist./Å        max./Å        min./Å
   1 H    6 C          24     1.0884520     1.1073873     1.0774647
   6 C    6 C          17     1.4110076     1.5293675     1.3823110
   1 H    7 N           4     1.0061913     1.0069875     1.0051850
   6 C    7 N          10     1.3956176     1.4592734     1.3007149
   6 C    8 O           4     1.2514750     1.3237958     1.2256589
   7 N    8 O           3     1.2692368     1.3669375     1.2197114


optimized geometry written to: xtbopt.xyz


           -------------------------------------------------
          | TOTAL ENERGY             -111.861889861880 Eh   |
          | GRADIENT NORM               0.000738580940 Eh/α |
          | HOMO-LUMO GAP               0.703041478886 eV   |
           -------------------------------------------------
########################################################################
[WARNING] Runtime exception occurred
-2- restart_readRestart: Dimension missmatch in restart file.
-1- restart_readRestart: Number of electron missmatch in restart file.
########################################################################

------------------------------------------------------------------------
 * finished run on 2026/08/28 at 18:24:55.043     
------------------------------------------------------------------------
 total:
 * wall-time:     0 d,  0 h,  0 min,  2.571 sec
 *  cpu-time:     0 d,  0 h,  0 min, 17.781 sec
 * ratio c/w:     6.916 speedup
 SCF:
 * wall-time:     0 d,  0 h,  0 min,  0.087 sec
 *  cpu-time:     0 d,  0 h,  0 min,  0.641 sec
 * ratio c/w:     7.338 speedup
 ANC optimizer:
 * wall-time:     0 d,  0 h,  0 min,  2.438 sec
 *  cpu-time:     0 d,  0 h,  0 min, 17.047 sec
 * ratio c/w:     6.993 speedup

