66

C      8.496238   -2.390735    1.431722
C      7.290199   -1.575392    1.193214
O      6.815558   -1.550111   -0.082051
N      5.691820   -0.745579   -0.145499
C      5.485051   -0.290873    1.105141
C      4.450996    0.692520    1.425137
O      4.731388    1.643837    2.153780
N      3.175827    0.543465    0.864217
C      2.613058   -0.760867    0.503390
C      1.441244   -0.638394   -0.488565
N      0.378268    0.279921   -0.000862
C     -0.735882    0.385408   -0.994653
C     -1.374244   -0.966758   -1.343813
C     -1.760865   -1.880971   -0.349640
C     -2.360257   -3.096395   -0.687073
C     -2.593149   -3.423166   -2.027997
C     -3.268452   -4.723089   -2.397561
C     -4.660484   -4.552787   -2.977481
N     -5.510932   -3.733539   -2.290566
O     -5.048974   -5.158796   -3.971759
C     -2.210332   -2.517163   -3.025055
C     -1.611238   -1.301552   -2.686734
C     -1.839395    1.367896   -0.575207
C     -2.379229    1.366325    0.721924
C     -3.399779    2.252116    1.075763
C     -3.907659    3.158754    0.138214
C     -5.004757    4.125496    0.516231
C     -4.561557    5.575637    0.504633
N     -3.513585    5.887569    1.324435
O     -5.122320    6.446576   -0.152757
C     -3.381525    3.159708   -1.159798
C     -2.360803    2.273698   -1.512878
C      1.008324    1.606566    0.232785
C      2.173425    1.538639    1.236067
C      6.472336   -0.798326    1.977078
N      6.594187   -0.593257    3.374947
O      5.543441   -0.565582    4.025118
O      7.740809   -0.523408    3.833153
H      9.365242   -1.746676    1.596937
H      8.364939   -3.028103    2.311563
H      8.712171   -3.039819    0.577222
H      3.367275   -1.424897    0.079767
H      2.269796   -1.228860    1.435083
H      1.827684   -0.290206   -1.456044
H      1.048377   -1.649195   -0.637893
H     -0.286797    0.779856   -1.918776
H     -1.586263   -1.649669    0.698932
H     -2.645128   -3.782571    0.107850
H     -3.347372   -5.384320   -1.526487
H     -2.645228   -5.243452   -3.135073
H     -6.400564   -3.550902   -2.737090
H     -5.140736   -3.002686   -1.695077
H     -2.383120   -2.749972   -4.074742
H     -1.333964   -0.614236   -3.483186
H     -1.998348    0.672008    1.467981
H     -3.795463    2.222301    2.088848
H     -5.839459    4.007358   -0.185317
H     -5.399582    3.901109    1.514392
H     -3.155600    6.830343    1.237785
H     -2.853605    5.169422    1.594648
H     -3.767523    3.850530   -1.908200
H     -1.979320    2.292918   -2.531581
H      1.379366    2.019122   -0.715322
H      0.283711    2.320624    0.637107
H      2.641117    2.527128    1.309445
H      1.801644    1.275452    2.234460
