66
 energy: -111.861889861880 gnorm: 0.000738580940 xtb: 6.7.1 (edcfbbe)
C            8.14719291847625       -2.48786511672688        1.27264999899533
C            7.01358533223737       -1.61415484430302        0.95710264802927
O            6.65207476003253       -1.42200813007391       -0.30179554646777
N            5.58560313630720       -0.57035142309649       -0.37819477140995
C            5.25947814384280       -0.24167263229186        0.83731818411781
C            4.27404511288003        0.83052514500504        1.19258931385055
O            4.73226238934977        1.94390667365970        1.44728251859475
N            2.99226176334412        0.50040385448628        1.23972721868217
C            2.43600622812627       -0.77569544776435        0.85289474695505
C            1.53947068959142       -0.58094532518274       -0.37073136123889
N            0.48642749080527        0.36475037509659       -0.04305266629305
C           -0.50765796567932        0.47655310586845       -1.10548985718972
C           -1.14478003461578       -0.86060583137641       -1.41420129454859
C           -1.51064823552573       -1.72562274744073       -0.39083403372697
C           -2.14014273547129       -2.92316605230961       -0.67440084706273
C           -2.42105673019288       -3.28379464352783       -1.98665189162220
C           -3.13178942126947       -4.56868648745521       -2.31029492629827
C           -4.55042803717255       -4.27733300995397       -2.78407728613063
N           -5.31953214256219       -3.65414506293373       -1.88454973801953
O           -4.95548020883331       -4.59540910883656       -3.89645451820458
C           -2.05664057402357       -2.41602498215600       -3.00880674638623
C           -1.42555077203207       -1.21886879165628       -2.72584910324801
C           -1.64143110585736        1.39428388303208       -0.70230268725123
C           -2.12878714256211        1.39571824728016        0.59823694243535
C           -3.19568133040289        2.20214501367984        0.94803881160319
C           -3.81046165132581        3.01432211155037        0.00335760022794
C           -4.95382848935372        3.91913324021016        0.37463202867003
C           -4.45232538795179        5.35698605445766        0.42179838135747
N           -3.63409542254103        5.62658664188229        1.44514970085247
O           -4.76552048773479        6.19572809510072       -0.41525597336310
C           -3.32446222266867        3.00859099839453       -1.29832047272122
C           -2.25244071070905        2.20829310919842       -1.64670970804987
C            1.08421410337567        1.64961677850850        0.27867039616640
C            1.97657625238079        1.49734519424050        1.50887574381744
C            6.14633958143318       -0.87940632554107        1.76088294186349
N            6.10122178417510       -0.79685862152857        3.15498265089792
O            5.13520155789031       -0.24938775353506        3.66298974304336
O            7.02086346933797       -1.28666923666314        3.78904916930939
H            9.03363558141797       -1.87766641841739        1.44816086792087
H            7.95252357697671       -3.03396602557169        2.19301954081799
H            8.33964914825407       -3.15832121279814        0.44086186979029
H            3.23195172994278       -1.48268930254445        0.62658561751987
H            1.83664278091191       -1.15240453829740        1.68564151046041
H            2.15673517240459       -0.22579665916496       -1.21550143915123
H            1.09148580734499       -1.53597783728759       -0.64552926939712
H           -0.04600380259976        0.87014429901149       -2.03191727571143
H           -1.28703815943887       -1.45891955707357        0.62887073606373
H           -2.40599482524122       -3.58865705524728        0.13359956130104
H           -3.18235404783808       -5.21128237041207       -1.43105389014074
H           -2.61924403329684       -5.10149990835594       -3.11210174508226
H           -6.25941373014055       -3.39282746306132       -2.13410247010363
H           -4.94276635442909       -3.35498832284337       -1.00144305657058
H           -2.27320764856718       -2.68438700826762       -4.03290475431332
H           -1.14792984411686       -0.55901123746875       -3.53511813108349
H           -1.65568734657405        0.77180283207529        1.33856839002743
H           -3.56240895426229        2.18629591783757        1.96366944274279
H           -5.74201109476797        3.86610561180205       -0.37676167059024
H           -5.36049112972595        3.64674435390923        1.34790142983021
H           -3.22672378614047        6.54402959415135        1.52496512404644
H           -3.35754963741899        4.90769386862142        2.09099199798998
H           -3.78787400144034        3.64473124852342       -2.03873128087929
H           -1.88812331689947        2.21897806892184       -2.66389704328682
H            1.69033902924919        2.03533192631912       -0.56186072689150
H            0.29536588135735        2.37072249030148        0.49263423034153
H            2.47497852213762        2.43637047540560        1.75022378790806
H            1.38143157777624        1.16322528261154        2.36120533620223
