      -----------------------------------------------------------      
     |                   =====================                   |     
     |                           x T B                           |     
     |                   =====================                   |     
     |                         S. Grimme                         |     
     |          Mulliken Center for Theoretical Chemistry        |     
     |                    University of Bonn                     |     
      -----------------------------------------------------------      

   * xtb version 6.7.1 (edcfbbe) compiled by 'VssAdministrator@runnervm171ch' on 2026-06-10

   xtb is free software: you can redistribute it and/or modify it under
   the terms of the GNU Lesser General Public License as published by
   the Free Software Foundation, either version 3 of the License, or
   (at your option) any later version.
   
   xtb is distributed in the hope that it will be useful,
   but WITHOUT ANY WARRANTY; without even the implied warranty of
   MERCHANTABILITY or FITNESS FOR A PARTICULAR PURPOSE.  See the
   GNU Lesser General Public License for more details.
   
   Cite this work as:
   * C. Bannwarth, E. Caldeweyher, S. Ehlert, A. Hansen, P. Pracht,
     J. Seibert, S. Spicher, S. Grimme, WIREs Comput. Mol. Sci., 2020, 11,
     e01493. DOI: 10.1002/wcms.1493
   
   for GFN2-xTB:
   * C. Bannwarth, S. Ehlert and S. Grimme., J. Chem. Theory Comput., 2019,
     15, 1652-1671. DOI: 10.1021/acs.jctc.8b01176
   for GFN1-xTB:
   * S. Grimme, C. Bannwarth, P. Shushkov, J. Chem. Theory Comput., 2017,
     13, 1989-2009. DOI: 10.1021/acs.jctc.7b00118
   for GFN0-xTB:
   * P. Pracht, E. Caldeweyher, S. Ehlert, S. Grimme, ChemRxiv, 2019, preprint.
     DOI: 10.26434/chemrxiv.8326202.v1
   for GFN-FF:
   * S. Spicher and S. Grimme, Angew. Chem. Int. Ed., 2020, 59, 15665-15673.
     DOI: 10.1002/anie.202004239
   
   for ALPB and GBSA implicit solvation:
   * S. Ehlert, M. Stahn, S. Spicher, S. Grimme, J. Chem. Theory Comput.,
     2021, 17, 4250-4261. DOI: 10.1021/acs.jctc.1c00471
   
   for ddCOSMO and CPCM-X implicit solvation:
   * M. Stahn, S. Ehlert, S. Grimme, J. Phys. Chem. A,
     2023, XX, XXXX-XXXX. DOI: 10.1021/acs.jpca.3c04382
   
   for DFT-D4:
   * E. Caldeweyher, C. Bannwarth and S. Grimme, J. Chem. Phys., 2017,
     147, 034112. DOI: 10.1063/1.4993215
   * E. Caldeweyher, S. Ehlert, A. Hansen, H. Neugebauer, S. Spicher,
     C. Bannwarth and S. Grimme, J. Chem. Phys., 2019, 150, 154122.
     DOI: 10.1063/1.5090222
   * E. Caldeweyher, J.-M. Mewes, S. Ehlert and S. Grimme, Phys. Chem. Chem. Phys.
     2020, 22, 8499-8512. DOI: 10.1039/D0CP00502A
   
   for sTDA-xTB:
   * S. Grimme and C. Bannwarth, J. Chem. Phys., 2016, 145, 054103.
     DOI: 10.1063/1.4959605
   
   in the mass-spec context:
   * V. Asgeirsson, C. Bauer and S. Grimme, Chem. Sci., 2017, 8, 4879.
     DOI: 10.1039/c7sc00601b
   * J. Koopman and S. Grimme, ACS Omega 2019, 4, 12, 15120-15133.
     DOI: 10.1021/acsomega.9b02011
   
   for metadynamics refer to:
   * S. Grimme, J. Chem. Theory Comput., 2019, 155, 2847-2862
     DOI: 10.1021/acs.jctc.9b00143
   
   for SPH calculations refer to:
   * S. Spicher and S. Grimme, J. Chem. Theory Comput., 2021, 17, 1701-1714
     DOI: 10.1021/acs.jctc.0c01306
   
   for ONIOM refer to:
   * C. Plett, A. Katbashev, S. Ehlert, S. Grimme, M. Bursch,
     Phys. Chem. Chem. Phys., 2023, 25, 17860-17868. DOI: 10.1039/D3CP02178E
   
   for DIPRO refer to:
   * J. Kohn, N. Gildemeister, S. Grimme, D. Fazzi, A. Hansen,
     J. Chem. Phys., 2023, just accepted.
   
   for PTB refer to:
   * S. Grimme, M. Mueller, A. Hansen, J. Chem. Phys., 2023, 158, 124111.
     DOI: 10.1063/5.0137838
   
   with help from (in alphabetical order)
   P. Atkinson, C. Bannwarth, F. Bohle, G. Brandenburg, E. Caldeweyher
   M. Checinski, S. Dohm, S. Ehlert, S. Ehrlich, I. Gerasimov, C. Hölzer
   A. Katbashev, J. Kohn, J. Koopman, C. Lavigne, S. Lehtola, F. März, M. Müller,
   F. Musil, H. Neugebauer, J. Pisarek, C. Plett, P. Pracht, F. Pultar,
   J. Seibert, P. Shushkov, S. Spicher, M. Stahn, M. Steiner, T. Strunk,
   J. Stückrath, T. Rose, and J. Unsleber
   
 * started run on 2026/08/28 at 15:38:54.538     
   ID    Z sym.   atoms
    1    6 C      1, 3, 4, 6
    2    7 N      2
    3    8 O      5
    4   17 Cl     7
    5    1 H      8-15

           -------------------------------------------------
          |                Calculation Setup                |
           -------------------------------------------------

          program call               : C:\Users\Christian\Miniconda3\Library\bin\xtb.exe chloroacetamide_RSL3.xyz --gfn 2 --opt --vfukui
          coordinate file            : chloroacetamide_RSL3.xyz
          omp threads                :                    12


           -------------------------------------------------
          |                 G F N 2 - x T B                 |
           -------------------------------------------------

        Reference                      10.1021/acs.jctc.8b01176
      * Hamiltonian:
        H0-scaling (s, p, d)           1.850000    2.230000    2.230000
        zeta-weighting                 0.500000
      * Dispersion:
        s8                             2.700000
        a1                             0.520000
        a2                             5.000000
        s9                             5.000000
      * Repulsion:
        kExp                           1.500000    1.000000
        rExp                           1.000000
      * Coulomb:
        alpha                          2.000000
        third order                    shell-resolved
        anisotropic                    true
        a3                             3.000000
        a5                             4.000000
        cn-shift                       1.200000
        cn-exp                         4.000000
        max-rad                        5.000000


          ...................................................
          :                      SETUP                      :
          :.................................................:
          :  # basis functions                  42          :
          :  # atomic orbitals                  41          :
          :  # shells                           23          :
          :  # electrons                        42          :
          :  max. iterations                   250          :
          :  Hamiltonian                  GFN2-xTB          :
          :  restarted?                      false          :
          :  GBSA solvation                  false          :
          :  PC potential                    false          :
          :  electronic temp.          300.0000000     K    :
          :  accuracy                    1.0000000          :
          :  -> integral cutoff          0.2500000E+02      :
          :  -> integral neglect         0.1000000E-07      :
          :  -> SCF convergence          0.1000000E-05 Eh   :
          :  -> wf. convergence          0.1000000E-03 e    :
          :  Broyden damping             0.4000000          :
          :  net charge                          0          :
          :  unpaired electrons                  0          :
          ...................................................

 iter      E             dE          RMSdq      gap      omega  full diag
   1    -24.3404433 -0.243404E+02  0.431E+00    4.15       0.0  T
   2    -24.4002977 -0.598544E-01  0.252E+00    4.11       1.0  T
   3    -24.4042468 -0.394906E-02  0.135E+00    4.29       1.0  T
   4    -24.4056485 -0.140178E-02  0.191E-01    4.18       1.0  T
   5    -24.4059342 -0.285631E-03  0.111E-01    4.24       1.0  T
   6    -24.4059673 -0.331312E-04  0.671E-02    4.23       1.0  T
   7    -24.4059792 -0.119275E-04  0.350E-02    4.23       1.0  T
   8    -24.4059852 -0.593056E-05  0.199E-02    4.23       1.3  T
   9    -24.4059877 -0.255632E-05  0.775E-03    4.23       3.3  T
  10    -24.4059880 -0.306113E-06  0.418E-03    4.22       6.2  T
  11    -24.4059881 -0.821371E-07  0.222E-03    4.22      11.6  T
  12    -24.4059881 -0.211223E-07  0.146E-03    4.22      17.7  T
  13    -24.4059881 -0.123022E-07  0.617E-04    4.22      41.8  T
  14    -24.4059881 -0.492332E-09  0.417E-04    4.22      61.9  T

   *** convergence criteria satisfied after 14 iterations ***

         #    Occupation            Energy/Eh            Energy/eV
      -------------------------------------------------------------
         1        2.0000           -1.0601179             -28.8473
       ...           ...                  ...                  ...
        15        2.0000           -0.4958681             -13.4933
        16        2.0000           -0.4899773             -13.3330
        17        2.0000           -0.4778495             -13.0029
        18        2.0000           -0.4338209             -11.8049
        19        2.0000           -0.4225699             -11.4987
        20        2.0000           -0.4029469             -10.9647
        21        2.0000           -0.3969077             -10.8004 (HOMO)
        22                         -0.2416656              -6.5761 (LUMO)
        23                         -0.1510021              -4.1090
        24                         -0.0334134              -0.9092
        25                          0.0058990               0.1605
        26                          0.0096870               0.2636
       ...                                ...                  ...
        41                          0.5436173              14.7926
      -------------------------------------------------------------
                  HL-Gap            0.1552421 Eh            4.2244 eV
             Fermi-level           -0.3192867 Eh           -8.6882 eV

 SCC (total)                   0 d,  0 h,  0 min,  0.042 sec
 SCC setup                      ...        0 min,  0.000 sec (  0.625%)
 Dispersion                     ...        0 min,  0.000 sec (  0.657%)
 classical contributions        ...        0 min,  0.000 sec (  0.257%)
 integral evaluation            ...        0 min,  0.026 sec ( 62.858%)
 iterations                     ...        0 min,  0.012 sec ( 29.444%)
 molecular gradient             ...        0 min,  0.002 sec (  5.710%)
 printout                       ...        0 min,  0.000 sec (  0.398%)

         :::::::::::::::::::::::::::::::::::::::::::::::::::::
         ::                     SUMMARY                     ::
         :::::::::::::::::::::::::::::::::::::::::::::::::::::
         :: total energy             -24.186973691569 Eh    ::
         :: gradient norm              0.056692393670 Eh/a0 ::
         :: HOMO-LUMO gap              4.224352616450 eV    ::
         ::.................................................::
         :: SCC energy               -24.405957967804 Eh    ::
         :: -> isotropic ES            0.040206203537 Eh    ::
         :: -> anisotropic ES          0.002568484629 Eh    ::
         :: -> anisotropic XC          0.007717304794 Eh    ::
         :: -> dispersion             -0.010336796236 Eh    ::
         :: repulsion energy           0.218984276235 Eh    ::
         :: add. restraining           0.000000000000 Eh    ::
         :: total charge               0.000000000000 e     ::
         :::::::::::::::::::::::::::::::::::::::::::::::::::::

      ----------------------------------------------------------- 
     |                   =====================                   |
     |                        A N C O P T                        |
     |                   =====================                   |
     |               Approximate Normal Coordinate               |
     |                Rational Function Optimizer                |
      ----------------------------------------------------------- 
      ----------------------------------------------------------- 
     |                   =====================                   |
     |                        A N C O P T                        |
     |                   =====================                   |
     |               Approximate Normal Coordinate               |
     |                Rational Function Optimizer                |
      ----------------------------------------------------------- 

          ...................................................
          :                      SETUP                      :
          :.................................................:
          :   optimization level            normal          :
          :   max. optcycles                   200          :
          :   ANC micro-cycles                  20          :
          :   degrees of freedom                39          :
          :.................................................:
          :   RF solver                   davidson          :
          :   write xtbopt.log                true          :
          :   linear?                        false          :
          :   energy convergence         0.5000000E-05 Eh   :
          :   grad. convergence          0.1000000E-02 Eh/α :
          :   maxmium RF displ.          1.0000000          :
          :   Hlow (freq-cutoff)         0.1000000E-01      :
          :   Hmax (freq-cutoff)         5.0000000          :
          :   S6 in model hess.         20.0000000          :
          ...................................................

generating ANC from exact Hessian ...
Using Lindh-Hessian (1995)
 Shifting diagonal of input Hessian by    7.0868906173531913E-003
 Lowest  eigenvalues of input Hessian
    0.000000    0.000000    0.000000    0.000000    0.000000    0.000000
    0.010000    0.013450    0.016559    0.016968    0.018107    0.025410
    0.035733    0.036849    0.044184    0.063476    0.073994    0.076828
 Highest eigenvalues
    1.136019    1.137951    1.186644    1.508834    1.706895    2.150156


........................................................................
.............................. CYCLE    1 ..............................
........................................................................

 iter      E             dE          RMSdq      gap      omega  full diag
   1    -24.4059881 -0.244060E+02  0.680E-05    4.22       0.0  T
   2    -24.4059881 -0.207230E-10  0.308E-05    4.22     837.0  T
   3    -24.4059881 -0.483524E-11  0.192E-05    4.22    1347.8  T
     SCC iter.                  ...        0 min,  0.003 sec
     gradient                   ...        0 min,  0.002 sec
 * total energy  :   -24.1869737 Eh     change       -0.1532591E-08 Eh
   gradient norm :     0.0566963 Eh/α   predicted     0.0000000E+00 (-100.00%)
   displ. norm   :     0.2075911 α      lambda       -0.5268024E-02
   maximum displ.:     0.0976595 α      in ANC's #10, #8, #11, ...

........................................................................
.............................. CYCLE    2 ..............................
........................................................................

 iter      E             dE          RMSdq      gap      omega  full diag
   1    -24.4208474 -0.244208E+02  0.216E-01    4.44       0.0  T
   2    -24.4209456 -0.982630E-04  0.133E-01    4.42       1.0  T
   3    -24.4209516 -0.594224E-05  0.621E-02    4.43       1.0  T
   4    -24.4209620 -0.103815E-04  0.995E-03    4.43       2.6  T
   5    -24.4209622 -0.292449E-06  0.513E-03    4.43       5.0  T
   6    -24.4209623 -0.678916E-07  0.313E-03    4.43       8.3  T
   7    -24.4209623 -0.296944E-07  0.190E-03    4.43      13.6  T
   8    -24.4209624 -0.163190E-07  0.107E-03    4.43      24.1  T
   9    -24.4209624 -0.527928E-08  0.256E-04    4.43     100.9  T
  10    -24.4209624 -0.145977E-09  0.155E-04    4.43     167.0  T
     SCC iter.                  ...        0 min,  0.007 sec
     gradient                   ...        0 min,  0.002 sec
 * total energy  :   -24.1903629 Eh     change       -0.3389206E-02 Eh
   gradient norm :     0.0188217 Eh/α   predicted    -0.2747523E-02 ( -18.93%)
   displ. norm   :     0.1560402 α      lambda       -0.9567242E-03
   maximum displ.:     0.0860115 α      in ANC's #2, #8, #7, ...

........................................................................
.............................. CYCLE    3 ..............................
........................................................................

 iter      E             dE          RMSdq      gap      omega  full diag
   1    -24.4261507 -0.244262E+02  0.127E-01    4.51       0.0  T
   2    -24.4261924 -0.416515E-04  0.758E-02    4.51       1.0  T
   3    -24.4261956 -0.322328E-05  0.365E-02    4.51       1.0  T
   4    -24.4261972 -0.155133E-05  0.627E-03    4.51       4.1  T
   5    -24.4261973 -0.122279E-06  0.443E-03    4.51       5.8  T
   6    -24.4261973 -0.653841E-07  0.300E-03    4.51       8.6  T
   7    -24.4261974 -0.477198E-07  0.181E-03    4.51      14.2  T
   8    -24.4261974 -0.230811E-07  0.740E-04    4.51      34.9  T
   9    -24.4261974 -0.248411E-08  0.254E-04    4.51     101.6  T
     SCC iter.                  ...        0 min,  0.007 sec
     gradient                   ...        0 min,  0.002 sec
 * total energy  :   -24.1909762 Eh     change       -0.6133384E-03 Eh
   gradient norm :     0.0068907 Eh/α   predicted    -0.4900098E-03 ( -20.11%)
   displ. norm   :     0.1592725 α      lambda       -0.4031919E-03
   maximum displ.:     0.0866362 α      in ANC's #2, #7, #5, ...

........................................................................
.............................. CYCLE    4 ..............................
........................................................................

 iter      E             dE          RMSdq      gap      omega  full diag
   1    -24.4271332 -0.244271E+02  0.121E-01    4.54       0.0  T
   2    -24.4271510 -0.177873E-04  0.695E-02    4.54       1.0  T
   3    -24.4271516 -0.578049E-06  0.266E-02    4.54       1.0  T
   4    -24.4271532 -0.158198E-05  0.531E-03    4.54       4.9  T
   5    -24.4271532 -0.733202E-07  0.346E-03    4.54       7.5  T
   6    -24.4271533 -0.467419E-07  0.249E-03    4.54      10.4  T
   7    -24.4271533 -0.409436E-07  0.128E-03    4.54      20.2  T
   8    -24.4271533 -0.121752E-07  0.512E-04    4.54      50.4  T
   9    -24.4271533 -0.916074E-09  0.168E-04    4.54     153.6  T
     SCC iter.                  ...        0 min,  0.007 sec
     gradient                   ...        0 min,  0.002 sec
 * total energy  :   -24.1912892 Eh     change       -0.3129714E-03 Eh
   gradient norm :     0.0058651 Eh/α   predicted    -0.2067097E-03 ( -33.95%)
   displ. norm   :     0.2688741 α      lambda       -0.5031634E-03
   maximum displ.:     0.1635925 α      in ANC's #7, #5, #2, ...

........................................................................
.............................. CYCLE    5 ..............................
........................................................................

 iter      E             dE          RMSdq      gap      omega  full diag
   1    -24.4258453 -0.244258E+02  0.199E-01    4.55       0.0  T
   2    -24.4258669 -0.216091E-04  0.114E-01    4.55       1.0  T
   3    -24.4258663  0.645011E-06  0.310E-02    4.55       1.0  T
   4    -24.4258705 -0.422608E-05  0.785E-03    4.55       3.3  T
   5    -24.4258707 -0.141701E-06  0.493E-03    4.55       5.2  T
   6    -24.4258707 -0.960415E-07  0.363E-03    4.55       7.1  T
   7    -24.4258708 -0.971514E-07  0.156E-03    4.55      16.5  T
   8    -24.4258709 -0.141156E-07  0.732E-04    4.55      35.3  T
   9    -24.4258709 -0.255915E-08  0.250E-04    4.55     103.3  T
     SCC iter.                  ...        0 min,  0.007 sec
     gradient                   ...        0 min,  0.002 sec
 * total energy  :   -24.1916017 Eh     change       -0.3124677E-03 Eh
   gradient norm :     0.0093006 Eh/α   predicted    -0.2697634E-03 ( -13.67%)
   displ. norm   :     0.1246541 α      lambda       -0.1869151E-03
   maximum displ.:     0.0796114 α      in ANC's #7, #5, #4, ...

........................................................................
.............................. CYCLE    6 ..............................
........................................................................

 iter      E             dE          RMSdq      gap      omega  full diag
   1    -24.4255846 -0.244256E+02  0.836E-02    4.57       0.0  T
   2    -24.4255857 -0.100798E-05  0.485E-02    4.57       1.0  T
   3    -24.4255857 -0.599709E-07  0.581E-03    4.57       4.4  T
   4    -24.4255859 -0.235610E-06  0.229E-03    4.57      11.3  T
   5    -24.4255860 -0.930147E-08  0.115E-03    4.57      22.4  T
   6    -24.4255860 -0.352991E-08  0.759E-04    4.57      34.0  T
   7    -24.4255860 -0.219276E-08  0.458E-04    4.57      56.4  T
     SCC iter.                  ...        0 min,  0.005 sec
     gradient                   ...        0 min,  0.002 sec
 * total energy  :   -24.1917446 Eh     change       -0.1429105E-03 Eh
   gradient norm :     0.0080131 Eh/α   predicted    -0.9490857E-04 ( -33.59%)
   displ. norm   :     0.1526859 α      lambda       -0.2093812E-03
   maximum displ.:     0.0949040 α      in ANC's #5, #7, #4, ...

........................................................................
.............................. CYCLE    7 ..............................
........................................................................

 iter      E             dE          RMSdq      gap      omega  full diag
   1    -24.4259735 -0.244260E+02  0.901E-02    4.60       0.0  T
   2    -24.4259753 -0.186172E-05  0.537E-02    4.60       1.0  T
   3    -24.4259755 -0.166182E-06  0.809E-03    4.60       3.2  T
   4    -24.4259759 -0.418182E-06  0.444E-03    4.60       5.8  T
   5    -24.4259760 -0.715036E-07  0.285E-03    4.60       9.1  T
   6    -24.4259760 -0.392751E-07  0.191E-03    4.60      13.5  T
   7    -24.4259761 -0.235131E-07  0.872E-04    4.60      29.6  T
   8    -24.4259761 -0.481195E-08  0.414E-04    4.60      62.4  T
     SCC iter.                  ...        0 min,  0.006 sec
     gradient                   ...        0 min,  0.002 sec
 * total energy  :   -24.1918769 Eh     change       -0.1323411E-03 Eh
   gradient norm :     0.0038032 Eh/α   predicted    -0.1071330E-03 ( -19.05%)
   displ. norm   :     0.1036285 α      lambda       -0.6421820E-04
   maximum displ.:     0.0691162 α      in ANC's #5, #4, #7, ...

........................................................................
.............................. CYCLE    8 ..............................
........................................................................

 iter      E             dE          RMSdq      gap      omega  full diag
   1    -24.4259541 -0.244260E+02  0.569E-02    4.61       0.0  T
   2    -24.4259549 -0.804820E-06  0.330E-02    4.61       1.0  T
   3    -24.4259549  0.250210E-07  0.623E-03    4.61       4.1  T
   4    -24.4259551 -0.209908E-06  0.215E-03    4.61      12.0  T
   5    -24.4259551 -0.164055E-07  0.139E-03    4.61      18.6  T
   6    -24.4259551 -0.997871E-08  0.874E-04    4.61      29.6  T
   7    -24.4259551 -0.521183E-08  0.364E-04    4.61      71.0  T
     SCC iter.                  ...        0 min,  0.008 sec
     gradient                   ...        0 min,  0.002 sec
 * total energy  :   -24.1919214 Eh     change       -0.4451023E-04 Eh
   gradient norm :     0.0031804 Eh/α   predicted    -0.3245454E-04 ( -27.09%)
   displ. norm   :     0.0801098 α      lambda       -0.4889011E-04
   maximum displ.:     0.0563366 α      in ANC's #5, #4, #3, ...

........................................................................
.............................. CYCLE    9 ..............................
........................................................................

 iter      E             dE          RMSdq      gap      omega  full diag
   1    -24.4270315 -0.244270E+02  0.325E-02    4.63       0.0  T
   2    -24.4270323 -0.769472E-06  0.198E-02    4.63       1.3  T
   3    -24.4270322  0.548664E-07  0.607E-03    4.63       4.3  T
   4    -24.4270325 -0.225515E-06  0.230E-03    4.63      11.2  T
   5    -24.4270325 -0.138006E-07  0.185E-03    4.63      13.9  T
   6    -24.4270325 -0.198487E-07  0.106E-03    4.63      24.4  T
   7    -24.4270325 -0.796290E-08  0.480E-04    4.63      53.8  T
   8    -24.4270325 -0.119426E-08  0.194E-04    4.63     132.9  T
     SCC iter.                  ...        0 min,  0.007 sec
     gradient                   ...        0 min,  0.003 sec
 * total energy  :   -24.1919502 Eh     change       -0.2871271E-04 Eh
   gradient norm :     0.0028963 Eh/α   predicted    -0.2460015E-04 ( -14.32%)
   displ. norm   :     0.0802414 α      lambda       -0.2881904E-04
   maximum displ.:     0.0508171 α      in ANC's #5, #4, #3, ...

........................................................................
.............................. CYCLE   10 ..............................
........................................................................

 iter      E             dE          RMSdq      gap      omega  full diag
   1    -24.4268270 -0.244268E+02  0.321E-02    4.63       0.0  T
   2    -24.4268276 -0.613152E-06  0.189E-02    4.63       1.4  T
   3    -24.4268276  0.151824E-07  0.555E-03    4.63       4.7  T
   4    -24.4268277 -0.122922E-06  0.162E-03    4.63      15.9  T
   5    -24.4268277 -0.952329E-08  0.113E-03    4.63      22.8  T
   6    -24.4268277 -0.711121E-08  0.724E-04    4.63      35.7  T
   7    -24.4268277 -0.353023E-08  0.311E-04    4.63      83.0  T
     SCC iter.                  ...        0 min,  0.005 sec
     gradient                   ...        0 min,  0.002 sec
 * total energy  :   -24.1919687 Eh     change       -0.1850893E-04 Eh
   gradient norm :     0.0026334 Eh/α   predicted    -0.1450205E-04 ( -21.65%)
   displ. norm   :     0.0690701 α      lambda       -0.2818869E-04
   maximum displ.:     0.0444752 α      in ANC's #4, #5, #3, ...

........................................................................
.............................. CYCLE   11 ..............................
........................................................................

 iter      E             dE          RMSdq      gap      omega  full diag
   1    -24.4270471 -0.244270E+02  0.236E-02    4.64       0.0  T
   2    -24.4270472 -0.154128E-06  0.138E-02    4.64       1.9  T
   3    -24.4270472  0.202513E-08  0.249E-03    4.64      10.4  T
   4    -24.4270472 -0.319936E-07  0.994E-04    4.64      26.0  T
   5    -24.4270473 -0.236308E-08  0.708E-04    4.64      36.5  T
     SCC iter.                  ...        0 min,  0.004 sec
     gradient                   ...        0 min,  0.002 sec
 * total energy  :   -24.1919910 Eh     change       -0.2230031E-04 Eh
   gradient norm :     0.0022652 Eh/α   predicted    -0.1415973E-04 ( -36.50%)
   displ. norm   :     0.1224420 α      lambda       -0.4278630E-04
   maximum displ.:     0.0802518 α      in ANC's #4, #3, #5, ...

........................................................................
.............................. CYCLE   12 ..............................
........................................................................

 iter      E             dE          RMSdq      gap      omega  full diag
   1    -24.4268633 -0.244269E+02  0.466E-02    4.64       0.0  T
   2    -24.4268638 -0.527726E-06  0.273E-02    4.64       1.0  T
   3    -24.4268638  0.521407E-07  0.479E-03    4.64       5.4  T
   4    -24.4268639 -0.129299E-06  0.104E-03    4.64      24.8  T
   5    -24.4268639 -0.162358E-08  0.531E-04    4.64      48.6  T
   6    -24.4268639 -0.806430E-09  0.352E-04    4.64      73.4  T
     SCC iter.                  ...        0 min,  0.004 sec
     gradient                   ...        0 min,  0.002 sec
 * total energy  :   -24.1920194 Eh     change       -0.2839144E-04 Eh
   gradient norm :     0.0027395 Eh/α   predicted    -0.2171170E-04 ( -23.53%)
   displ. norm   :     0.0667304 α      lambda       -0.2195916E-04
   maximum displ.:     0.0369055 α      in ANC's #4, #2, #3, ...

........................................................................
.............................. CYCLE   13 ..............................
........................................................................

 iter      E             dE          RMSdq      gap      omega  full diag
   1    -24.4271516 -0.244272E+02  0.380E-02    4.63       0.0  T
   2    -24.4271518 -0.150725E-06  0.222E-02    4.63       1.2  T
   3    -24.4271518 -0.107001E-07  0.203E-03    4.63      12.7  T
   4    -24.4271518 -0.262780E-07  0.935E-04    4.63      27.6  T
   5    -24.4271518 -0.209709E-08  0.627E-04    4.63      41.2  T
     SCC iter.                  ...        0 min,  0.004 sec
     gradient                   ...        0 min,  0.002 sec
 * total energy  :   -24.1920314 Eh     change       -0.1199895E-04 Eh
   gradient norm :     0.0022672 Eh/α   predicted    -0.1103033E-04 (  -8.07%)
   displ. norm   :     0.0976934 α      lambda       -0.1667767E-04
   maximum displ.:     0.0712311 α      in ANC's #4, #3, #5, ...

........................................................................
.............................. CYCLE   14 ..............................
........................................................................

 iter      E             dE          RMSdq      gap      omega  full diag
   1    -24.4263103 -0.244263E+02  0.307E-02    4.63       0.0  T
   2    -24.4263106 -0.230972E-06  0.181E-02    4.63       1.4  T
   3    -24.4263106 -0.147699E-08  0.247E-03    4.63      10.5  T
   4    -24.4263106 -0.310410E-07  0.105E-03    4.63      24.5  T
   5    -24.4263106 -0.281564E-08  0.784E-04    4.63      32.9  T
   6    -24.4263106 -0.267579E-08  0.470E-04    4.63      54.9  T
     SCC iter.                  ...        0 min,  0.005 sec
     gradient                   ...        0 min,  0.002 sec
 * total energy  :   -24.1920362 Eh     change       -0.4856095E-05 Eh
   gradient norm :     0.0020376 Eh/α   predicted    -0.8417212E-05 (  73.33%)
   displ. norm   :     0.0330733 α      lambda       -0.1084721E-04
   maximum displ.:     0.0203332 α      in ANC's #5, #4, #3, ...

........................................................................
.............................. CYCLE   15 ..............................
........................................................................

 iter      E             dE          RMSdq      gap      omega  full diag
   1    -24.4268971 -0.244269E+02  0.142E-02    4.63       0.0  T
   2    -24.4268972 -0.153464E-06  0.808E-03    4.63       3.2  T
   3    -24.4268972 -0.258120E-08  0.247E-03    4.63      10.4  T
   4    -24.4268973 -0.165218E-07  0.618E-04    4.63      41.8  T
   5    -24.4268973 -0.773614E-09  0.400E-04    4.63      64.6  T
     SCC iter.                  ...        0 min,  0.004 sec
     gradient                   ...        0 min,  0.002 sec
 * total energy  :   -24.1920427 Eh     change       -0.6475611E-05 Eh
   gradient norm :     0.0006545 Eh/α   predicted    -0.5428469E-05 ( -16.17%)
   displ. norm   :     0.0244590 α      lambda       -0.2750158E-05
   maximum displ.:     0.0180791 α      in ANC's #4, #1, #7, ...

........................................................................
.............................. CYCLE   16 ..............................
........................................................................

 iter      E             dE          RMSdq      gap      omega  full diag
   1    -24.4270803 -0.244271E+02  0.131E-02    4.63       0.0  T
   2    -24.4270805 -0.255289E-06  0.730E-03    4.63       3.5  T
   3    -24.4270806 -0.133936E-07  0.305E-03    4.63       8.5  T
   4    -24.4270806 -0.174918E-07  0.529E-04    4.63      48.8  T
   5    -24.4270806 -0.525901E-09  0.289E-04    4.63      89.5  T
     SCC iter.                  ...        0 min,  0.004 sec
     gradient                   ...        0 min,  0.002 sec
 * total energy  :   -24.1920448 Eh     change       -0.2147477E-05 Eh
   gradient norm :     0.0006655 Eh/α   predicted    -0.1376569E-05 ( -35.90%)
   displ. norm   :     0.0156676 α      lambda       -0.7360593E-06
   maximum displ.:     0.0132248 α      in ANC's #4, #3, #8, ...

   *** GEOMETRY OPTIMIZATION CONVERGED AFTER 16 ITERATIONS ***

------------------------------------------------------------------------
 total energy gain   :        -0.0050711 Eh       -3.1822 kcal/mol
 total RMSD          :         0.3280986 a0        0.1736 Å
 total power (kW/mol):        -0.8321421 (step)  -85.3937 (real)
------------------------------------------------------------------------

 ANCopt (total)                0 d,  0 h,  0 min,  0.156 sec
 optimizer setup                ...        0 min,  0.000 sec (  0.146%)
 model hessian                  ...        0 min,  0.003 sec (  1.923%)
 ANC generation                 ...        0 min,  0.000 sec (  0.164%)
 coordinate transformation      ...        0 min,  0.000 sec (  0.068%)
 single point calculation       ...        0 min,  0.145 sec ( 92.750%)
 optimization log               ...        0 min,  0.003 sec (  1.672%)
 hessian update                 ...        0 min,  0.002 sec (  1.070%)
 rational function              ...        0 min,  0.002 sec (  1.603%)

================
 final structure:
================
15
 xtb: 6.7.1 (edcfbbe)
C           -1.74461672735283       -0.64019876786053        0.39881487755262
N           -0.44383588241715       -0.05768348113074        0.15239425513282
C           -0.47041959734086        1.27424778491299       -0.39999362899438
C            0.65211337794033       -0.81761650680931        0.34240707865810
O            0.60190601592429       -1.94103072584980        0.80682182971854
C            2.00360693604223       -0.21373744107452       -0.02201802583484
Cl           2.11171432965135        0.12632841857976       -1.76942284988591
H           -2.27809260598411       -0.06502192886793        1.15810579444098
H           -2.33301122426337       -0.65010592481525       -0.52086250809937
H           -1.60197767099823       -1.65937730024450        0.75059288963193
H            0.46870014529648        1.79479873799437       -0.23995401315624
H           -0.67471616610357        1.24840165539185       -1.47419503313571
H           -1.26555874391810        1.83801364501385        0.09075681641807
H            2.77131151941892       -0.95090900664318        0.21183973175195
H            2.20287429410459        0.71389184140293        0.51471478580148

 Bond Distances (Angstroems)
 ---------------------------
C1-N2=1.4464         C1-H8=1.0918         C1-H9=1.0918         C1-H10=1.0876        N2-C1=1.4464         N2-C3=1.4422         
N2-C4=1.3471         C3-N2=1.4422         C3-H11=1.0856        C3-H12=1.0938        C3-H13=1.0913        C4-N2=1.3471         
C4-O5=1.2167         C4-C6=1.5245         O5-C4=1.2167         C6-C4=1.5245         C6-Cl7=1.7835        C6-H14=1.0897        
C6-H15=1.0901        Cl7-C6=1.7835        H8-C1=1.0918         H9-C1=1.0918         H10-C1=1.0876        H11-C3=1.0856        
H12-C3=1.0938        H13-C3=1.0913        H14-C6=1.0897        H15-C6=1.0901        
 C  H  Rav=1.0902 sigma=0.0024  Rmin=1.0856  Rmax=1.0938     8
 C  C  Rav=1.5245 sigma=0.0000  Rmin=1.5245  Rmax=1.5245     1
 N  C  Rav=1.4119 sigma=0.0458  Rmin=1.3471  Rmax=1.4464     3
 O  C  Rav=1.2167 sigma=0.0000  Rmin=1.2167  Rmax=1.2167     1
 Cl C  Rav=1.7835 sigma=0.0000  Rmin=1.7835  Rmax=1.7835     1

 selected bond angles (degree)
 --------------------
H8-C1-N2=110.23                H9-C1-N2=110.17                H9-C1-H8=109.10                H10-C1-N2=108.33               
H10-C1-H8=109.44               H10-C1-H9=109.55               C3-N2-C1=114.87                C4-N2-C1=118.71                
C4-N2-C3=126.16                H11-C3-N2=111.74               H12-C3-N2=110.96               H12-C3-H11=108.52              
H13-C3-N2=108.56               H13-C3-H11=108.44              H13-C3-H12=108.53              O5-C4-N2=122.76                
C6-C4-N2=117.65                C6-C4-O5=119.58                Cl7-C6-C4=111.31               H14-C6-C4=107.78               
H14-C6-Cl7=107.25              H15-C6-C4=112.42               H15-C6-Cl7=108.00              H15-C6-H14=109.95              

 selected dihedral angles (degree)
 ---------------------------------
C3-N2-C1-H8=296.11            C3-N2-C1-H9= 56.57            C3-N2-C1-H10=176.39           C4-N2-C1-H8=121.54            
C4-N2-C1-H9=242.00            C4-N2-C1-H10=  1.82           H11-C3-N2-C1=159.66           H11-C3-N2-C4=333.76           
H12-C3-N2-C1=280.93           H12-C3-N2-C4= 95.03           H13-C3-N2-C1= 40.12           H13-C3-N2-C4=214.21           
O5-C4-N2-C1=354.40            O5-C4-N2-C3=180.51            C6-C4-N2-C1=175.60            C6-C4-N2-C3=  1.71            
Cl7-C6-C4-N2=296.26           Cl7-C6-C4-O5=117.42           H14-C6-C4-N2=178.91           H14-C6-C4-O5=  0.08           
H15-C6-C4-N2= 57.59           H15-C6-C4-O5=238.75           
           -------------------------------------------------
          |                Final Singlepoint                |
           -------------------------------------------------

          ...................................................
          :                      SETUP                      :
          :.................................................:
          :  # basis functions                  42          :
          :  # atomic orbitals                  41          :
          :  # shells                           23          :
          :  # electrons                        42          :
          :  max. iterations                   250          :
          :  Hamiltonian                  GFN2-xTB          :
          :  restarted?                      false          :
          :  GBSA solvation                  false          :
          :  PC potential                    false          :
          :  electronic temp.          300.0000000     K    :
          :  accuracy                    1.0000000          :
          :  -> integral cutoff          0.2500000E+02      :
          :  -> integral neglect         0.1000000E-07      :
          :  -> SCF convergence          0.1000000E-05 Eh   :
          :  -> wf. convergence          0.1000000E-03 e    :
          :  Broyden damping             0.4000000          :
          :  net charge                          0          :
          :  unpaired electrons                  0          :
          ...................................................

 iter      E             dE          RMSdq      gap      omega  full diag
   1    -24.4270806 -0.244271E+02  0.206E-04    4.63       0.0  T
   2    -24.4270806 -0.956000E-10  0.178E-04    4.63     145.5  T
   3    -24.4270806 -0.167336E-09  0.104E-04    4.63     248.1  T

   *** convergence criteria satisfied after 3 iterations ***

         #    Occupation            Energy/Eh            Energy/eV
      -------------------------------------------------------------
         1        2.0000           -1.0602006             -28.8495
       ...           ...                  ...                  ...
        15        2.0000           -0.4967508             -13.5173
        16        2.0000           -0.4921717             -13.3927
        17        2.0000           -0.4776508             -12.9975
        18        2.0000           -0.4338327             -11.8052
        19        2.0000           -0.4224177             -11.4946
        20        2.0000           -0.4012699             -10.9191
        21        2.0000           -0.3997259             -10.8771 (HOMO)
        22                         -0.2295960              -6.2476 (LUMO)
        23                         -0.1524056              -4.1472
        24                         -0.0145008              -0.3946
        25                          0.0065382               0.1779
        26                          0.0117439               0.3196
       ...                                ...                  ...
        41                          0.6096108              16.5884
      -------------------------------------------------------------
                  HL-Gap            0.1701299 Eh            4.6295 eV
             Fermi-level           -0.3146609 Eh           -8.5624 eV

 SCC (total)                   0 d,  0 h,  0 min,  0.006 sec
 SCC setup                      ...        0 min,  0.000 sec (  3.345%)
 Dispersion                     ...        0 min,  0.000 sec (  4.243%)
 classical contributions        ...        0 min,  0.000 sec (  1.829%)
 integral evaluation            ...        0 min,  0.001 sec ( 13.796%)
 iterations                     ...        0 min,  0.003 sec ( 41.681%)
 molecular gradient             ...        0 min,  0.002 sec ( 32.633%)
 printout                       ...        0 min,  0.000 sec (  2.190%)

         :::::::::::::::::::::::::::::::::::::::::::::::::::::
         ::                     SUMMARY                     ::
         :::::::::::::::::::::::::::::::::::::::::::::::::::::
         :: total energy             -24.192044830767 Eh    ::
         :: gradient norm              0.000665298164 Eh/a0 ::
         :: HOMO-LUMO gap              4.629470738787 eV    ::
         ::.................................................::
         :: SCC energy               -24.427051789967 Eh    ::
         :: -> isotropic ES            0.040722682828 Eh    ::
         :: -> anisotropic ES          0.001788641510 Eh    ::
         :: -> anisotropic XC          0.007200476884 Eh    ::
         :: -> dispersion             -0.010436021263 Eh    ::
         :: repulsion energy           0.235006959200 Eh    ::
         :: add. restraining           0.000000000000 Eh    ::
         :: total charge              -0.000000000000 e     ::
         :::::::::::::::::::::::::::::::::::::::::::::::::::::

           -------------------------------------------------
          |                Property Printout                |
           -------------------------------------------------

    * Orbital Energies and Occupations

         #    Occupation            Energy/Eh            Energy/eV
      -------------------------------------------------------------
         1        2.0000           -1.0602006             -28.8495
       ...           ...                  ...                  ...
         9        2.0000           -0.5625191             -15.3069
        10        2.0000           -0.5510680             -14.9953
        11        2.0000           -0.5276210             -14.3573
        12        2.0000           -0.5146529             -14.0044
        13        2.0000           -0.5048979             -13.7390
        14        2.0000           -0.4998551             -13.6017
        15        2.0000           -0.4967508             -13.5173
        16        2.0000           -0.4921717             -13.3927
        17        2.0000           -0.4776508             -12.9975
        18        2.0000           -0.4338327             -11.8052
        19        2.0000           -0.4224177             -11.4946
        20        2.0000           -0.4012699             -10.9191
        21        2.0000           -0.3997259             -10.8771 (HOMO)
        22                         -0.2295960              -6.2476 (LUMO)
        23                         -0.1524056              -4.1472
        24                         -0.0145008              -0.3946
        25                          0.0065382               0.1779
        26                          0.0117439               0.3196
        27                          0.0161220               0.4387
        28                          0.0163850               0.4459
        29                          0.0681271               1.8538
        30                          0.1025249               2.7898
        31                          0.1134475               3.0871
        32                          0.1312248               3.5708
       ...                                ...                  ...
        41                          0.6096108              16.5884
      -------------------------------------------------------------
                  HL-Gap            0.1701299 Eh            4.6295 eV
             Fermi-level           -0.3146609 Eh           -8.5624 eV

     #   Z          covCN         q      C6AA      α(0)
     1   6 C        3.707    -0.054    21.693     6.658
     2   7 N        2.730    -0.073    22.660     7.070
     3   6 C        3.696    -0.055    21.744     6.670
     4   6 C        2.787     0.262    22.582     7.784
     5   8 O        0.859    -0.433    22.349     6.338
     6   6 C        3.715    -0.000    20.708     6.501
     7  17 Cl       0.914    -0.190   105.115    15.685
     8   1 H        0.924     0.052     2.293     2.368
     9   1 H        0.924     0.054     2.265     2.354
    10   1 H        0.925     0.091     1.867     2.137
    11   1 H        0.925     0.066     2.132     2.283
    12   1 H        0.924     0.062     2.172     2.305
    13   1 H        0.924     0.060     2.198     2.319
    14   1 H        0.925     0.089     1.890     2.150
    15   1 H        0.925     0.068     2.103     2.268

 Mol. C6AA /au·bohr⁶  :       2489.340587
 Mol. C8AA /au·bohr⁸  :      62480.655631
 Mol. α(0) /au        :         74.889170


Wiberg/Mayer (AO) data.
largest (>0.10) Wiberg bond orders for each atom

 ---------------------------------------------------------------------------
     #   Z sym  total        # sym  WBO       # sym  WBO       # sym  WBO
 ---------------------------------------------------------------------------
     1   6 C    3.962 --     2 N    0.994     9 H    0.976     8 H    0.976
                            10 H    0.973
     2   7 N    3.520 --     4 C    1.272     3 C    1.003     1 C    0.994
                             5 O    0.209
     3   6 C    3.968 --     2 N    1.003    13 H    0.978    11 H    0.976
                            12 H    0.971
     4   6 C    3.963 --     5 O    1.662     2 N    1.272     6 C    0.960
     5   8 O    2.006 --     4 C    1.662     2 N    0.209
     6   6 C    3.935 --    14 H    0.975    15 H    0.967     4 C    0.960
                             7 Cl   0.947
     7  17 Cl   1.007 --     6 C    0.947
     8   1 H    0.997 --     1 C    0.976
     9   1 H    0.997 --     1 C    0.976
    10   1 H    0.992 --     1 C    0.973
    11   1 H    0.996 --     3 C    0.976
    12   1 H    0.996 --     3 C    0.971
    13   1 H    0.996 --     3 C    0.978
    14   1 H    0.992 --     6 C    0.975
    15   1 H    0.995 --     6 C    0.967
 ---------------------------------------------------------------------------

Topologies differ in total number of bonds
Writing topology from bond orders to xtbtopo.mol

molecular dipole:
                 x           y           z       tot (Debye)
 q only:       -0.795       1.230       0.224
   full:       -0.673       1.370       0.116       3.892
molecular quadrupole (traceless):
                xx          xy          yy          xz          yz          zz
 q only:        5.316       1.905      -2.930       3.146       2.490      -2.386
  q+dip:        6.936       1.093      -4.361       3.366       4.788      -2.575
   full:        6.345       1.429      -4.823       3.188       4.514      -1.523

           -------------------------------------------------
          |                Geometry Summary                 |
           -------------------------------------------------

      molecular mass/u    :      121.5655153
   center of mass at/Å    :        0.6649985      -0.2457012      -0.3566734
  moments of inertia/u·Å² :        0.1510964E+03   0.3233805E+03   0.4242300E+03
rotational constants/cm⁻¹ :        0.1115687E+00   0.5212941E-01   0.3973701E-01

 * 13 selected distances

     #   Z          #   Z                                           value/Å
     1   6 C        2   7 N                                       1.4464019
     2   7 N        3   6 C                                       1.4421790
     2   7 N        4   6 C                                       1.3471111
     4   6 C        5   8 O                                       1.2166600
     6   6 C        7  17 Cl                                      1.7834675 (max)
     1   6 C        8   1 H                                       1.0917636
     1   6 C        9   1 H                                       1.0918393
     1   6 C       10   1 H                                       1.0875747
     3   6 C       11   1 H                                       1.0856022 (min)
     3   6 C       12   1 H                                       1.0937614
     3   6 C       13   1 H                                       1.0912903
     6   6 C       14   1 H                                       1.0897164
     6   6 C       15   1 H                                       1.0900853

 * 4 distinct bonds (by element types)

   Z      Z             #   av. dist./Å        max./Å        min./Å
   1 H    6 C           8     1.0902041     1.0937614     1.0856022
   6 C    7 N           3     1.4118973     1.4464019     1.3471111
   6 C    8 O           1     1.2166600     1.2166600     1.2166600
   6 C   17 Cl          1     1.7834675     1.7834675     1.7834675


optimized geometry written to: xtbopt.xyz


           -------------------------------------------------
          | TOTAL ENERGY              -24.192044830767 Eh   |
          | GRADIENT NORM               0.000665298164 Eh/α |
          | HOMO-LUMO GAP               4.629470738787 eV   |
           -------------------------------------------------
########################################################################
[WARNING] Runtime exception occurred
-2- restart_readRestart: Dimension missmatch in restart file.
-1- restart_readRestart: Number of electron missmatch in restart file.
########################################################################

------------------------------------------------------------------------
 * finished run on 2026/08/28 at 15:38:54.773     
------------------------------------------------------------------------
 total:
 * wall-time:     0 d,  0 h,  0 min,  0.235 sec
 *  cpu-time:     0 d,  0 h,  0 min,  1.172 sec
 * ratio c/w:     4.987 speedup
 SCF:
 * wall-time:     0 d,  0 h,  0 min,  0.042 sec
 *  cpu-time:     0 d,  0 h,  0 min,  0.078 sec
 * ratio c/w:     1.859 speedup
 ANC optimizer:
 * wall-time:     0 d,  0 h,  0 min,  0.165 sec
 *  cpu-time:     0 d,  0 h,  0 min,  0.984 sec
 * ratio c/w:     5.965 speedup

