15

C     -1.753451   -0.647432    0.426798
N     -0.457726   -0.012830    0.240992
C     -0.488833    1.325343   -0.332033
C      0.671333   -0.832678    0.251861
O      0.599722   -2.035182    0.523928
C      2.025319   -0.215559   -0.047419
Cl     2.233572   -0.039824   -1.800444
H     -2.420230    0.039573    0.956080
H     -2.171731   -0.883289   -0.556358
H     -1.672803   -1.569381    1.009122
H      0.469421    1.836812   -0.239996
H     -0.752279    1.245058   -1.390799
H     -1.244082    1.922256    0.187965
H      2.810726   -0.882355    0.321711
H      2.151040    0.749489    0.448594
