21

C      4.069151   -0.468904    0.160163
C      2.609748   -0.284443    0.226626
O      1.923801   -1.156505    1.008620
N      0.578949   -0.845868    0.979233
C      0.448526    0.206400    0.152216
C     -0.824875    0.888353   -0.143478
O     -0.796403    2.031869   -0.605718
N     -2.047134    0.244716    0.097570
C     -2.195929   -1.164745    0.426242
C     -3.273644    1.019116    0.026950
C      1.727562    0.603662   -0.331383
H      4.313185   -1.462450   -0.228158
H      4.514471   -0.367518    1.154587
H      4.529734    0.275589   -0.496541
H     -1.458135   -1.769861   -0.105563
H     -2.090867   -1.288984    1.507482
H     -3.188890   -1.510739    0.121676
H     -3.829628    0.883309    0.959652
H     -3.872446    0.651106   -0.811469
H     -3.086222    2.086555   -0.113438
H      1.949046    1.429342   -0.991788
