      -----------------------------------------------------------      
     |                   =====================                   |     
     |                           x T B                           |     
     |                   =====================                   |     
     |                         S. Grimme                         |     
     |          Mulliken Center for Theoretical Chemistry        |     
     |                    University of Bonn                     |     
      -----------------------------------------------------------      

   * xtb version 6.7.1 (edcfbbe) compiled by 'VssAdministrator@runnervm171ch' on 2026-06-10

   xtb is free software: you can redistribute it and/or modify it under
   the terms of the GNU Lesser General Public License as published by
   the Free Software Foundation, either version 3 of the License, or
   (at your option) any later version.
   
   xtb is distributed in the hope that it will be useful,
   but WITHOUT ANY WARRANTY; without even the implied warranty of
   MERCHANTABILITY or FITNESS FOR A PARTICULAR PURPOSE.  See the
   GNU Lesser General Public License for more details.
   
   Cite this work as:
   * C. Bannwarth, E. Caldeweyher, S. Ehlert, A. Hansen, P. Pracht,
     J. Seibert, S. Spicher, S. Grimme, WIREs Comput. Mol. Sci., 2020, 11,
     e01493. DOI: 10.1002/wcms.1493
   
   for GFN2-xTB:
   * C. Bannwarth, S. Ehlert and S. Grimme., J. Chem. Theory Comput., 2019,
     15, 1652-1671. DOI: 10.1021/acs.jctc.8b01176
   for GFN1-xTB:
   * S. Grimme, C. Bannwarth, P. Shushkov, J. Chem. Theory Comput., 2017,
     13, 1989-2009. DOI: 10.1021/acs.jctc.7b00118
   for GFN0-xTB:
   * P. Pracht, E. Caldeweyher, S. Ehlert, S. Grimme, ChemRxiv, 2019, preprint.
     DOI: 10.26434/chemrxiv.8326202.v1
   for GFN-FF:
   * S. Spicher and S. Grimme, Angew. Chem. Int. Ed., 2020, 59, 15665-15673.
     DOI: 10.1002/anie.202004239
   
   for ALPB and GBSA implicit solvation:
   * S. Ehlert, M. Stahn, S. Spicher, S. Grimme, J. Chem. Theory Comput.,
     2021, 17, 4250-4261. DOI: 10.1021/acs.jctc.1c00471
   
   for ddCOSMO and CPCM-X implicit solvation:
   * M. Stahn, S. Ehlert, S. Grimme, J. Phys. Chem. A,
     2023, XX, XXXX-XXXX. DOI: 10.1021/acs.jpca.3c04382
   
   for DFT-D4:
   * E. Caldeweyher, C. Bannwarth and S. Grimme, J. Chem. Phys., 2017,
     147, 034112. DOI: 10.1063/1.4993215
   * E. Caldeweyher, S. Ehlert, A. Hansen, H. Neugebauer, S. Spicher,
     C. Bannwarth and S. Grimme, J. Chem. Phys., 2019, 150, 154122.
     DOI: 10.1063/1.5090222
   * E. Caldeweyher, J.-M. Mewes, S. Ehlert and S. Grimme, Phys. Chem. Chem. Phys.
     2020, 22, 8499-8512. DOI: 10.1039/D0CP00502A
   
   for sTDA-xTB:
   * S. Grimme and C. Bannwarth, J. Chem. Phys., 2016, 145, 054103.
     DOI: 10.1063/1.4959605
   
   in the mass-spec context:
   * V. Asgeirsson, C. Bauer and S. Grimme, Chem. Sci., 2017, 8, 4879.
     DOI: 10.1039/c7sc00601b
   * J. Koopman and S. Grimme, ACS Omega 2019, 4, 12, 15120-15133.
     DOI: 10.1021/acsomega.9b02011
   
   for metadynamics refer to:
   * S. Grimme, J. Chem. Theory Comput., 2019, 155, 2847-2862
     DOI: 10.1021/acs.jctc.9b00143
   
   for SPH calculations refer to:
   * S. Spicher and S. Grimme, J. Chem. Theory Comput., 2021, 17, 1701-1714
     DOI: 10.1021/acs.jctc.0c01306
   
   for ONIOM refer to:
   * C. Plett, A. Katbashev, S. Ehlert, S. Grimme, M. Bursch,
     Phys. Chem. Chem. Phys., 2023, 25, 17860-17868. DOI: 10.1039/D3CP02178E
   
   for DIPRO refer to:
   * J. Kohn, N. Gildemeister, S. Grimme, D. Fazzi, A. Hansen,
     J. Chem. Phys., 2023, just accepted.
   
   for PTB refer to:
   * S. Grimme, M. Mueller, A. Hansen, J. Chem. Phys., 2023, 158, 124111.
     DOI: 10.1063/5.0137838
   
   with help from (in alphabetical order)
   P. Atkinson, C. Bannwarth, F. Bohle, G. Brandenburg, E. Caldeweyher
   M. Checinski, S. Dohm, S. Ehlert, S. Ehrlich, I. Gerasimov, C. Hölzer
   A. Katbashev, J. Kohn, J. Koopman, C. Lavigne, S. Lehtola, F. März, M. Müller,
   F. Musil, H. Neugebauer, J. Pisarek, C. Plett, P. Pracht, F. Pultar,
   J. Seibert, P. Shushkov, S. Spicher, M. Stahn, M. Steiner, T. Strunk,
   J. Stückrath, T. Rose, and J. Unsleber
   
 * started run on 2026/08/28 at 15:38:54.942     
   ID    Z sym.   atoms
    1    6 C      1, 2, 5, 6, 9-11
    2    8 O      3, 7
    3    7 N      4, 8
    4    1 H      12-21

           -------------------------------------------------
          |                Calculation Setup                |
           -------------------------------------------------

          program call               : C:\Users\Christian\Miniconda3\Library\bin\xtb.exe isoxazole_noNitro.xyz --gfn 2 --opt --vfukui
          coordinate file            : isoxazole_noNitro.xyz
          omp threads                :                    12


           -------------------------------------------------
          |                 G F N 2 - x T B                 |
           -------------------------------------------------

        Reference                      10.1021/acs.jctc.8b01176
      * Hamiltonian:
        H0-scaling (s, p, d)           1.850000    2.230000    2.230000
        zeta-weighting                 0.500000
      * Dispersion:
        s8                             2.700000
        a1                             0.520000
        a2                             5.000000
        s9                             5.000000
      * Repulsion:
        kExp                           1.500000    1.000000
        rExp                           1.000000
      * Coulomb:
        alpha                          2.000000
        third order                    shell-resolved
        anisotropic                    true
        a3                             3.000000
        a5                             4.000000
        cn-shift                       1.200000
        cn-exp                         4.000000
        max-rad                        5.000000


          ...................................................
          :                      SETUP                      :
          :.................................................:
          :  # basis functions                  54          :
          :  # atomic orbitals                  54          :
          :  # shells                           32          :
          :  # electrons                        60          :
          :  max. iterations                   250          :
          :  Hamiltonian                  GFN2-xTB          :
          :  restarted?                      false          :
          :  GBSA solvation                  false          :
          :  PC potential                    false          :
          :  electronic temp.          300.0000000     K    :
          :  accuracy                    1.0000000          :
          :  -> integral cutoff          0.2500000E+02      :
          :  -> integral neglect         0.1000000E-07      :
          :  -> SCF convergence          0.1000000E-05 Eh   :
          :  -> wf. convergence          0.1000000E-03 e    :
          :  Broyden damping             0.4000000          :
          :  net charge                          0          :
          :  unpaired electrons                  0          :
          ...................................................

 iter      E             dE          RMSdq      gap      omega  full diag
   1    -34.3146920 -0.343147E+02  0.406E+00    3.18       0.0  T
   2    -34.3883777 -0.736857E-01  0.266E+00    3.06       1.0  T
   3    -34.4077728 -0.193950E-01  0.136E+00    3.05       1.0  T
   4    -34.4124619 -0.468913E-02  0.440E-01    2.86       1.0  T
   5    -34.4146221 -0.216025E-02  0.121E-01    2.91       1.0  T
   6    -34.4146925 -0.703709E-04  0.627E-02    2.94       1.0  T
   7    -34.4147092 -0.167243E-04  0.264E-02    2.95       1.0  T
   8    -34.4147111 -0.191031E-05  0.102E-02    2.95       2.1  T
   9    -34.4147116 -0.503174E-06  0.352E-03    2.95       6.2  T
  10    -34.4147117 -0.101152E-06  0.135E-03    2.95      16.2  T
  11    -34.4147118 -0.746171E-08  0.514E-04    2.95      42.4  T
  12    -34.4147118 -0.653323E-09  0.145E-04    2.95     150.4  T

   *** convergence criteria satisfied after 12 iterations ***

         #    Occupation            Energy/Eh            Energy/eV
      -------------------------------------------------------------
         1        2.0000           -0.7552740             -20.5521
       ...           ...                  ...                  ...
        24        2.0000           -0.4775960             -12.9960
        25        2.0000           -0.4673070             -12.7161
        26        2.0000           -0.4432551             -12.0616
        27        2.0000           -0.4183888             -11.3849
        28        2.0000           -0.4144611             -11.2781
        29        2.0000           -0.3954119             -10.7597
        30        2.0000           -0.3827637             -10.4155 (HOMO)
        31                         -0.2745016              -7.4696 (LUMO)
        32                         -0.2216457              -6.0313
        33                         -0.1459685              -3.9720
        34                         -0.0442893              -1.2052
        35                         -0.0232693              -0.6332
       ...                                ...                  ...
        54                          0.6253666              17.0171
      -------------------------------------------------------------
                  HL-Gap            0.1082621 Eh            2.9460 eV
             Fermi-level           -0.3286326 Eh           -8.9425 eV

 SCC (total)                   0 d,  0 h,  0 min,  0.021 sec
 SCC setup                      ...        0 min,  0.000 sec (  1.257%)
 Dispersion                     ...        0 min,  0.000 sec (  1.844%)
 classical contributions        ...        0 min,  0.000 sec (  0.470%)
 integral evaluation            ...        0 min,  0.001 sec (  4.652%)
 iterations                     ...        0 min,  0.017 sec ( 78.414%)
 molecular gradient             ...        0 min,  0.002 sec ( 11.846%)
 printout                       ...        0 min,  0.000 sec (  1.422%)

         :::::::::::::::::::::::::::::::::::::::::::::::::::::
         ::                     SUMMARY                     ::
         :::::::::::::::::::::::::::::::::::::::::::::::::::::
         :: total energy             -34.036718083280 Eh    ::
         :: gradient norm              0.077408537432 Eh/a0 ::
         :: HOMO-LUMO gap              2.945961448154 eV    ::
         ::.................................................::
         :: SCC energy               -34.414746929968 Eh    ::
         :: -> isotropic ES            0.049220680208 Eh    ::
         :: -> anisotropic ES          0.001840811362 Eh    ::
         :: -> anisotropic XC          0.016920238727 Eh    ::
         :: -> dispersion             -0.015985306339 Eh    ::
         :: repulsion energy           0.378028846688 Eh    ::
         :: add. restraining           0.000000000000 Eh    ::
         :: total charge               0.000000000000 e     ::
         :::::::::::::::::::::::::::::::::::::::::::::::::::::

      ----------------------------------------------------------- 
     |                   =====================                   |
     |                        A N C O P T                        |
     |                   =====================                   |
     |               Approximate Normal Coordinate               |
     |                Rational Function Optimizer                |
      ----------------------------------------------------------- 
      ----------------------------------------------------------- 
     |                   =====================                   |
     |                        A N C O P T                        |
     |                   =====================                   |
     |               Approximate Normal Coordinate               |
     |                Rational Function Optimizer                |
      ----------------------------------------------------------- 

          ...................................................
          :                      SETUP                      :
          :.................................................:
          :   optimization level            normal          :
          :   max. optcycles                   200          :
          :   ANC micro-cycles                  20          :
          :   degrees of freedom                57          :
          :.................................................:
          :   RF solver                   davidson          :
          :   write xtbopt.log                true          :
          :   linear?                        false          :
          :   energy convergence         0.5000000E-05 Eh   :
          :   grad. convergence          0.1000000E-02 Eh/α :
          :   maxmium RF displ.          1.0000000          :
          :   Hlow (freq-cutoff)         0.1000000E-01      :
          :   Hmax (freq-cutoff)         5.0000000          :
          :   S6 in model hess.         20.0000000          :
          ...................................................

generating ANC from exact Hessian ...
Using Lindh-Hessian (1995)
 Shifting diagonal of input Hessian by    8.6468583870475037E-003
 Lowest  eigenvalues of input Hessian
    0.000000    0.000000    0.000000    0.000000    0.000000    0.000000
    0.010000    0.011031    0.012035    0.015784    0.018666    0.019667
    0.020268    0.022708    0.028045    0.035423    0.037798    0.044688
 Highest eigenvalues
    1.557026    1.665755    1.836164    1.885504    1.947978    2.215876


........................................................................
.............................. CYCLE    1 ..............................
........................................................................

 iter      E             dE          RMSdq      gap      omega  full diag
   1    -34.4147118 -0.344147E+02  0.537E-05    2.95       0.0  T
   2    -34.4147118 -0.783729E-11  0.321E-05    2.95     680.4  T
   3    -34.4147118 -0.959233E-12  0.175E-05    2.95    1245.1  T
     SCC iter.                  ...        0 min,  0.003 sec
     gradient                   ...        0 min,  0.002 sec
 * total energy  :   -34.0367181 Eh     change       -0.2342588E-09 Eh
   gradient norm :     0.0774076 Eh/α   predicted     0.0000000E+00 (-100.00%)
   displ. norm   :     0.2596617 α      lambda       -0.7975285E-02
   maximum displ.:     0.1298743 α      in ANC's #8, #18, #4, ...

........................................................................
.............................. CYCLE    2 ..............................
........................................................................

 iter      E             dE          RMSdq      gap      omega  full diag
   1    -34.4383496 -0.344383E+02  0.215E-01    3.16       0.0  T
   2    -34.4385709 -0.221256E-03  0.137E-01    3.19       1.0  T
   3    -34.4386178 -0.469592E-04  0.719E-02    3.19       1.0  T
   4    -34.4386267 -0.887775E-05  0.107E-02    3.19       2.0  T
   5    -34.4386279 -0.121347E-05  0.497E-03    3.19       4.4  T
   6    -34.4386281 -0.137482E-06  0.228E-03    3.19       9.6  T
   7    -34.4386281 -0.201576E-07  0.854E-04    3.19      25.6  T
   8    -34.4386281 -0.553710E-08  0.387E-04    3.19      56.4  T
     SCC iter.                  ...        0 min,  0.008 sec
     gradient                   ...        0 min,  0.003 sec
 * total energy  :   -34.0421873 Eh     change       -0.5469246E-02 Eh
   gradient norm :     0.0332034 Eh/α   predicted    -0.4258385E-02 ( -22.14%)
   displ. norm   :     0.2262806 α      lambda       -0.2409585E-02
   maximum displ.:     0.1326529 α      in ANC's #8, #4, #11, ...

........................................................................
.............................. CYCLE    3 ..............................
........................................................................

 iter      E             dE          RMSdq      gap      omega  full diag
   1    -34.4503070 -0.344503E+02  0.161E-01    3.36       0.0  T
   2    -34.4504822 -0.175204E-03  0.107E-01    3.38       1.0  T
   3    -34.4505228 -0.406115E-04  0.570E-02    3.38       1.0  T
   4    -34.4505241 -0.121160E-05  0.948E-03    3.38       2.3  T
   5    -34.4505253 -0.123377E-05  0.336E-03    3.38       6.5  T
   6    -34.4505254 -0.777624E-07  0.175E-03    3.38      12.4  T
   7    -34.4505254 -0.765532E-08  0.734E-04    3.38      29.7  T
   8    -34.4505254 -0.411431E-08  0.263E-04    3.38      83.0  T
     SCC iter.                  ...        0 min,  0.007 sec
     gradient                   ...        0 min,  0.002 sec
 * total energy  :   -34.0434128 Eh     change       -0.1225519E-02 Eh
   gradient norm :     0.0073375 Eh/α   predicted    -0.1266998E-02 (   3.38%)
   displ. norm   :     0.0976499 α      lambda       -0.2332608E-03
   maximum displ.:     0.0507641 α      in ANC's #2, #4, #1, ...

........................................................................
.............................. CYCLE    4 ..............................
........................................................................

 iter      E             dE          RMSdq      gap      omega  full diag
   1    -34.4495904 -0.344496E+02  0.599E-02    3.39       0.0  T
   2    -34.4495926 -0.225551E-05  0.354E-02    3.39       1.0  T
   3    -34.4495910  0.160555E-05  0.116E-02    3.39       1.9  T
   4    -34.4495934 -0.237710E-05  0.212E-03    3.39      10.3  T
   5    -34.4495934 -0.275272E-07  0.108E-03    3.39      20.2  T
   6    -34.4495934 -0.259584E-08  0.489E-04    3.39      44.6  T
   7    -34.4495934 -0.183678E-08  0.191E-04    3.39     114.2  T
     SCC iter.                  ...        0 min,  0.009 sec
     gradient                   ...        0 min,  0.002 sec
 * total energy  :   -34.0435600 Eh     change       -0.1471833E-03 Eh
   gradient norm :     0.0042025 Eh/α   predicted    -0.1177569E-03 ( -19.99%)
   displ. norm   :     0.1140062 α      lambda       -0.1274696E-03
   maximum displ.:     0.0781017 α      in ANC's #2, #1, #4, ...

........................................................................
.............................. CYCLE    5 ..............................
........................................................................

 iter      E             dE          RMSdq      gap      omega  full diag
   1    -34.4486097 -0.344486E+02  0.528E-02    3.40       0.0  T
   2    -34.4486106 -0.953567E-06  0.312E-02    3.40       1.0  T
   3    -34.4486096  0.976459E-06  0.894E-03    3.39       2.4  T
   4    -34.4486110 -0.135604E-05  0.155E-03    3.40      14.1  T
   5    -34.4486110 -0.492506E-08  0.822E-04    3.40      26.5  T
   6    -34.4486110 -0.145936E-08  0.275E-04    3.40      79.4  T
     SCC iter.                  ...        0 min,  0.007 sec
     gradient                   ...        0 min,  0.002 sec
 * total energy  :   -34.0436504 Eh     change       -0.9041645E-04 Eh
   gradient norm :     0.0033385 Eh/α   predicted    -0.6458232E-04 ( -28.57%)
   displ. norm   :     0.1211379 α      lambda       -0.8410795E-04
   maximum displ.:     0.0824729 α      in ANC's #2, #1, #3, ...

........................................................................
.............................. CYCLE    6 ..............................
........................................................................

 iter      E             dE          RMSdq      gap      omega  full diag
   1    -34.4484360 -0.344484E+02  0.498E-02    3.40       0.0  T
   2    -34.4484367 -0.782731E-06  0.291E-02    3.40       1.0  T
   3    -34.4484365  0.217633E-06  0.574E-03    3.40       3.8  T
   4    -34.4484370 -0.423062E-06  0.139E-03    3.40      15.7  T
   5    -34.4484370 -0.300834E-08  0.813E-04    3.40      26.8  T
   6    -34.4484370 -0.394783E-08  0.223E-04    3.40      98.0  T
     SCC iter.                  ...        0 min,  0.006 sec
     gradient                   ...        0 min,  0.002 sec
 * total energy  :   -34.0437152 Eh     change       -0.6472885E-04 Eh
   gradient norm :     0.0033656 Eh/α   predicted    -0.4267132E-04 ( -34.08%)
   displ. norm   :     0.1499584 α      lambda       -0.8126627E-04
   maximum displ.:     0.0988337 α      in ANC's #2, #1, #3, ...

........................................................................
.............................. CYCLE    7 ..............................
........................................................................

 iter      E             dE          RMSdq      gap      omega  full diag
   1    -34.4485245 -0.344485E+02  0.599E-02    3.40       0.0  T
   2    -34.4485250 -0.561275E-06  0.349E-02    3.40       1.0  T
   3    -34.4485249  0.163091E-06  0.488E-03    3.40       4.5  T
   4    -34.4485253 -0.383127E-06  0.169E-03    3.40      12.9  T
   5    -34.4485253 -0.570386E-08  0.745E-04    3.40      29.3  T
   6    -34.4485253 -0.269721E-08  0.296E-04    3.40      73.6  T
     SCC iter.                  ...        0 min,  0.005 sec
     gradient                   ...        0 min,  0.002 sec
 * total energy  :   -34.0437772 Eh     change       -0.6206791E-04 Eh
   gradient norm :     0.0031328 Eh/α   predicted    -0.4155106E-04 ( -33.06%)
   displ. norm   :     0.1654012 α      lambda       -0.6801917E-04
   maximum displ.:     0.1056351 α      in ANC's #2, #1, #3, ...

........................................................................
.............................. CYCLE    8 ..............................
........................................................................

 iter      E             dE          RMSdq      gap      omega  full diag
   1    -34.4487717 -0.344488E+02  0.652E-02    3.40       0.0  T
   2    -34.4487727 -0.979434E-06  0.378E-02    3.40       1.0  T
   3    -34.4487722  0.557940E-06  0.718E-03    3.40       3.0  T
   4    -34.4487731 -0.907830E-06  0.201E-03    3.40      10.8  T
   5    -34.4487731 -0.930812E-08  0.921E-04    3.40      23.7  T
   6    -34.4487731 -0.217138E-08  0.403E-04    3.40      54.2  T
     SCC iter.                  ...        0 min,  0.006 sec
     gradient                   ...        0 min,  0.002 sec
 * total energy  :   -34.0438263 Eh     change       -0.4909778E-04 Eh
   gradient norm :     0.0024025 Eh/α   predicted    -0.3494034E-04 ( -28.84%)
   displ. norm   :     0.1397753 α      lambda       -0.4089900E-04
   maximum displ.:     0.0870743 α      in ANC's #2, #1, #5, ...

........................................................................
.............................. CYCLE    9 ..............................
........................................................................

 iter      E             dE          RMSdq      gap      omega  full diag
   1    -34.4489781 -0.344490E+02  0.576E-02    3.40       0.0  T
   2    -34.4489789 -0.839501E-06  0.333E-02    3.40       1.0  T
   3    -34.4489786  0.323055E-06  0.596E-03    3.40       3.7  T
   4    -34.4489792 -0.572721E-06  0.181E-03    3.40      12.0  T
   5    -34.4489792 -0.147805E-07  0.887E-04    3.40      24.6  T
   6    -34.4489792 -0.222923E-08  0.309E-04    3.40      70.6  T
     SCC iter.                  ...        0 min,  0.005 sec
     gradient                   ...        0 min,  0.002 sec
 * total energy  :   -34.0438555 Eh     change       -0.2913410E-04 Eh
   gradient norm :     0.0014876 Eh/α   predicted    -0.2084957E-04 ( -28.44%)
   displ. norm   :     0.1761475 α      lambda       -0.2815969E-04
   maximum displ.:     0.1036687 α      in ANC's #1, #2, #5, ...

........................................................................
.............................. CYCLE   10 ..............................
........................................................................

 iter      E             dE          RMSdq      gap      omega  full diag
   1    -34.4493938 -0.344494E+02  0.747E-02    3.40       0.0  T
   2    -34.4493950 -0.118502E-05  0.430E-02    3.40       1.0  T
   3    -34.4493944  0.572367E-06  0.756E-03    3.40       2.9  T
   4    -34.4493954 -0.101151E-05  0.234E-03    3.40       9.3  T
   5    -34.4493954 -0.969992E-08  0.102E-03    3.40      21.5  T
   6    -34.4493954 -0.394589E-08  0.402E-04    3.40      54.3  T
   7    -34.4493954 -0.174603E-08  0.134E-04    3.40     162.7  T
     SCC iter.                  ...        0 min,  0.006 sec
     gradient                   ...        0 min,  0.002 sec
 * total energy  :   -34.0438809 Eh     change       -0.2545172E-04 Eh
   gradient norm :     0.0022546 Eh/α   predicted    -0.1427506E-04 ( -43.91%)
   displ. norm   :     0.0660401 α      lambda       -0.1874554E-04
   maximum displ.:     0.0375850 α      in ANC's #1, #5, #2, ...

........................................................................
.............................. CYCLE   11 ..............................
........................................................................

 iter      E             dE          RMSdq      gap      omega  full diag
   1    -34.4494886 -0.344495E+02  0.308E-02    3.40       0.0  T
   2    -34.4494890 -0.336857E-06  0.178E-02    3.40       1.2  T
   3    -34.4494890  0.274478E-07  0.300E-03    3.40       7.3  T
   4    -34.4494891 -0.101030E-06  0.892E-04    3.40      24.5  T
   5    -34.4494891 -0.120236E-08  0.388E-04    3.40      56.2  T
     SCC iter.                  ...        0 min,  0.005 sec
     gradient                   ...        0 min,  0.002 sec
 * total energy  :   -34.0438962 Eh     change       -0.1527964E-04 Eh
   gradient norm :     0.0015308 Eh/α   predicted    -0.9416295E-05 ( -38.37%)
   displ. norm   :     0.2432666 α      lambda       -0.4033026E-04
   maximum displ.:     0.1398887 α      in ANC's #5, #1, #2, ...

........................................................................
.............................. CYCLE   12 ..............................
........................................................................

 iter      E             dE          RMSdq      gap      omega  full diag
   1    -34.4487682 -0.344488E+02  0.113E-01    3.39       0.0  T
   2    -34.4487701 -0.189429E-05  0.652E-02    3.39       1.0  T
   3    -34.4487704 -0.340475E-06  0.660E-03    3.38       3.3  T
   4    -34.4487708 -0.360278E-06  0.337E-03    3.38       6.5  T
   5    -34.4487708 -0.358220E-07  0.105E-03    3.39      20.9  T
   6    -34.4487708 -0.560722E-08  0.350E-04    3.38      62.4  T
   7    -34.4487708 -0.125686E-08  0.178E-04    3.38     122.7  T
     SCC iter.                  ...        0 min,  0.006 sec
     gradient                   ...        0 min,  0.002 sec
 * total energy  :   -34.0439233 Eh     change       -0.2712105E-04 Eh
   gradient norm :     0.0017644 Eh/α   predicted    -0.2069854E-04 ( -23.68%)
   displ. norm   :     0.0511168 α      lambda       -0.1314007E-04
   maximum displ.:     0.0381971 α      in ANC's #1, #2, #6, ...

........................................................................
.............................. CYCLE   13 ..............................
........................................................................

 iter      E             dE          RMSdq      gap      omega  full diag
   1    -34.4501727 -0.344502E+02  0.234E-02    3.39       0.0  T
   2    -34.4501730 -0.254071E-06  0.135E-02    3.39       1.6  T
   3    -34.4501728  0.192162E-06  0.399E-03    3.39       5.5  T
   4    -34.4501731 -0.255556E-06  0.889E-04    3.39      24.5  T
   5    -34.4501731 -0.690411E-08  0.437E-04    3.39      50.0  T
     SCC iter.                  ...        0 min,  0.005 sec
     gradient                   ...        0 min,  0.002 sec
 * total energy  :   -34.0439324 Eh     change       -0.9057563E-05 Eh
   gradient norm :     0.0015445 Eh/α   predicted    -0.6583316E-05 ( -27.32%)
   displ. norm   :     0.0903945 α      lambda       -0.1910152E-04
   maximum displ.:     0.0616876 α      in ANC's #2, #5, #4, ...

........................................................................
.............................. CYCLE   14 ..............................
........................................................................

 iter      E             dE          RMSdq      gap      omega  full diag
   1    -34.4493491 -0.344493E+02  0.311E-02    3.39       0.0  T
   2    -34.4493493 -0.207616E-06  0.181E-02    3.38       1.2  T
   3    -34.4493492  0.627952E-07  0.290E-03    3.38       7.5  T
   4    -34.4493494 -0.134017E-06  0.942E-04    3.38      23.2  T
   5    -34.4493494 -0.422844E-09  0.423E-04    3.38      51.5  T
     SCC iter.                  ...        0 min,  0.006 sec
     gradient                   ...        0 min,  0.003 sec
 * total energy  :   -34.0439556 Eh     change       -0.2323570E-04 Eh
   gradient norm :     0.0011813 Eh/α   predicted    -0.9590756E-05 ( -58.72%)
   displ. norm   :     0.3728327 α      lambda       -0.5582641E-04
   maximum displ.:     0.2429154 α      in ANC's #2, #5, #6, ...

........................................................................
.............................. CYCLE   15 ..............................
........................................................................

 iter      E             dE          RMSdq      gap      omega  full diag
   1    -34.4457495 -0.344457E+02  0.135E-01    3.37       0.0  T
   2    -34.4457530 -0.352798E-05  0.781E-02    3.36       1.0  T
   3    -34.4457522  0.833241E-06  0.125E-02    3.36       1.7  T
   4    -34.4457544 -0.218372E-05  0.453E-03    3.36       4.8  T
   5    -34.4457544 -0.221402E-07  0.175E-03    3.36      12.5  T
   6    -34.4457544 -0.350339E-07  0.450E-04    3.36      48.4  T
   7    -34.4457544 -0.884434E-09  0.219E-04    3.36      99.6  T
     SCC iter.                  ...        0 min,  0.009 sec
     gradient                   ...        0 min,  0.002 sec
 * total energy  :   -34.0439663 Eh     change       -0.1068029E-04 Eh
   gradient norm :     0.0076282 Eh/α   predicted    -0.2964643E-04 ( 177.58%)
   displ. norm   :     0.1042036 α      lambda       -0.7519780E-04
   maximum displ.:     0.0656416 α      in ANC's #5, #2, #1, ...

........................................................................
.............................. CYCLE   16 ..............................
........................................................................

 iter      E             dE          RMSdq      gap      omega  full diag
   1    -34.4476392 -0.344476E+02  0.440E-02    3.36       0.0  T
   2    -34.4476396 -0.441806E-06  0.255E-02    3.36       1.0  T
   3    -34.4476396  0.760232E-07  0.414E-03    3.37       5.3  T
   4    -34.4476398 -0.211983E-06  0.159E-03    3.37      13.8  T
   5    -34.4476398 -0.102080E-07  0.668E-04    3.37      32.6  T
   6    -34.4476398 -0.893607E-09  0.186E-04    3.37     117.4  T
     SCC iter.                  ...        0 min,  0.007 sec
     gradient                   ...        0 min,  0.003 sec
 * total energy  :   -34.0440096 Eh     change       -0.4325501E-04 Eh
   gradient norm :     0.0036646 Eh/α   predicted    -0.3800926E-04 ( -12.13%)
   displ. norm   :     0.0568478 α      lambda       -0.2885875E-04
   maximum displ.:     0.0302358 α      in ANC's #6, #1, #2, ...

........................................................................
.............................. CYCLE   17 ..............................
........................................................................

 iter      E             dE          RMSdq      gap      omega  full diag
   1    -34.4482359 -0.344482E+02  0.181E-02    3.37       0.0  T
   2    -34.4482360 -0.123415E-06  0.105E-02    3.37       2.1  T
   3    -34.4482359  0.661461E-07  0.276E-03    3.37       7.9  T
   4    -34.4482360 -0.974403E-07  0.546E-04    3.37      40.0  T
   5    -34.4482360 -0.948980E-09  0.268E-04    3.37      81.3  T
     SCC iter.                  ...        0 min,  0.005 sec
     gradient                   ...        0 min,  0.002 sec
 * total energy  :   -34.0440347 Eh     change       -0.2518274E-04 Eh
   gradient norm :     0.0024920 Eh/α   predicted    -0.1447957E-04 ( -42.50%)
   displ. norm   :     0.3093267 α      lambda       -0.1025335E-03
   maximum displ.:     0.1700847 α      in ANC's #2, #6, #5, ...

........................................................................
.............................. CYCLE   18 ..............................
........................................................................

 iter      E             dE          RMSdq      gap      omega  full diag
   1    -34.4484519 -0.344485E+02  0.102E-01    3.36       0.0  T
   2    -34.4484544 -0.254613E-05  0.590E-02    3.36       1.0  T
   3    -34.4484530  0.139560E-05  0.121E-02    3.35       1.8  T
   4    -34.4484553 -0.228853E-05  0.307E-03    3.35       7.1  T
   5    -34.4484553 -0.610377E-08  0.138E-03    3.35      15.8  T
   6    -34.4484553 -0.106382E-07  0.500E-04    3.35      43.6  T
   7    -34.4484553 -0.313990E-08  0.167E-04    3.35     130.9  T
     SCC iter.                  ...        0 min,  0.006 sec
     gradient                   ...        0 min,  0.003 sec
 * total energy  :   -34.0441154 Eh     change       -0.8066464E-04 Eh
   gradient norm :     0.0021737 Eh/α   predicted    -0.5619986E-04 ( -30.33%)
   displ. norm   :     0.4263155 α      lambda       -0.9031556E-04
   maximum displ.:     0.2548326 α      in ANC's #2, #5, #6, ...

........................................................................
.............................. CYCLE   19 ..............................
........................................................................

 iter      E             dE          RMSdq      gap      omega  full diag
   1    -34.4446455 -0.344446E+02  0.155E-01    3.34       0.0  T
   2    -34.4446513 -0.580371E-05  0.894E-02    3.33       1.0  T
   3    -34.4446474  0.389535E-05  0.192E-02    3.33       1.1  T
   4    -34.4446536 -0.617668E-05  0.526E-03    3.33       4.1  T
   5    -34.4446536 -0.239965E-07  0.246E-03    3.33       8.9  T
   6    -34.4446536 -0.510571E-07  0.647E-04    3.33      33.7  T
   7    -34.4446536 -0.240644E-08  0.272E-04    3.33      80.3  T
     SCC iter.                  ...        0 min,  0.006 sec
     gradient                   ...        0 min,  0.002 sec
 * total energy  :   -34.0440925 Eh     change        0.2291922E-04 Eh
   gradient norm :     0.0091571 Eh/α   predicted    -0.5340565E-04 (-333.02%)
   displ. norm   :     0.2081160 α      lambda       -0.1872995E-03
   maximum displ.:     0.1294965 α      in ANC's #2, #5, #6, ...

........................................................................
.............................. CYCLE   20 ..............................
........................................................................

 iter      E             dE          RMSdq      gap      omega  full diag
   1    -34.4487598 -0.344488E+02  0.781E-02    3.35       0.0  T
   2    -34.4487627 -0.285488E-05  0.451E-02    3.35       1.0  T
   3    -34.4487603  0.234372E-05  0.143E-02    3.35       1.5  T
   4    -34.4487635 -0.321092E-05  0.320E-03    3.35       6.8  T
   5    -34.4487636 -0.624230E-07  0.151E-03    3.35      14.4  T
   6    -34.4487636 -0.514523E-08  0.572E-04    3.35      38.1  T
   7    -34.4487636 -0.236057E-08  0.147E-04    3.35     148.8  T
     SCC iter.                  ...        0 min,  0.007 sec
     gradient                   ...        0 min,  0.002 sec
 * total energy  :   -34.0441641 Eh     change       -0.7164246E-04 Eh
   gradient norm :     0.0017903 Eh/α   predicted    -0.9760530E-04 (  36.24%)
   displ. norm   :     0.1136705 α      lambda       -0.1928150E-04
   maximum displ.:     0.0722618 α      in ANC's #2, #5, #6, ...
 * RMSD in coord.:     0.4359314 α      energy gain  -0.7446045E-02 Eh

generating ANC from exact Hessian ...
Using Lindh-Hessian (1995)
 Shifting diagonal of input Hessian by    8.4165956746223188E-003
 Lowest  eigenvalues of input Hessian
    0.000000    0.000000    0.000000    0.000000    0.000000    0.000000
    0.010000    0.011428    0.012932    0.016783    0.019857    0.020491
    0.021439    0.024496    0.028759    0.039529    0.040278    0.046392
 Highest eigenvalues
    1.640842    1.756375    1.911386    1.949590    2.065414    2.356304


........................................................................
.............................. CYCLE   21 ..............................
........................................................................

 iter      E             dE          RMSdq      gap      omega  full diag
   1    -34.4484674 -0.344485E+02  0.461E-02    3.35       0.0  T
   2    -34.4484679 -0.522306E-06  0.266E-02    3.35       1.0  T
   3    -34.4484679 -0.123431E-07  0.363E-03    3.34       6.0  T
   4    -34.4484680 -0.152490E-06  0.140E-03    3.34      15.6  T
   5    -34.4484681 -0.185375E-08  0.508E-04    3.34      43.0  T
   6    -34.4484681 -0.109336E-08  0.163E-04    3.34     134.1  T
     SCC iter.                  ...        0 min,  0.005 sec
     gradient                   ...        0 min,  0.002 sec
 * total energy  :   -34.0441905 Eh     change       -0.2641718E-04 Eh
   gradient norm :     0.0020404 Eh/α   predicted     0.0000000E+00 (-100.00%)
   displ. norm   :     0.0285622 α      lambda       -0.1809556E-04
   maximum displ.:     0.0219077 α      in ANC's #1, #5, #4, ...

........................................................................
.............................. CYCLE   22 ..............................
........................................................................

 iter      E             dE          RMSdq      gap      omega  full diag
   1    -34.4490836 -0.344491E+02  0.110E-02    3.35       0.0  T
   2    -34.4490837 -0.116993E-06  0.638E-03    3.35       3.4  T
   3    -34.4490836  0.452799E-07  0.243E-03    3.35       9.0  T
   4    -34.4490837 -0.606459E-07  0.557E-04    3.35      39.2  T
   5    -34.4490837 -0.433991E-08  0.199E-04    3.35     109.5  T
     SCC iter.                  ...        0 min,  0.005 sec
     gradient                   ...        0 min,  0.002 sec
 * total energy  :   -34.0442052 Eh     change       -0.1464762E-04 Eh
   gradient norm :     0.0007980 Eh/α   predicted    -0.9087460E-05 ( -37.96%)
   displ. norm   :     0.1008998 α      lambda       -0.2632617E-04
   maximum displ.:     0.0711790 α      in ANC's #1, #5, #4, ...

........................................................................
.............................. CYCLE   23 ..............................
........................................................................

 iter      E             dE          RMSdq      gap      omega  full diag
   1    -34.4498781 -0.344499E+02  0.332E-02    3.35       0.0  T
   2    -34.4498787 -0.681432E-06  0.194E-02    3.35       1.1  T
   3    -34.4498783  0.439601E-06  0.649E-03    3.35       3.4  T
   4    -34.4498789 -0.570998E-06  0.136E-03    3.35      16.0  T
   5    -34.4498789 -0.213353E-07  0.574E-04    3.35      38.0  T
   6    -34.4498789 -0.605596E-09  0.229E-04    3.35      95.1  T
     SCC iter.                  ...        0 min,  0.006 sec
     gradient                   ...        0 min,  0.002 sec
 * total energy  :   -34.0442333 Eh     change       -0.2809944E-04 Eh
   gradient norm :     0.0018579 Eh/α   predicted    -0.1322346E-04 ( -52.94%)
   displ. norm   :     0.1415271 α      lambda       -0.2761092E-04
   maximum displ.:     0.0950114 α      in ANC's #1, #5, #2, ...

........................................................................
.............................. CYCLE   24 ..............................
........................................................................

 iter      E             dE          RMSdq      gap      omega  full diag
   1    -34.4494494 -0.344494E+02  0.432E-02    3.35       0.0  T
   2    -34.4494498 -0.398231E-06  0.254E-02    3.34       1.0  T
   3    -34.4494496  0.185421E-06  0.443E-03    3.34       4.9  T
   4    -34.4494499 -0.299699E-06  0.133E-03    3.34      16.5  T
   5    -34.4494499 -0.771553E-08  0.681E-04    3.34      32.0  T
   6    -34.4494499 -0.206272E-08  0.206E-04    3.34     105.8  T
     SCC iter.                  ...        0 min,  0.006 sec
     gradient                   ...        0 min,  0.002 sec
 * total energy  :   -34.0442700 Eh     change       -0.3674499E-04 Eh
   gradient norm :     0.0020186 Eh/α   predicted    -0.1392888E-04 ( -62.09%)
   displ. norm   :     0.2368509 α      lambda       -0.6330833E-04
   maximum displ.:     0.1526034 α      in ANC's #1, #5, #2, ...

........................................................................
.............................. CYCLE   25 ..............................
........................................................................

 iter      E             dE          RMSdq      gap      omega  full diag
   1    -34.4477996 -0.344478E+02  0.715E-02    3.34       0.0  T
   2    -34.4478004 -0.760284E-06  0.419E-02    3.34       1.0  T
   3    -34.4478004 -0.632060E-07  0.468E-03    3.34       4.7  T
   4    -34.4478006 -0.218689E-06  0.197E-03    3.34      11.1  T
   5    -34.4478006 -0.332614E-08  0.590E-04    3.34      37.0  T
   6    -34.4478006 -0.238314E-08  0.225E-04    3.34      97.0  T
     SCC iter.                  ...        0 min,  0.007 sec
     gradient                   ...        0 min,  0.003 sec
 * total energy  :   -34.0443051 Eh     change       -0.3503398E-04 Eh
   gradient norm :     0.0039285 Eh/α   predicted    -0.3343021E-04 (  -4.58%)
   displ. norm   :     0.0150759 α      lambda       -0.2158613E-04
   maximum displ.:     0.0081684 α      in ANC's #3, #4, #1, ...

........................................................................
.............................. CYCLE   26 ..............................
........................................................................

 iter      E             dE          RMSdq      gap      omega  full diag
   1    -34.4482013 -0.344482E+02  0.873E-03    3.33       0.0  T
   2    -34.4482014 -0.713895E-07  0.508E-03    3.34       4.3  T
   3    -34.4482014  0.437870E-07  0.228E-03    3.34       9.6  T
   4    -34.4482014 -0.647400E-07  0.466E-04    3.34      46.8  T
   5    -34.4482014 -0.199130E-08  0.202E-04    3.34     108.2  T
     SCC iter.                  ...        0 min,  0.005 sec
     gradient                   ...        0 min,  0.003 sec
 * total energy  :   -34.0443228 Eh     change       -0.1768505E-04 Eh
   gradient norm :     0.0025658 Eh/α   predicted    -0.1079652E-04 ( -38.95%)
   displ. norm   :     0.1768958 α      lambda       -0.5815835E-04
   maximum displ.:     0.1159547 α      in ANC's #1, #5, #2, ...

........................................................................
.............................. CYCLE   27 ..............................
........................................................................

 iter      E             dE          RMSdq      gap      omega  full diag
   1    -34.4480705 -0.344481E+02  0.543E-02    3.33       0.0  T
   2    -34.4480713 -0.778045E-06  0.318E-02    3.33       1.0  T
   3    -34.4480699  0.140796E-05  0.967E-03    3.33       2.3  T
   4    -34.4480717 -0.176972E-05  0.166E-03    3.33      13.2  T
   5    -34.4480717 -0.827414E-08  0.825E-04    3.33      26.5  T
   6    -34.4480717 -0.149716E-08  0.300E-04    3.33      72.8  T
     SCC iter.                  ...        0 min,  0.006 sec
     gradient                   ...        0 min,  0.003 sec
 * total energy  :   -34.0443578 Eh     change       -0.3506148E-04 Eh
   gradient norm :     0.0026744 Eh/α   predicted    -0.2998955E-04 ( -14.47%)
   displ. norm   :     0.0511751 α      lambda       -0.1916537E-04
   maximum displ.:     0.0294948 α      in ANC's #1, #5, #3, ...

........................................................................
.............................. CYCLE   28 ..............................
........................................................................

 iter      E             dE          RMSdq      gap      omega  full diag
   1    -34.4488443 -0.344488E+02  0.174E-02    3.34       0.0  T
   2    -34.4488444 -0.137239E-06  0.102E-02    3.34       2.1  T
   3    -34.4488443  0.148008E-06  0.311E-03    3.34       7.0  T
   4    -34.4488445 -0.193125E-06  0.682E-04    3.34      32.0  T
   5    -34.4488445 -0.317195E-08  0.317E-04    3.34      68.9  T
     SCC iter.                  ...        0 min,  0.005 sec
     gradient                   ...        0 min,  0.002 sec
 * total energy  :   -34.0443709 Eh     change       -0.1308295E-04 Eh
   gradient norm :     0.0017629 Eh/α   predicted    -0.9608567E-05 ( -26.56%)
   displ. norm   :     0.1923971 α      lambda       -0.1899010E-04
   maximum displ.:     0.1186364 α      in ANC's #1, #5, #2, ...

........................................................................
.............................. CYCLE   29 ..............................
........................................................................

 iter      E             dE          RMSdq      gap      omega  full diag
   1    -34.4482885 -0.344483E+02  0.546E-02    3.34       0.0  T
   2    -34.4482890 -0.511308E-06  0.320E-02    3.34       1.0  T
   3    -34.4482887  0.245340E-06  0.522E-03    3.34       4.2  T
   4    -34.4482892 -0.445488E-06  0.162E-03    3.34      13.5  T
   5    -34.4482892 -0.372990E-08  0.662E-04    3.34      33.0  T
   6    -34.4482892 -0.174231E-08  0.247E-04    3.34      88.5  T
     SCC iter.                  ...        0 min,  0.005 sec
     gradient                   ...        0 min,  0.002 sec
 * total energy  :   -34.0443767 Eh     change       -0.5821212E-05 Eh
   gradient norm :     0.0034542 Eh/α   predicted    -0.9728705E-05 (  67.13%)
   displ. norm   :     0.0426933 α      lambda       -0.2278746E-04
   maximum displ.:     0.0297967 α      in ANC's #1, #2, #5, ...

........................................................................
.............................. CYCLE   30 ..............................
........................................................................

 iter      E             dE          RMSdq      gap      omega  full diag
   1    -34.4492826 -0.344493E+02  0.172E-02    3.34       0.0  T
   2    -34.4492828 -0.276215E-06  0.989E-03    3.34       2.2  T
   3    -34.4492827  0.133222E-06  0.383E-03    3.34       5.7  T
   4    -34.4492829 -0.182008E-06  0.926E-04    3.34      23.6  T
   5    -34.4492829 -0.984831E-08  0.338E-04    3.34      64.5  T
     SCC iter.                  ...        0 min,  0.005 sec
     gradient                   ...        0 min,  0.003 sec
 * total energy  :   -34.0443900 Eh     change       -0.1330605E-04 Eh
   gradient norm :     0.0017224 Eh/α   predicted    -0.1141536E-04 ( -14.21%)
   displ. norm   :     0.0277496 α      lambda       -0.8397209E-05
   maximum displ.:     0.0165176 α      in ANC's #5, #3, #4, ...

........................................................................
.............................. CYCLE   31 ..............................
........................................................................

 iter      E             dE          RMSdq      gap      omega  full diag
   1    -34.4492898 -0.344493E+02  0.121E-02    3.34       0.0  T
   2    -34.4492901 -0.260251E-06  0.737E-03    3.33       3.0  T
   3    -34.4492900  0.868786E-07  0.356E-03    3.33       6.1  T
   4    -34.4492902 -0.157727E-06  0.777E-04    3.33      28.1  T
   5    -34.4492902 -0.712836E-08  0.211E-04    3.33     103.3  T
     SCC iter.                  ...        0 min,  0.005 sec
     gradient                   ...        0 min,  0.002 sec
 * total energy  :   -34.0443986 Eh     change       -0.8605433E-05 Eh
   gradient norm :     0.0006143 Eh/α   predicted    -0.4200903E-05 ( -51.18%)
   displ. norm   :     0.0742455 α      lambda       -0.7627211E-05
   maximum displ.:     0.0547718 α      in ANC's #5, #7, #1, ...

........................................................................
.............................. CYCLE   32 ..............................
........................................................................

 iter      E             dE          RMSdq      gap      omega  full diag
   1    -34.4490354 -0.344490E+02  0.206E-02    3.33       0.0  T
   2    -34.4490356 -0.132354E-06  0.124E-02    3.33       1.8  T
   3    -34.4490353  0.200593E-06  0.349E-03    3.33       6.3  T
   4    -34.4490356 -0.248638E-06  0.667E-04    3.33      32.7  T
   5    -34.4490356 -0.254961E-08  0.313E-04    3.33      69.8  T
     SCC iter.                  ...        0 min,  0.005 sec
     gradient                   ...        0 min,  0.002 sec
 * total energy  :   -34.0444069 Eh     change       -0.8258814E-05 Eh
   gradient norm :     0.0008654 Eh/α   predicted    -0.3823958E-05 ( -53.70%)
   displ. norm   :     0.1055866 α      lambda       -0.7128991E-05
   maximum displ.:     0.0784797 α      in ANC's #5, #7, #2, ...

........................................................................
.............................. CYCLE   33 ..............................
........................................................................

 iter      E             dE          RMSdq      gap      omega  full diag
   1    -34.4487771 -0.344488E+02  0.275E-02    3.33       0.0  T
   2    -34.4487772 -0.877764E-07  0.164E-02    3.33       1.3  T
   3    -34.4487772  0.719703E-08  0.175E-03    3.33      12.5  T
   4    -34.4487773 -0.412265E-07  0.744E-04    3.33      29.3  T
   5    -34.4487773 -0.165522E-08  0.271E-04    3.33      80.6  T
     SCC iter.                  ...        0 min,  0.005 sec
     gradient                   ...        0 min,  0.002 sec
 * total energy  :   -34.0444130 Eh     change       -0.6123460E-05 Eh
   gradient norm :     0.0014176 Eh/α   predicted    -0.3583084E-05 ( -41.49%)
   displ. norm   :     0.0449708 α      lambda       -0.4914138E-05
   maximum displ.:     0.0318944 α      in ANC's #5, #7, #6, ...

........................................................................
.............................. CYCLE   34 ..............................
........................................................................

 iter      E             dE          RMSdq      gap      omega  full diag
   1    -34.4490859 -0.344491E+02  0.123E-02    3.33       0.0  T
   2    -34.4490860 -0.433226E-07  0.731E-03    3.33       3.0  T
   3    -34.4490859  0.545841E-07  0.186E-03    3.33      11.8  T
   4    -34.4490860 -0.686325E-07  0.409E-04    3.33      53.4  T
   5    -34.4490860 -0.120715E-08  0.188E-04    3.33     115.9  T
     SCC iter.                  ...        0 min,  0.005 sec
     gradient                   ...        0 min,  0.002 sec
 * total energy  :   -34.0444179 Eh     change       -0.4890975E-05 Eh
   gradient norm :     0.0008183 Eh/α   predicted    -0.2459924E-05 ( -49.70%)
   displ. norm   :     0.0451121 α      lambda       -0.2831406E-05
   maximum displ.:     0.0312883 α      in ANC's #5, #7, #6, ...

   *** GEOMETRY OPTIMIZATION CONVERGED AFTER 34 ITERATIONS ***

------------------------------------------------------------------------
 total energy gain   :        -0.0076998 Eh       -4.8317 kcal/mol
 total RMSD          :         0.6332332 a0        0.3351 Å
 total power (kW/mol):        -0.5945849 (step)  -55.1183 (real)
------------------------------------------------------------------------

 ANCopt (total)                0 d,  0 h,  0 min,  0.367 sec
 optimizer setup                ...        0 min,  0.000 sec (  0.066%)
 model hessian                  ...        0 min,  0.009 sec (  2.471%)
 ANC generation                 ...        0 min,  0.001 sec (  0.206%)
 coordinate transformation      ...        0 min,  0.000 sec (  0.096%)
 single point calculation       ...        0 min,  0.340 sec ( 92.590%)
 optimization log               ...        0 min,  0.007 sec (  1.815%)
 hessian update                 ...        0 min,  0.004 sec (  0.984%)
 rational function              ...        0 min,  0.005 sec (  1.228%)

================
 final structure:
================
21
 xtb: 6.7.1 (edcfbbe)
C            4.07523369227532       -0.41365786359052        0.08016840839837
C            2.59811781788078       -0.33258628241799        0.16947468921558
O            1.92603024283960       -1.37584383943587        0.68515876508269
N            0.60102391443219       -1.10870714750173        0.68137361818725
C            0.44006623492023        0.08875588664419        0.16806543830104
C           -0.82394430080263        0.84714274834432       -0.03594541596167
O           -0.74082716298043        2.01757308742569       -0.38234580061942
N           -2.01505695642910        0.24228960153267        0.15098507099582
C           -2.24695913259202       -1.11922181316499        0.55814069843320
C           -3.21805647281507        1.01098467112170       -0.07442780926056
C            1.70429764201567        0.63775701562327       -0.17833562015265
H            4.36926932273286       -1.32709395869170       -0.43382122956040
H            4.51053784421335       -0.43566132505324        1.07850113839899
H            4.45826076171581        0.44744551235647       -0.45835344594872
H           -1.30345792830169       -1.63813651505158        0.69702619054156
H           -2.80449850692773       -1.13118877546793        1.49892191918035
H           -2.84330668280097       -1.63154886871867       -0.20190962404154
H           -3.81033615668021        1.06090427863135        0.84187127562713
H           -3.81907678234365        0.54620917511173       -0.85925154706180
H           -2.93495515158279        2.01613676281743       -0.37987159988156
H            1.87763776123022        1.59844764948548       -0.61194411987377

 Bond Distances (Angstroems)
 ---------------------------
C1-C2=1.4820         C1-H12=1.0886        C1-H13=1.0893        C1-H14=1.0855        C2-C1=1.4820         C2-O3=1.3439         
C2-C11=1.3644        O3-C2=1.3439         O3-N4=1.3517         N4-O3=1.3517         N4-C5=1.3127         C5-N4=1.3127         
C5-C6=1.4881         C5-C11=1.4212        C6-C5=1.4881         C6-O7=1.2234         C6-N8=1.3489         O7-C6=1.2234         
N8-C6=1.3489         N8-C9=1.4399         N8-C10=1.4453        C9-N8=1.4399         C9-H15=1.0857        C9-H16=1.0936        
C9-H17=1.0935        C10-N8=1.4453        C10-H18=1.0922       C10-H19=1.0923       C10-H20=1.0880       C11-C2=1.3644        
C11-C5=1.4212        C11-H21=1.0682       H12-C1=1.0886        H13-C1=1.0893        H14-C1=1.0855        H15-C9=1.0857        
H16-C9=1.0936        H17-C9=1.0935        H18-C10=1.0922       H19-C10=1.0923       H20-C10=1.0880       H21-C11=1.0682       
 C  H  Rav=1.0877 sigma=0.0071  Rmin=1.0682  Rmax=1.0936    10
 C  C  Rav=1.4389 sigma=0.0504  Rmin=1.3644  Rmax=1.4881     4
 N  C  Rav=1.3867 sigma=0.0574  Rmin=1.3127  Rmax=1.4453     4
 O  C  Rav=1.2837 sigma=0.0602  Rmin=1.2234  Rmax=1.3439     2
 O  N  Rav=1.3517 sigma=0.0000  Rmin=1.3517  Rmax=1.3517     1

 selected bond angles (degree)
 --------------------
H12-C1-C2=110.09               H13-C1-C2=110.13               H13-C1-H12=107.93              H14-C1-C2=109.77               
H14-C1-H12=109.64              H14-C1-H13=109.25              O3-C2-C1=118.63                C11-C2-C1=132.57               
C11-C2-O3=108.80               N4-O3-C2=109.62                C5-N4-O3=107.55                C6-C5-N4=128.51                
C11-C5-N4=109.79               C11-C5-C6=121.69               O7-C6-C5=117.95                N8-C6-C5=120.17                
N8-C6-O7=121.88                C9-N8-C6=127.26                C10-N8-C6=118.35               C10-N8-C9=114.39               
H15-C9-N8=110.37               H16-C9-N8=109.61               H16-C9-H15=109.13              H17-C9-N8=109.53               
H17-C9-H15=109.81              H17-C9-H16=108.35              H18-C10-N8=110.17              H19-C10-N8=110.10              
H19-C10-H18=108.90             H20-C10-N8=108.58              H20-C10-H18=109.54             H20-C10-H19=109.55             

 selected dihedral angles (degree)
 ---------------------------------
O3-C2-C1-H12= 52.68           O3-C2-C1-H13=293.79           O3-C2-C1-H14=173.46           C11-C2-C1-H12=232.51          
C11-C2-C1-H13=113.61          C11-C2-C1-H14=353.29          N4-O3-C2-C1=179.93            N4-O3-C2-C11=  0.07           
C5-N4-O3-C2=  0.05            C6-C5-N4-O3=180.95            C11-C5-N4-O3=359.85           O7-C6-C5-N4=171.26            
O7-C6-C5-C11=352.48           N8-C6-C5-N4=350.80            N8-C6-C5-C11=172.02           C9-N8-C6-C5=  0.64            
C9-N8-C6-O7=180.16            C10-N8-C6-C5=180.77           C10-N8-C6-O7=  0.28           H15-C9-N8-C6=359.43           
H15-C9-N8-C10=179.31          H16-C9-N8-C6=119.66           H16-C9-N8-C10=299.54          H17-C9-N8-C6=238.41           
H17-C9-N8-C10= 58.29          H18-C10-N8-C6=240.17          H18-C10-N8-C9= 60.29          H19-C10-N8-C6=120.05          
H19-C10-N8-C9=300.16          H20-C10-N8-C6=  0.13          H20-C10-N8-C9=180.24          
           -------------------------------------------------
          |                Final Singlepoint                |
           -------------------------------------------------

          ...................................................
          :                      SETUP                      :
          :.................................................:
          :  # basis functions                  54          :
          :  # atomic orbitals                  54          :
          :  # shells                           32          :
          :  # electrons                        60          :
          :  max. iterations                   250          :
          :  Hamiltonian                  GFN2-xTB          :
          :  restarted?                      false          :
          :  GBSA solvation                  false          :
          :  PC potential                    false          :
          :  electronic temp.          300.0000000     K    :
          :  accuracy                    1.0000000          :
          :  -> integral cutoff          0.2500000E+02      :
          :  -> integral neglect         0.1000000E-07      :
          :  -> SCF convergence          0.1000000E-05 Eh   :
          :  -> wf. convergence          0.1000000E-03 e    :
          :  Broyden damping             0.4000000          :
          :  net charge                          0          :
          :  unpaired electrons                  0          :
          ...................................................

 iter      E             dE          RMSdq      gap      omega  full diag
   1    -34.4490860 -0.344491E+02  0.816E-05    3.33       0.0  T
   2    -34.4490860 -0.407283E-10  0.487E-05    3.33     448.4  T
   3    -34.4490860 -0.197034E-10  0.278E-05    3.33     784.1  T

   *** convergence criteria satisfied after 3 iterations ***

         #    Occupation            Energy/Eh            Energy/eV
      -------------------------------------------------------------
         1        2.0000           -0.7622722             -20.7425
       ...           ...                  ...                  ...
        24        2.0000           -0.4760011             -12.9526
        25        2.0000           -0.4655202             -12.6675
        26        2.0000           -0.4444893             -12.0952
        27        2.0000           -0.4193450             -11.4110
        28        2.0000           -0.4120929             -11.2136
        29        2.0000           -0.3928388             -10.6897
        30        2.0000           -0.3884445             -10.5701 (HOMO)
        31                         -0.2661197              -7.2415 (LUMO)
        32                         -0.2139723              -5.8225
        33                         -0.1349525              -3.6722
        34                         -0.0264847              -0.7207
        35                          0.0040908               0.1113
       ...                                ...                  ...
        54                          0.6481950              17.6383
      -------------------------------------------------------------
                  HL-Gap            0.1223247 Eh            3.3286 eV
             Fermi-level           -0.3272821 Eh           -8.9058 eV

 SCC (total)                   0 d,  0 h,  0 min,  0.008 sec
 SCC setup                      ...        0 min,  0.000 sec (  3.164%)
 Dispersion                     ...        0 min,  0.000 sec (  4.971%)
 classical contributions        ...        0 min,  0.000 sec (  1.928%)
 integral evaluation            ...        0 min,  0.001 sec ( 13.091%)
 iterations                     ...        0 min,  0.004 sec ( 44.766%)
 molecular gradient             ...        0 min,  0.002 sec ( 28.686%)
 printout                       ...        0 min,  0.000 sec (  3.077%)

         :::::::::::::::::::::::::::::::::::::::::::::::::::::
         ::                     SUMMARY                     ::
         :::::::::::::::::::::::::::::::::::::::::::::::::::::
         :: total energy             -34.044417907337 Eh    ::
         :: gradient norm              0.000818191921 Eh/a0 ::
         :: HOMO-LUMO gap              3.328625703747 eV    ::
         ::.................................................::
         :: SCC energy               -34.449127165204 Eh    ::
         :: -> isotropic ES            0.049316515710 Eh    ::
         :: -> anisotropic ES         -0.000313177457 Eh    ::
         :: -> anisotropic XC          0.015821470262 Eh    ::
         :: -> dispersion             -0.016066396217 Eh    ::
         :: repulsion energy           0.404709257866 Eh    ::
         :: add. restraining           0.000000000000 Eh    ::
         :: total charge              -0.000000000000 e     ::
         :::::::::::::::::::::::::::::::::::::::::::::::::::::

           -------------------------------------------------
          |                Property Printout                |
           -------------------------------------------------

    * Orbital Energies and Occupations

         #    Occupation            Energy/Eh            Energy/eV
      -------------------------------------------------------------
         1        2.0000           -0.7622722             -20.7425
       ...           ...                  ...                  ...
        18        2.0000           -0.5023791             -13.6704
        19        2.0000           -0.5016656             -13.6510
        20        2.0000           -0.4948941             -13.4668
        21        2.0000           -0.4870079             -13.2522
        22        2.0000           -0.4846740             -13.1887
        23        2.0000           -0.4821039             -13.1187
        24        2.0000           -0.4760011             -12.9526
        25        2.0000           -0.4655202             -12.6675
        26        2.0000           -0.4444893             -12.0952
        27        2.0000           -0.4193450             -11.4110
        28        2.0000           -0.4120929             -11.2136
        29        2.0000           -0.3928388             -10.6897
        30        2.0000           -0.3884445             -10.5701 (HOMO)
        31                         -0.2661197              -7.2415 (LUMO)
        32                         -0.2139723              -5.8225
        33                         -0.1349525              -3.6722
        34                         -0.0264847              -0.7207
        35                          0.0040908               0.1113
        36                          0.0730039               1.9865
        37                          0.1049139               2.8549
        38                          0.1178759               3.2076
        39                          0.1375748               3.7436
        40                          0.1540351               4.1915
        41                          0.1648540               4.4859
       ...                                ...                  ...
        54                          0.6481950              17.6383
      -------------------------------------------------------------
                  HL-Gap            0.1223247 Eh            3.3286 eV
             Fermi-level           -0.3272821 Eh           -8.9058 eV

     #   Z          covCN         q      C6AA      α(0)
     1   6 C        3.753    -0.121    22.884     6.821
     2   6 C        3.029     0.135    25.031     8.206
     3   8 O        1.820    -0.120    16.101     5.419
     4   7 N        1.955    -0.151    25.029     7.419
     5   6 C        3.047     0.056    26.701     8.475
     6   6 C        2.766     0.256    22.694     7.802
     7   8 O        0.860    -0.450    22.712     6.390
     8   7 N        2.731    -0.073    22.666     7.071
     9   6 C        3.697    -0.070    22.018     6.712
    10   6 C        3.709    -0.051    21.636     6.648
    11   6 C        2.957    -0.071    29.778     8.951
    12   1 H        0.925     0.072     2.061     2.245
    13   1 H        0.925     0.073     2.055     2.242
    14   1 H        0.925     0.065     2.137     2.286
    15   1 H        0.925     0.093     1.852     2.128
    16   1 H        0.924     0.055     2.257     2.350
    17   1 H        0.924     0.054     2.275     2.359
    18   1 H        0.924     0.050     2.324     2.384
    19   1 H        0.924     0.049     2.333     2.388
    20   1 H        0.925     0.089     1.889     2.149
    21   1 H        0.927     0.062     2.175     2.306

 Mol. C6AA /au·bohr⁶  :       4557.161545
 Mol. C8AA /au·bohr⁸  :     103038.595733
 Mol. α(0) /au        :        102.750214


Wiberg/Mayer (AO) data.
largest (>0.10) Wiberg bond orders for each atom

 ---------------------------------------------------------------------------
     #   Z sym  total        # sym  WBO       # sym  WBO       # sym  WBO
 ---------------------------------------------------------------------------
     1   6 C    3.991 --     2 C    1.030    14 H    0.982    12 H    0.968
                            13 H    0.963
     2   6 C    3.926 --    11 C    1.561     3 O    1.151     1 C    1.030
                             4 N    0.156
     3   8 O    2.457 --     2 C    1.151     4 N    1.093
     4   7 N    2.967 --     5 C    1.545     3 O    1.093     2 C    0.156
     5   6 C    3.975 --     4 N    1.545    11 C    1.271     6 C    0.986
     6   6 C    3.961 --     7 O    1.627     8 N    1.263     5 C    0.986
     7   8 O    1.984 --     6 C    1.627     8 N    0.209
     8   7 N    3.527 --     6 C    1.263     9 C    1.003    10 C    0.997
                             7 O    0.209
     9   6 C    3.962 --     8 N    1.003    17 H    0.974    16 H    0.973
                            15 H    0.956
    10   6 C    3.964 --     8 N    0.997    19 H    0.976    18 H    0.976
                            20 H    0.973
    11   6 C    3.981 --     2 C    1.561     5 C    1.271    21 H    0.972
    12   1 H    0.995 --     1 C    0.968
    13   1 H    0.995 --     1 C    0.963
    14   1 H    0.996 --     1 C    0.982
    15   1 H    0.991 --     9 C    0.956
    16   1 H    0.997 --     9 C    0.973
    17   1 H    0.997 --     9 C    0.974
    18   1 H    0.997 --    10 C    0.976
    19   1 H    0.997 --    10 C    0.976
    20   1 H    0.992 --    10 C    0.973
    21   1 H    0.996 --    11 C    0.972
 ---------------------------------------------------------------------------

Topologies differ in total number of bonds
Writing topology from bond orders to xtbtopo.mol

molecular dipole:
                 x           y           z       tot (Debye)
 q only:        0.033      -0.810       0.092
   full:        0.200      -0.734       0.023       1.935
molecular quadrupole (traceless):
                xx          xy          yy          xz          yz          zz
 q only:       17.772       2.672     -12.129      -1.974       1.722      -5.643
  q+dip:       18.988       3.267     -14.697      -1.945       3.234      -4.292
   full:       18.658       3.237     -15.223      -1.867       3.967      -3.435

           -------------------------------------------------
          |                Geometry Summary                 |
           -------------------------------------------------

      molecular mass/u    :      154.1667751
   center of mass at/Å    :        0.1765013       0.0406769       0.1682396
  moments of inertia/u·Å² :        0.1724086E+03   0.7866753E+03   0.9477545E+03
rotational constants/cm⁻¹ :        0.9777722E-01   0.2142896E-01   0.1778692E-01

 * 20 selected distances

     #   Z          #   Z                                           value/Å
     1   6 C        2   6 C                                       1.4820324 (max)
     2   6 C        3   8 O                                       1.3438819
     3   8 O        4   7 N                                       1.3516725
     4   7 N        5   6 C                                       1.3127493
     6   6 C        7   8 O                                       1.2234415
     6   6 C        8   7 N                                       1.3489033
     8   7 N        9   6 C                                       1.4398847
     8   7 N       10   6 C                                       1.4453066
     2   6 C       11   6 C                                       1.3643508
     5   6 C       11   6 C                                       1.4211535
     1   6 C       12   1 H                                       1.0885807
     1   6 C       13   1 H                                       1.0893311
     1   6 C       14   1 H                                       1.0854560
     9   6 C       15   1 H                                       1.0857055
     9   6 C       16   1 H                                       1.0936466
     9   6 C       17   1 H                                       1.0935201
    10   6 C       18   1 H                                       1.0921957
    10   6 C       19   1 H                                       1.0923325
    10   6 C       20   1 H                                       1.0880134
    11   6 C       21   1 H                                       1.0681713 (min)

 * 5 distinct bonds (by element types)

   Z      Z             #   av. dist./Å        max./Å        min./Å
   1 H    6 C          10     1.0876953     1.0936466     1.0681713
   6 C    6 C           3     1.4225122     1.4820324     1.3643508
   6 C    7 N           4     1.3867110     1.4453066     1.3127493
   6 C    8 O           2     1.2836617     1.3438819     1.2234415
   7 N    8 O           1     1.3516725     1.3516725     1.3516725


optimized geometry written to: xtbopt.xyz


           -------------------------------------------------
          | TOTAL ENERGY              -34.044417907337 Eh   |
          | GRADIENT NORM               0.000818191921 Eh/α |
          | HOMO-LUMO GAP               3.328625703747 eV   |
           -------------------------------------------------
########################################################################
[WARNING] Runtime exception occurred
-2- restart_readRestart: Dimension missmatch in restart file.
-1- restart_readRestart: Number of electron missmatch in restart file.
########################################################################

------------------------------------------------------------------------
 * finished run on 2026/08/28 at 15:38:55.374     
------------------------------------------------------------------------
 total:
 * wall-time:     0 d,  0 h,  0 min,  0.432 sec
 *  cpu-time:     0 d,  0 h,  0 min,  3.000 sec
 * ratio c/w:     6.944 speedup
 SCF:
 * wall-time:     0 d,  0 h,  0 min,  0.021 sec
 *  cpu-time:     0 d,  0 h,  0 min,  0.125 sec
 * ratio c/w:     5.829 speedup
 ANC optimizer:
 * wall-time:     0 d,  0 h,  0 min,  0.379 sec
 *  cpu-time:     0 d,  0 h,  0 min,  2.859 sec
 * ratio c/w:     7.535 speedup

