52

C      7.581258   -1.779251    0.315626
C      6.275677   -1.094656    0.365019
O      5.479453   -1.377252    1.431447
N      4.299329   -0.662778    1.334117
C      4.385504    0.056033    0.198422
C      3.373286    1.034205   -0.205345
O      3.726714    2.087140   -0.735731
N      2.027058    0.760424    0.033202
C      1.486517   -0.536901    0.449334
C      0.038066   -0.734586   -0.038925
N     -0.911797    0.293154    0.452625
C     -2.152259    0.349181   -0.374756
C     -3.217569    1.307509    0.182888
C     -3.457111    1.430195    1.563818
C     -4.444891    2.292968    2.044678
C     -5.209011    3.036327    1.149343
Cl    -6.425871    4.099315    1.740601
C     -4.995941    2.923520   -0.222368
C     -4.007478    2.061159   -0.703974
C     -2.791962   -1.026725   -0.614536
C     -3.058095   -1.457575   -1.926329
C     -3.649673   -2.701539   -2.161410
C     -3.983774   -3.524457   -1.088454
Cl    -4.709811   -5.056613   -1.380664
C     -3.732549   -3.115522    0.218284
C     -3.141194   -1.872285    0.454129
C     -0.247688    1.618202    0.566199
C      1.039586    1.795413   -0.259311
C      5.616327   -0.202210   -0.444438
N      6.083299    0.306502   -1.682523
O      5.263395    0.356653   -2.605960
O      7.284756    0.591776   -1.752013
H      8.388939   -1.076217    0.540360
H      7.758220   -2.203978   -0.677260
H      7.629302   -2.596107    1.042697
H      1.524360   -0.576842    1.544073
H      2.108994   -1.343170    0.048751
H     -0.290793   -1.725982    0.290674
H      0.056991   -0.738053   -1.137483
H     -1.846514    0.746867   -1.354315
H     -2.867133    0.853700    2.273845
H     -4.612232    2.377001    3.114990
H     -5.597145    3.499178   -0.921070
H     -3.861123    1.977553   -1.778813
H     -2.808098   -0.826375   -2.776434
H     -3.849025   -3.020424   -3.181042
H     -3.993787   -3.755400    1.056719
H     -2.944708   -1.565387    1.479258
H      0.014042    1.740116    1.625652
H     -0.920416    2.450417    0.332767
H      1.471146    2.782874   -0.060701
H      0.815431    1.742899   -1.331644
