      -----------------------------------------------------------      
     |                   =====================                   |     
     |                           x T B                           |     
     |                   =====================                   |     
     |                         S. Grimme                         |     
     |          Mulliken Center for Theoretical Chemistry        |     
     |                    University of Bonn                     |     
      -----------------------------------------------------------      

   * xtb version 6.7.1 (edcfbbe) compiled by 'VssAdministrator@runnervm171ch' on 2026-06-10

   xtb is free software: you can redistribute it and/or modify it under
   the terms of the GNU Lesser General Public License as published by
   the Free Software Foundation, either version 3 of the License, or
   (at your option) any later version.
   
   xtb is distributed in the hope that it will be useful,
   but WITHOUT ANY WARRANTY; without even the implied warranty of
   MERCHANTABILITY or FITNESS FOR A PARTICULAR PURPOSE.  See the
   GNU Lesser General Public License for more details.
   
   Cite this work as:
   * C. Bannwarth, E. Caldeweyher, S. Ehlert, A. Hansen, P. Pracht,
     J. Seibert, S. Spicher, S. Grimme, WIREs Comput. Mol. Sci., 2020, 11,
     e01493. DOI: 10.1002/wcms.1493
   
   for GFN2-xTB:
   * C. Bannwarth, S. Ehlert and S. Grimme., J. Chem. Theory Comput., 2019,
     15, 1652-1671. DOI: 10.1021/acs.jctc.8b01176
   for GFN1-xTB:
   * S. Grimme, C. Bannwarth, P. Shushkov, J. Chem. Theory Comput., 2017,
     13, 1989-2009. DOI: 10.1021/acs.jctc.7b00118
   for GFN0-xTB:
   * P. Pracht, E. Caldeweyher, S. Ehlert, S. Grimme, ChemRxiv, 2019, preprint.
     DOI: 10.26434/chemrxiv.8326202.v1
   for GFN-FF:
   * S. Spicher and S. Grimme, Angew. Chem. Int. Ed., 2020, 59, 15665-15673.
     DOI: 10.1002/anie.202004239
   
   for ALPB and GBSA implicit solvation:
   * S. Ehlert, M. Stahn, S. Spicher, S. Grimme, J. Chem. Theory Comput.,
     2021, 17, 4250-4261. DOI: 10.1021/acs.jctc.1c00471
   
   for ddCOSMO and CPCM-X implicit solvation:
   * M. Stahn, S. Ehlert, S. Grimme, J. Phys. Chem. A,
     2023, XX, XXXX-XXXX. DOI: 10.1021/acs.jpca.3c04382
   
   for DFT-D4:
   * E. Caldeweyher, C. Bannwarth and S. Grimme, J. Chem. Phys., 2017,
     147, 034112. DOI: 10.1063/1.4993215
   * E. Caldeweyher, S. Ehlert, A. Hansen, H. Neugebauer, S. Spicher,
     C. Bannwarth and S. Grimme, J. Chem. Phys., 2019, 150, 154122.
     DOI: 10.1063/1.5090222
   * E. Caldeweyher, J.-M. Mewes, S. Ehlert and S. Grimme, Phys. Chem. Chem. Phys.
     2020, 22, 8499-8512. DOI: 10.1039/D0CP00502A
   
   for sTDA-xTB:
   * S. Grimme and C. Bannwarth, J. Chem. Phys., 2016, 145, 054103.
     DOI: 10.1063/1.4959605
   
   in the mass-spec context:
   * V. Asgeirsson, C. Bauer and S. Grimme, Chem. Sci., 2017, 8, 4879.
     DOI: 10.1039/c7sc00601b
   * J. Koopman and S. Grimme, ACS Omega 2019, 4, 12, 15120-15133.
     DOI: 10.1021/acsomega.9b02011
   
   for metadynamics refer to:
   * S. Grimme, J. Chem. Theory Comput., 2019, 155, 2847-2862
     DOI: 10.1021/acs.jctc.9b00143
   
   for SPH calculations refer to:
   * S. Spicher and S. Grimme, J. Chem. Theory Comput., 2021, 17, 1701-1714
     DOI: 10.1021/acs.jctc.0c01306
   
   for ONIOM refer to:
   * C. Plett, A. Katbashev, S. Ehlert, S. Grimme, M. Bursch,
     Phys. Chem. Chem. Phys., 2023, 25, 17860-17868. DOI: 10.1039/D3CP02178E
   
   for DIPRO refer to:
   * J. Kohn, N. Gildemeister, S. Grimme, D. Fazzi, A. Hansen,
     J. Chem. Phys., 2023, just accepted.
   
   for PTB refer to:
   * S. Grimme, M. Mueller, A. Hansen, J. Chem. Phys., 2023, 158, 124111.
     DOI: 10.1063/5.0137838
   
   with help from (in alphabetical order)
   P. Atkinson, C. Bannwarth, F. Bohle, G. Brandenburg, E. Caldeweyher
   M. Checinski, S. Dohm, S. Ehlert, S. Ehrlich, I. Gerasimov, C. Hölzer
   A. Katbashev, J. Kohn, J. Koopman, C. Lavigne, S. Lehtola, F. März, M. Müller,
   F. Musil, H. Neugebauer, J. Pisarek, C. Plett, P. Pracht, F. Pultar,
   J. Seibert, P. Shushkov, S. Spicher, M. Stahn, M. Steiner, T. Strunk,
   J. Stückrath, T. Rose, and J. Unsleber
   
 * started run on 2026/08/28 at 15:40:03.478     
   ID    Z sym.   atoms
    1    6 C      1, 2, 5, 6, 9, 10, 12-16, 18-23, 25-29
    2    8 O      3, 7, 31, 32
    3    7 N      4, 8, 11, 30
    4   17 Cl     17, 24
    5    1 H      33-52

           -------------------------------------------------
          |                Calculation Setup                |
           -------------------------------------------------

          program call               : C:\Users\Christian\Miniconda3\Library\bin\xtb.exe ML210.xyz --gfn 2 --opt
          coordinate file            : ML210.xyz
          omp threads                :                    12


           -------------------------------------------------
          |                 G F N 2 - x T B                 |
           -------------------------------------------------

        Reference                      10.1021/acs.jctc.8b01176
      * Hamiltonian:
        H0-scaling (s, p, d)           1.850000    2.230000    2.230000
        zeta-weighting                 0.500000
      * Dispersion:
        s8                             2.700000
        a1                             0.520000
        a2                             5.000000
        s9                             5.000000
      * Repulsion:
        kExp                           1.500000    1.000000
        rExp                           1.000000
      * Coulomb:
        alpha                          2.000000
        third order                    shell-resolved
        anisotropic                    true
        a3                             3.000000
        a5                             4.000000
        cn-shift                       1.200000
        cn-exp                         4.000000
        max-rad                        5.000000


          ...................................................
          :                      SETUP                      :
          :.................................................:
          :  # basis functions                 160          :
          :  # atomic orbitals                 158          :
          :  # shells                           86          :
          :  # electrons                       166          :
          :  max. iterations                   250          :
          :  Hamiltonian                  GFN2-xTB          :
          :  restarted?                      false          :
          :  GBSA solvation                  false          :
          :  PC potential                    false          :
          :  electronic temp.          300.0000000     K    :
          :  accuracy                    1.0000000          :
          :  -> integral cutoff          0.2500000E+02      :
          :  -> integral neglect         0.1000000E-07      :
          :  -> SCF convergence          0.1000000E-05 Eh   :
          :  -> wf. convergence          0.1000000E-03 e    :
          :  Broyden damping             0.4000000          :
          :  net charge                          0          :
          :  unpaired electrons                  0          :
          ...................................................

 iter      E             dE          RMSdq      gap      omega  full diag
   1    -95.0589522 -0.950590E+02  0.473E+00    3.05       0.0  T
   2    -95.2804754 -0.221523E+00  0.258E+00    2.34       1.0  T
   3    -95.2849331 -0.445771E-02  0.136E+00    1.47       1.0  T
   4    -95.2956127 -0.106796E-01  0.603E-01    1.02       1.0  T
   5    -95.3068195 -0.112068E-01  0.122E-01    0.86       1.0  T
   6    -95.3072948 -0.475306E-03  0.552E-02    0.86       1.0  T
   7    -95.3073138 -0.189543E-04  0.253E-02    0.92       1.0  T
   8    -95.3073337 -0.198989E-04  0.111E-02    0.92       1.3  T
   9    -95.3073352 -0.154006E-05  0.686E-03    0.92       2.0  T
  10    -95.3073359 -0.660337E-06  0.452E-03    0.92       3.1  T
  11    -95.3073362 -0.295197E-06  0.334E-03    0.92       4.1  T
  12    -95.3073364 -0.233046E-06  0.186E-03    0.91       7.4  T
  13    -95.3073365 -0.913479E-07  0.801E-04    0.91      17.3  T
  14    -95.3073365 -0.105715E-07  0.382E-04    0.91      36.3  T

   *** convergence criteria satisfied after 14 iterations ***

         #    Occupation            Energy/Eh            Energy/eV
      -------------------------------------------------------------
         1        2.0000           -1.0621489             -28.9025
       ...           ...                  ...                  ...
        77        2.0000           -0.4241021             -11.5404
        78        2.0000           -0.4221753             -11.4880
        79        2.0000           -0.4194883             -11.4149
        80        2.0000           -0.4057690             -11.0415
        81        2.0000           -0.4021714             -10.9436
        82        2.0000           -0.3990518             -10.8588
        83        2.0000           -0.3685024             -10.0275 (HOMO)
        84                         -0.3348772              -9.1125 (LUMO)
        85                         -0.3089548              -8.4071
        86                         -0.2569599              -6.9922
        87                         -0.2521080              -6.8602
        88                         -0.2514178              -6.8414
       ...                                ...                  ...
       158                          0.5924588              16.1216
      -------------------------------------------------------------
                  HL-Gap            0.0336253 Eh            0.9150 eV
             Fermi-level           -0.3516898 Eh           -9.5700 eV

 SCC (total)                   0 d,  0 h,  0 min,  0.068 sec
 SCC setup                      ...        0 min,  0.000 sec (  0.607%)
 Dispersion                     ...        0 min,  0.001 sec (  1.996%)
 classical contributions        ...        0 min,  0.000 sec (  0.195%)
 integral evaluation            ...        0 min,  0.004 sec (  6.178%)
 iterations                     ...        0 min,  0.051 sec ( 74.451%)
 molecular gradient             ...        0 min,  0.011 sec ( 15.840%)
 printout                       ...        0 min,  0.000 sec (  0.694%)

         :::::::::::::::::::::::::::::::::::::::::::::::::::::
         ::                     SUMMARY                     ::
         :::::::::::::::::::::::::::::::::::::::::::::::::::::
         :: total energy             -94.250516227781 Eh    ::
         :: gradient norm              0.118742422797 Eh/a0 ::
         :: HOMO-LUMO gap              0.914989897896 eV    ::
         ::.................................................::
         :: SCC energy               -95.307028218792 Eh    ::
         :: -> isotropic ES            0.108290580475 Eh    ::
         :: -> anisotropic ES          0.010342899105 Eh    ::
         :: -> anisotropic XC          0.037937637528 Eh    ::
         :: -> dispersion             -0.063288288562 Eh    ::
         :: repulsion energy           1.056511991011 Eh    ::
         :: add. restraining           0.000000000000 Eh    ::
         :: total charge              -0.000000000000 e     ::
         :::::::::::::::::::::::::::::::::::::::::::::::::::::

      ----------------------------------------------------------- 
     |                   =====================                   |
     |                        A N C O P T                        |
     |                   =====================                   |
     |               Approximate Normal Coordinate               |
     |                Rational Function Optimizer                |
      ----------------------------------------------------------- 
      ----------------------------------------------------------- 
     |                   =====================                   |
     |                        A N C O P T                        |
     |                   =====================                   |
     |               Approximate Normal Coordinate               |
     |                Rational Function Optimizer                |
      ----------------------------------------------------------- 

          ...................................................
          :                      SETUP                      :
          :.................................................:
          :   optimization level            normal          :
          :   max. optcycles                   200          :
          :   ANC micro-cycles                  20          :
          :   degrees of freedom               150          :
          :.................................................:
          :   RF solver                   davidson          :
          :   write xtbopt.log                true          :
          :   linear?                        false          :
          :   energy convergence         0.5000000E-05 Eh   :
          :   grad. convergence          0.1000000E-02 Eh/α :
          :   maxmium RF displ.          1.0000000          :
          :   Hlow (freq-cutoff)         0.1000000E-01      :
          :   Hmax (freq-cutoff)         5.0000000          :
          :   S6 in model hess.         20.0000000          :
          ...................................................

generating ANC from exact Hessian ...
Using Lindh-Hessian (1995)
 Shifting diagonal of input Hessian by    9.8318365600866073E-003
 Lowest  eigenvalues of input Hessian
    0.000000    0.000000    0.000000    0.000000    0.000000    0.000000
    0.010000    0.010094    0.010289    0.010404    0.010882    0.010948
    0.011116    0.011307    0.011741    0.013900    0.014049    0.015444
 Highest eigenvalues
    1.962274    1.962664    1.966137    2.179009    2.260550    2.519196


........................................................................
.............................. CYCLE    1 ..............................
........................................................................

 iter      E             dE          RMSdq      gap      omega  full diag
   1    -95.3073365 -0.953073E+02  0.142E-04    0.92       0.0  T
   2    -95.3073365 -0.253678E-09  0.990E-05    0.92     140.0  T
   3    -95.3073365 -0.111399E-09  0.754E-05    0.91     183.9  T
     SCC iter.                  ...        0 min,  0.010 sec
     gradient                   ...        0 min,  0.009 sec
 * total energy  :   -94.2505162 Eh     change       -0.1653689E-08 Eh
   gradient norm :     0.1187449 Eh/α   predicted     0.0000000E+00 (-100.00%)
   displ. norm   :     0.3536284 α      lambda       -0.1937856E-01
   maximum displ.:     0.0959784 α      in ANC's #10, #27, #14, ...

........................................................................
.............................. CYCLE    2 ..............................
........................................................................

 iter      E             dE          RMSdq      gap      omega  full diag
   1    -95.3687757 -0.953688E+02  0.198E-01    1.18       0.0  T
   2    -95.3691141 -0.338402E-03  0.127E-01    1.24       1.0  T
   3    -95.3691435 -0.294518E-04  0.626E-02    1.21       1.0  T
   4    -95.3691873 -0.437522E-04  0.194E-02    1.23       1.0  T
   5    -95.3691980 -0.107387E-04  0.722E-03    1.22       1.9  T
   6    -95.3692000 -0.199598E-05  0.364E-03    1.22       3.8  T
   7    -95.3692001 -0.644608E-07  0.169E-03    1.22       8.2  T
   8    -95.3692001 -0.631373E-07  0.114E-03    1.22      12.2  T
   9    -95.3692002 -0.184878E-07  0.834E-04    1.22      16.6  T
  10    -95.3692002 -0.150400E-07  0.474E-04    1.22      29.3  T
     SCC iter.                  ...        0 min,  0.031 sec
     gradient                   ...        0 min,  0.010 sec
 * total energy  :   -94.2640010 Eh     change       -0.1348481E-01 Eh
   gradient norm :     0.0489962 Eh/α   predicted    -0.1091576E-01 ( -19.05%)
   displ. norm   :     0.4015723 α      lambda       -0.6708744E-02
   maximum displ.:     0.1645747 α      in ANC's #10, #12, #14, ...

........................................................................
.............................. CYCLE    3 ..............................
........................................................................

 iter      E             dE          RMSdq      gap      omega  full diag
   1    -95.4031815 -0.954032E+02  0.129E-01    1.32       0.0  T
   2    -95.4034153 -0.233793E-03  0.892E-02    1.39       1.0  T
   3    -95.4034776 -0.622975E-04  0.459E-02    1.37       1.0  T
   4    -95.4034812 -0.354652E-05  0.157E-02    1.39       1.0  T
   5    -95.4034896 -0.848454E-05  0.494E-03    1.38       2.8  T
   6    -95.4034904 -0.790142E-06  0.255E-03    1.38       5.4  T
   7    -95.4034905 -0.345867E-07  0.147E-03    1.38       9.4  T
   8    -95.4034905 -0.420455E-07  0.939E-04    1.38      14.8  T
   9    -95.4034905 -0.125385E-07  0.706E-04    1.38      19.6  T
     SCC iter.                  ...        0 min,  0.036 sec
     gradient                   ...        0 min,  0.010 sec
 * total energy  :   -94.2681635 Eh     change       -0.4162465E-02 Eh
   gradient norm :     0.0135177 Eh/α   predicted    -0.3899886E-02 (  -6.31%)
   displ. norm   :     0.3610981 α      lambda       -0.2029871E-02
   maximum displ.:     0.1738323 α      in ANC's #10, #11, #12, ...

........................................................................
.............................. CYCLE    4 ..............................
........................................................................

 iter      E             dE          RMSdq      gap      omega  full diag
   1    -95.4093908 -0.954094E+02  0.777E-02    1.35       0.0  T
   2    -95.4094139 -0.230759E-04  0.488E-02    1.39       1.0  T
   3    -95.4094046  0.935024E-05  0.225E-02    1.39       1.0  T
   4    -95.4094221 -0.175192E-04  0.510E-03    1.40       2.7  T
   5    -95.4094232 -0.106479E-05  0.189E-03    1.40       7.4  T
   6    -95.4094232 -0.635229E-07  0.973E-04    1.40      14.2  T
   7    -95.4094232 -0.885662E-08  0.382E-04    1.40      36.3  T
     SCC iter.                  ...        0 min,  0.024 sec
     gradient                   ...        0 min,  0.010 sec
 * total energy  :   -94.2696048 Eh     change       -0.1441248E-02 Eh
   gradient norm :     0.0137714 Eh/α   predicted    -0.1147317E-02 ( -20.39%)
   displ. norm   :     0.4618159 α      lambda       -0.1796471E-02
   maximum displ.:     0.2241034 α      in ANC's #10, #11, #14, ...

........................................................................
.............................. CYCLE    5 ..............................
........................................................................

 iter      E             dE          RMSdq      gap      omega  full diag
   1    -95.4098174 -0.954098E+02  0.951E-02    1.34       0.0  T
   2    -95.4098427 -0.252901E-04  0.565E-02    1.36       1.0  T
   3    -95.4098338  0.881394E-05  0.233E-02    1.37       1.0  T
   4    -95.4098492 -0.153425E-04  0.565E-03    1.37       2.5  T
   5    -95.4098503 -0.112073E-05  0.262E-03    1.37       5.3  T
   6    -95.4098504 -0.779781E-07  0.126E-03    1.37      11.0  T
   7    -95.4098504 -0.167657E-07  0.590E-04    1.37      23.5  T
   8    -95.4098504 -0.673613E-08  0.407E-04    1.37      34.1  T
     SCC iter.                  ...        0 min,  0.034 sec
     gradient                   ...        0 min,  0.010 sec
 * total energy  :   -94.2705599 Eh     change       -0.9551130E-03 Eh
   gradient norm :     0.0133846 Eh/α   predicted    -0.1089865E-02 (  14.11%)
   displ. norm   :     0.2639109 α      lambda       -0.7834612E-03
   maximum displ.:     0.1150558 α      in ANC's #10, #11, #9, ...

........................................................................
.............................. CYCLE    6 ..............................
........................................................................

 iter      E             dE          RMSdq      gap      omega  full diag
   1    -95.4094465 -0.954094E+02  0.598E-02    1.35       0.0  T
   2    -95.4094600 -0.135103E-04  0.361E-02    1.34       1.0  T
   3    -95.4094589  0.104194E-05  0.162E-02    1.36       1.0  T
   4    -95.4094641 -0.516483E-05  0.307E-03    1.35       4.5  T
   5    -95.4094643 -0.149361E-06  0.179E-03    1.35       7.8  T
   6    -95.4094643 -0.366524E-07  0.994E-04    1.35      14.0  T
   7    -95.4094643 -0.140467E-07  0.567E-04    1.35      24.4  T
     SCC iter.                  ...        0 min,  0.022 sec
     gradient                   ...        0 min,  0.011 sec
 * total energy  :   -94.2710271 Eh     change       -0.4672711E-03 Eh
   gradient norm :     0.0089685 Eh/α   predicted    -0.4190325E-03 ( -10.32%)
   displ. norm   :     0.1795137 α      lambda       -0.3301314E-03
   maximum displ.:     0.0814633 α      in ANC's #9, #11, #8, ...

........................................................................
.............................. CYCLE    7 ..............................
........................................................................

 iter      E             dE          RMSdq      gap      omega  full diag
   1    -95.4109614 -0.954110E+02  0.382E-02    1.36       0.0  T
   2    -95.4109660 -0.452048E-05  0.230E-02    1.35       1.0  T
   3    -95.4109643  0.170239E-05  0.109E-02    1.36       1.3  T
   4    -95.4109677 -0.347905E-05  0.218E-03    1.36       6.4  T
   5    -95.4109678 -0.810968E-07  0.129E-03    1.36      10.7  T
   6    -95.4109678 -0.263760E-07  0.750E-04    1.36      18.5  T
   7    -95.4109679 -0.861544E-08  0.387E-04    1.36      35.8  T
     SCC iter.                  ...        0 min,  0.024 sec
     gradient                   ...        0 min,  0.011 sec
 * total energy  :   -94.2712752 Eh     change       -0.2481125E-03 Eh
   gradient norm :     0.0054714 Eh/α   predicted    -0.1703856E-03 ( -31.33%)
   displ. norm   :     0.2250307 α      lambda       -0.2797390E-03
   maximum displ.:     0.1088365 α      in ANC's #9, #8, #18, ...

........................................................................
.............................. CYCLE    8 ..............................
........................................................................

 iter      E             dE          RMSdq      gap      omega  full diag
   1    -95.4125396 -0.954125E+02  0.486E-02    1.35       0.0  T
   2    -95.4125445 -0.492544E-05  0.284E-02    1.35       1.0  T
   3    -95.4125419  0.262763E-05  0.124E-02    1.36       1.1  T
   4    -95.4125466 -0.469015E-05  0.262E-03    1.35       5.3  T
   5    -95.4125466 -0.544771E-07  0.153E-03    1.35       9.1  T
   6    -95.4125467 -0.247958E-07  0.781E-04    1.35      17.7  T
   7    -95.4125467 -0.128626E-07  0.343E-04    1.35      40.4  T
     SCC iter.                  ...        0 min,  0.031 sec
     gradient                   ...        0 min,  0.011 sec
 * total energy  :   -94.2714597 Eh     change       -0.1844848E-03 Eh
   gradient norm :     0.0045294 Eh/α   predicted    -0.1469540E-03 ( -20.34%)
   displ. norm   :     0.1672938 α      lambda       -0.1265622E-03
   maximum displ.:     0.0773364 α      in ANC's #9, #8, #5, ...

........................................................................
.............................. CYCLE    9 ..............................
........................................................................

 iter      E             dE          RMSdq      gap      omega  full diag
   1    -95.4129928 -0.954130E+02  0.377E-02    1.34       0.0  T
   2    -95.4129950 -0.213925E-05  0.218E-02    1.34       1.0  T
   3    -95.4129936  0.139560E-05  0.794E-03    1.34       1.7  T
   4    -95.4129960 -0.242324E-05  0.207E-03    1.34       6.7  T
   5    -95.4129960 -0.247107E-07  0.102E-03    1.34      13.6  T
   6    -95.4129960 -0.882198E-08  0.392E-04    1.34      35.4  T
   7    -95.4129960 -0.277902E-08  0.195E-04    1.34      71.0  T
     SCC iter.                  ...        0 min,  0.022 sec
     gradient                   ...        0 min,  0.010 sec
 * total energy  :   -94.2715580 Eh     change       -0.9822863E-04 Eh
   gradient norm :     0.0047823 Eh/α   predicted    -0.6505847E-04 ( -33.77%)
   displ. norm   :     0.2653895 α      lambda       -0.1856863E-03
   maximum displ.:     0.1201562 α      in ANC's #8, #9, #5, ...

........................................................................
.............................. CYCLE   10 ..............................
........................................................................

 iter      E             dE          RMSdq      gap      omega  full diag
   1    -95.4128111 -0.954128E+02  0.615E-02    1.31       0.0  T
   2    -95.4128165 -0.536992E-05  0.358E-02    1.31       1.0  T
   3    -95.4128124  0.407477E-05  0.128E-02    1.32       1.1  T
   4    -95.4128191 -0.676326E-05  0.336E-03    1.32       4.1  T
   5    -95.4128192 -0.774300E-07  0.172E-03    1.32       8.1  T
   6    -95.4128193 -0.333159E-07  0.539E-04    1.32      25.7  T
   7    -95.4128193 -0.369546E-08  0.258E-04    1.32      53.7  T
     SCC iter.                  ...        0 min,  0.024 sec
     gradient                   ...        0 min,  0.011 sec
 * total energy  :   -94.2716960 Eh     change       -0.1380384E-03 Eh
   gradient norm :     0.0052088 Eh/α   predicted    -0.9939139E-04 ( -28.00%)
   displ. norm   :     0.2931208 α      lambda       -0.1888309E-03
   maximum displ.:     0.1377666 α      in ANC's #8, #5, #7, ...

........................................................................
.............................. CYCLE   11 ..............................
........................................................................

 iter      E             dE          RMSdq      gap      omega  full diag
   1    -95.4122505 -0.954123E+02  0.706E-02    1.28       0.0  T
   2    -95.4122570 -0.645481E-05  0.409E-02    1.29       1.0  T
   3    -95.4122526  0.433863E-05  0.134E-02    1.29       1.0  T
   4    -95.4122600 -0.735212E-05  0.372E-03    1.30       3.7  T
   5    -95.4122601 -0.130083E-06  0.200E-03    1.30       6.9  T
   6    -95.4122602 -0.526531E-07  0.584E-04    1.30      23.8  T
   7    -95.4122602 -0.356653E-08  0.316E-04    1.30      43.9  T
     SCC iter.                  ...        0 min,  0.067 sec
     gradient                   ...        0 min,  0.010 sec
 * total energy  :   -94.2718391 Eh     change       -0.1430626E-03 Eh
   gradient norm :     0.0050634 Eh/α   predicted    -0.1025382E-03 ( -28.33%)
   displ. norm   :     0.3279260 α      lambda       -0.2071079E-03
   maximum displ.:     0.1584764 α      in ANC's #8, #5, #10, ...

........................................................................
.............................. CYCLE   12 ..............................
........................................................................

 iter      E             dE          RMSdq      gap      omega  full diag
   1    -95.4114007 -0.954114E+02  0.792E-02    1.26       0.0  T
   2    -95.4114079 -0.724629E-05  0.458E-02    1.27       1.0  T
   3    -95.4114033  0.458782E-05  0.142E-02    1.28       1.0  T
   4    -95.4114112 -0.790815E-05  0.395E-03    1.28       3.5  T
   5    -95.4114114 -0.138000E-06  0.216E-03    1.28       6.4  T
   6    -95.4114114 -0.690635E-07  0.621E-04    1.28      22.3  T
   7    -95.4114114 -0.361577E-08  0.340E-04    1.28      40.8  T
     SCC iter.                  ...        0 min,  0.023 sec
     gradient                   ...        0 min,  0.011 sec
 * total energy  :   -94.2719987 Eh     change       -0.1596202E-03 Eh
   gradient norm :     0.0054326 Eh/α   predicted    -0.1146986E-03 ( -28.14%)
   displ. norm   :     0.3543001 α      lambda       -0.2311286E-03
   maximum displ.:     0.1705906 α      in ANC's #8, #5, #10, ...

........................................................................
.............................. CYCLE   13 ..............................
........................................................................

 iter      E             dE          RMSdq      gap      omega  full diag
   1    -95.4113897 -0.954114E+02  0.837E-02    1.26       0.0  T
   2    -95.4113979 -0.814311E-05  0.481E-02    1.26       1.0  T
   3    -95.4113949  0.299996E-05  0.132E-02    1.27       1.0  T
   4    -95.4114011 -0.620706E-05  0.407E-03    1.27       3.4  T
   5    -95.4114012 -0.160092E-06  0.217E-03    1.27       6.4  T
   6    -95.4114013 -0.673877E-07  0.629E-04    1.27      22.0  T
   7    -95.4114013 -0.375381E-08  0.296E-04    1.27      46.9  T
     SCC iter.                  ...        0 min,  0.026 sec
     gradient                   ...        0 min,  0.012 sec
 * total energy  :   -94.2721736 Eh     change       -0.1749394E-03 Eh
   gradient norm :     0.0054750 Eh/α   predicted    -0.1300718E-03 ( -25.65%)
   displ. norm   :     0.3900874 α      lambda       -0.2235990E-03
   maximum displ.:     0.1964464 α      in ANC's #8, #5, #12, ...

........................................................................
.............................. CYCLE   14 ..............................
........................................................................

 iter      E             dE          RMSdq      gap      omega  full diag
   1    -95.4102402 -0.954102E+02  0.898E-02    1.23       0.0  T
   2    -95.4102506 -0.104741E-04  0.518E-02    1.24       1.0  T
   3    -95.4102442  0.645470E-05  0.170E-02    1.25       1.0  T
   4    -95.4102551 -0.109674E-04  0.431E-03    1.25       3.2  T
   5    -95.4102552 -0.108921E-06  0.219E-03    1.25       6.3  T
   6    -95.4102553 -0.413729E-07  0.780E-04    1.25      17.8  T
   7    -95.4102553 -0.114647E-07  0.303E-04    1.25      45.8  T
     SCC iter.                  ...        0 min,  0.024 sec
     gradient                   ...        0 min,  0.010 sec
 * total energy  :   -94.2723236 Eh     change       -0.1499550E-03 Eh
   gradient norm :     0.0073790 Eh/α   predicted    -0.1288167E-03 ( -14.10%)
   displ. norm   :     0.3784181 α      lambda       -0.3606994E-03
   maximum displ.:     0.1499976 α      in ANC's #8, #12, #5, ...

........................................................................
.............................. CYCLE   15 ..............................
........................................................................

 iter      E             dE          RMSdq      gap      omega  full diag
   1    -95.4165938 -0.954166E+02  0.912E-02    1.39       0.0  T
   2    -95.4166535 -0.597406E-04  0.513E-02    1.37       1.0  T
   3    -95.4166547 -0.116033E-05  0.248E-02    1.37       1.0  T
   4    -95.4166587 -0.395964E-05  0.778E-03    1.37       1.8  T
   5    -95.4166605 -0.181341E-05  0.305E-03    1.37       4.5  T
   6    -95.4166607 -0.179388E-06  0.166E-03    1.37       8.4  T
   7    -95.4166607 -0.164342E-07  0.540E-04    1.37      25.7  T
   8    -95.4166607 -0.444631E-08  0.392E-04    1.37      35.4  T
     SCC iter.                  ...        0 min,  0.026 sec
     gradient                   ...        0 min,  0.011 sec
 * total energy  :   -94.2721722 Eh     change        0.1513958E-03 Eh
   gradient norm :     0.0195520 Eh/α   predicted    -0.2061873E-03 (-236.19%)
   displ. norm   :     0.1947185 α      lambda       -0.6480127E-03
   maximum displ.:     0.0919809 α      in ANC's #5, #8, #9, ...

........................................................................
.............................. CYCLE   16 ..............................
........................................................................

 iter      E             dE          RMSdq      gap      omega  full diag
   1    -95.4131766 -0.954132E+02  0.643E-02    1.23       0.0  T
   2    -95.4132382 -0.615914E-04  0.356E-02    1.25       1.0  T
   3    -95.4132427 -0.449067E-05  0.200E-02    1.25       1.0  T
   4    -95.4132440 -0.132152E-05  0.764E-03    1.26       1.8  T
   5    -95.4132448 -0.825570E-06  0.248E-03    1.26       5.6  T
   6    -95.4132449 -0.554396E-07  0.145E-03    1.26       9.6  T
   7    -95.4132449 -0.267253E-07  0.386E-04    1.26      35.9  T
   8    -95.4132449 -0.240492E-08  0.201E-04    1.26      69.2  T
     SCC iter.                  ...        0 min,  0.033 sec
     gradient                   ...        0 min,  0.010 sec
 * total energy  :   -94.2724642 Eh     change       -0.2919925E-03 Eh
   gradient norm :     0.0108833 Eh/α   predicted    -0.3363000E-03 (  15.17%)
   displ. norm   :     0.0883868 α      lambda       -0.1775765E-03
   maximum displ.:     0.0407736 α      in ANC's #9, #18, #10, ...

........................................................................
.............................. CYCLE   17 ..............................
........................................................................

 iter      E             dE          RMSdq      gap      omega  full diag
   1    -95.4114597 -0.954115E+02  0.330E-02    1.26       0.0  T
   2    -95.4114802 -0.204528E-04  0.219E-02    1.26       1.0  T
   3    -95.4114841 -0.390963E-05  0.118E-02    1.26       1.2  T
   4    -95.4114840  0.109480E-06  0.309E-03    1.26       4.5  T
   5    -95.4114844 -0.411097E-06  0.103E-03    1.26      13.4  T
   6    -95.4114844 -0.249886E-07  0.426E-04    1.26      32.5  T
   7    -95.4114844 -0.128639E-08  0.225E-04    1.26      61.6  T
     SCC iter.                  ...        0 min,  0.022 sec
     gradient                   ...        0 min,  0.010 sec
 * total energy  :   -94.2725101 Eh     change       -0.4592388E-04 Eh
   gradient norm :     0.0080889 Eh/α   predicted    -0.8948247E-04 (  94.85%)
   displ. norm   :     0.1190657 α      lambda       -0.9547803E-04
   maximum displ.:     0.0662819 α      in ANC's #5, #8, #12, ...

........................................................................
.............................. CYCLE   18 ..............................
........................................................................

 iter      E             dE          RMSdq      gap      omega  full diag
   1    -95.4128068 -0.954128E+02  0.265E-02    1.27       0.0  T
   2    -95.4128100 -0.318037E-05  0.155E-02    1.26       1.0  T
   3    -95.4128100 -0.330556E-07  0.605E-03    1.27       2.3  T
   4    -95.4128106 -0.526217E-06  0.125E-03    1.26      11.1  T
   5    -95.4128106 -0.156939E-07  0.733E-04    1.26      18.9  T
   6    -95.4128106 -0.953274E-08  0.298E-04    1.26      46.5  T
     SCC iter.                  ...        0 min,  0.019 sec
     gradient                   ...        0 min,  0.010 sec
 * total energy  :   -94.2725826 Eh     change       -0.7245370E-04 Eh
   gradient norm :     0.0031496 Eh/α   predicted    -0.4841873E-04 ( -33.17%)
   displ. norm   :     0.3326667 α      lambda       -0.1170604E-03
   maximum displ.:     0.1885011 α      in ANC's #5, #8, #12, ...

........................................................................
.............................. CYCLE   19 ..............................
........................................................................

 iter      E             dE          RMSdq      gap      omega  full diag
   1    -95.4130365 -0.954130E+02  0.687E-02    1.25       0.0  T
   2    -95.4130423 -0.585746E-05  0.394E-02    1.25       1.0  T
   3    -95.4130408  0.157195E-05  0.104E-02    1.25       1.3  T
   4    -95.4130444 -0.360627E-05  0.320E-03    1.25       4.3  T
   5    -95.4130445 -0.977228E-07  0.175E-03    1.25       7.9  T
   6    -95.4130445 -0.472426E-07  0.429E-04    1.25      32.3  T
   7    -95.4130445 -0.179800E-08  0.225E-04    1.25      61.5  T
     SCC iter.                  ...        0 min,  0.031 sec
     gradient                   ...        0 min,  0.010 sec
 * total energy  :   -94.2726668 Eh     change       -0.8424457E-04 Eh
   gradient norm :     0.0051926 Eh/α   predicted    -0.6500956E-04 ( -22.83%)
   displ. norm   :     0.2792820 α      lambda       -0.1211380E-03
   maximum displ.:     0.1676617 α      in ANC's #5, #8, #2, ...

........................................................................
.............................. CYCLE   20 ..............................
........................................................................

 iter      E             dE          RMSdq      gap      omega  full diag
   1    -95.4158152 -0.954158E+02  0.524E-02    1.25       0.0  T
   2    -95.4158237 -0.847418E-05  0.304E-02    1.25       1.0  T
   3    -95.4158221  0.155605E-05  0.145E-02    1.25       1.0  T
   4    -95.4158263 -0.423416E-05  0.285E-03    1.25       4.9  T
   5    -95.4158266 -0.242993E-06  0.147E-03    1.25       9.5  T
   6    -95.4158266 -0.262029E-07  0.546E-04    1.25      25.4  T
   7    -95.4158266 -0.165973E-08  0.226E-04    1.25      61.4  T
     SCC iter.                  ...        0 min,  0.022 sec
     gradient                   ...        0 min,  0.009 sec
 * total energy  :   -94.2727338 Eh     change       -0.6702983E-04 Eh
   gradient norm :     0.0068929 Eh/α   predicted    -0.6529858E-04 (  -2.58%)
   displ. norm   :     0.5099731 α      lambda       -0.1342260E-03
   maximum displ.:     0.2967194 α      in ANC's #5, #8, #2, ...
 * RMSD in coord.:     0.5837364 α      energy gain  -0.2221760E-01 Eh

generating ANC from exact Hessian ...
Using Lindh-Hessian (1995)
 Shifting diagonal of input Hessian by    9.8137301174006254E-003
 Lowest  eigenvalues of input Hessian
    0.000000    0.000000    0.000000    0.000000    0.000000    0.000000
    0.010000    0.010092    0.010300    0.010470    0.010940    0.011113
    0.011329    0.011519    0.011694    0.014434    0.014882    0.015494
 Highest eigenvalues
    2.035807    2.044578    2.048850    2.272496    2.380492    2.663830


........................................................................
.............................. CYCLE   21 ..............................
........................................................................

 iter      E             dE          RMSdq      gap      omega  full diag
   1    -95.4120102 -0.954120E+02  0.103E-01    1.19       0.0  T
   2    -95.4120217 -0.115475E-04  0.590E-02    1.20       1.0  T
   3    -95.4120227 -0.968406E-06  0.100E-02    1.20       1.4  T
   4    -95.4120253 -0.256309E-05  0.457E-03    1.21       3.0  T
   5    -95.4120255 -0.260258E-06  0.230E-03    1.21       6.0  T
   6    -95.4120256 -0.808550E-07  0.850E-04    1.21      16.3  T
   7    -95.4120256 -0.232204E-07  0.312E-04    1.21      44.5  T
     SCC iter.                  ...        0 min,  0.030 sec
     gradient                   ...        0 min,  0.010 sec
 * total energy  :   -94.2727947 Eh     change       -0.6090302E-04 Eh
   gradient norm :     0.0074599 Eh/α   predicted     0.0000000E+00 (-100.00%)
   displ. norm   :     0.0480149 α      lambda       -0.7080642E-04
   maximum displ.:     0.0251296 α      in ANC's #2, #16, #5, ...

........................................................................
.............................. CYCLE   22 ..............................
........................................................................

 iter      E             dE          RMSdq      gap      omega  full diag
   1    -95.4137157 -0.954137E+02  0.174E-02    1.22       0.0  T
   2    -95.4137188 -0.308732E-05  0.105E-02    1.22       1.3  T
   3    -95.4137192 -0.364625E-06  0.573E-03    1.22       2.4  T
   4    -95.4137193 -0.168564E-06  0.159E-03    1.22       8.7  T
   5    -95.4137194 -0.782523E-07  0.654E-04    1.22      21.2  T
   6    -95.4137194 -0.108543E-07  0.327E-04    1.22      42.4  T
     SCC iter.                  ...        0 min,  0.019 sec
     gradient                   ...        0 min,  0.011 sec
 * total energy  :   -94.2728700 Eh     change       -0.7525072E-04 Eh
   gradient norm :     0.0022810 Eh/α   predicted    -0.5257255E-04 ( -30.14%)
   displ. norm   :     0.0829009 α      lambda       -0.6398876E-04
   maximum displ.:     0.0483860 α      in ANC's #2, #5, #16, ...

........................................................................
.............................. CYCLE   23 ..............................
........................................................................

 iter      E             dE          RMSdq      gap      omega  full diag
   1    -95.4149374 -0.954149E+02  0.201E-02    1.22       0.0  T
   2    -95.4149393 -0.192587E-05  0.119E-02    1.22       1.2  T
   3    -95.4149392  0.832784E-07  0.548E-03    1.22       2.5  T
   4    -95.4149396 -0.412045E-06  0.126E-03    1.22      11.0  T
   5    -95.4149397 -0.518000E-07  0.604E-04    1.22      23.0  T
   6    -95.4149397 -0.680964E-08  0.346E-04    1.22      40.0  T
     SCC iter.                  ...        0 min,  0.021 sec
     gradient                   ...        0 min,  0.011 sec
 * total energy  :   -94.2729138 Eh     change       -0.4381798E-04 Eh
   gradient norm :     0.0021235 Eh/α   predicted    -0.3221657E-04 ( -26.48%)
   displ. norm   :     0.0961264 α      lambda       -0.4004934E-04
   maximum displ.:     0.0587790 α      in ANC's #2, #5, #6, ...

........................................................................
.............................. CYCLE   24 ..............................
........................................................................

 iter      E             dE          RMSdq      gap      omega  full diag
   1    -95.4152694 -0.954153E+02  0.208E-02    1.22       0.0  T
   2    -95.4152699 -0.423252E-06  0.121E-02    1.22       1.1  T
   3    -95.4152697  0.107641E-06  0.255E-03    1.22       5.4  T
   4    -95.4152700 -0.215790E-06  0.777E-04    1.22      17.8  T
   5    -95.4152700 -0.948445E-08  0.461E-04    1.22      30.1  T
     SCC iter.                  ...        0 min,  0.024 sec
     gradient                   ...        0 min,  0.010 sec
 * total energy  :   -94.2729445 Eh     change       -0.3068789E-04 Eh
   gradient norm :     0.0030796 Eh/α   predicted    -0.2033621E-04 ( -33.73%)
   displ. norm   :     0.1496826 α      lambda       -0.5387797E-04
   maximum displ.:     0.0907874 α      in ANC's #2, #5, #6, ...

........................................................................
.............................. CYCLE   25 ..............................
........................................................................

 iter      E             dE          RMSdq      gap      omega  full diag
   1    -95.4150113 -0.954150E+02  0.328E-02    1.21       0.0  T
   2    -95.4150121 -0.772016E-06  0.191E-02    1.21       1.0  T
   3    -95.4150120  0.846807E-07  0.330E-03    1.21       4.2  T
   4    -95.4150124 -0.350116E-06  0.112E-03    1.21      12.4  T
   5    -95.4150124 -0.487283E-08  0.607E-04    1.21      22.8  T
   6    -95.4150124 -0.758791E-08  0.234E-04    1.21      59.3  T
     SCC iter.                  ...        0 min,  0.019 sec
     gradient                   ...        0 min,  0.011 sec
 * total energy  :   -94.2729820 Eh     change       -0.3752609E-04 Eh
   gradient norm :     0.0027330 Eh/α   predicted    -0.2754372E-04 ( -26.60%)
   displ. norm   :     0.1550126 α      lambda       -0.5127546E-04
   maximum displ.:     0.0963029 α      in ANC's #2, #5, #6, ...

........................................................................
.............................. CYCLE   26 ..............................
........................................................................

 iter      E             dE          RMSdq      gap      omega  full diag
   1    -95.4143537 -0.954144E+02  0.343E-02    1.20       0.0  T
   2    -95.4143547 -0.971266E-06  0.200E-02    1.20       1.0  T
   3    -95.4143544  0.287065E-06  0.405E-03    1.20       3.4  T
   4    -95.4143550 -0.587124E-06  0.116E-03    1.20      12.0  T
   5    -95.4143550 -0.134955E-07  0.622E-04    1.20      22.3  T
   6    -95.4143550 -0.530287E-08  0.272E-04    1.20      51.1  T
     SCC iter.                  ...        0 min,  0.021 sec
     gradient                   ...        0 min,  0.011 sec
 * total energy  :   -94.2730206 Eh     change       -0.3861186E-04 Eh
   gradient norm :     0.0020401 Eh/α   predicted    -0.2625807E-04 ( -31.99%)
   displ. norm   :     0.1549451 α      lambda       -0.4674516E-04
   maximum displ.:     0.0975300 α      in ANC's #2, #6, #5, ...

........................................................................
.............................. CYCLE   27 ..............................
........................................................................

 iter      E             dE          RMSdq      gap      omega  full diag
   1    -95.4139535 -0.954140E+02  0.339E-02    1.20       0.0  T
   2    -95.4139543 -0.819518E-06  0.197E-02    1.20       1.0  T
   3    -95.4139541  0.203751E-06  0.359E-03    1.20       3.9  T
   4    -95.4139546 -0.466205E-06  0.106E-03    1.20      13.0  T
   5    -95.4139546 -0.864877E-08  0.557E-04    1.20      24.9  T
   6    -95.4139546 -0.418231E-08  0.224E-04    1.20      61.8  T
     SCC iter.                  ...        0 min,  0.026 sec
     gradient                   ...        0 min,  0.010 sec
 * total energy  :   -94.2730605 Eh     change       -0.3985024E-04 Eh
   gradient norm :     0.0022540 Eh/α   predicted    -0.2393612E-04 ( -39.93%)
   displ. norm   :     0.2094509 α      lambda       -0.6521867E-04
   maximum displ.:     0.1309104 α      in ANC's #2, #6, #5, ...

........................................................................
.............................. CYCLE   28 ..............................
........................................................................

 iter      E             dE          RMSdq      gap      omega  full diag
   1    -95.4137436 -0.954137E+02  0.452E-02    1.19       0.0  T
   2    -95.4137445 -0.949051E-06  0.263E-02    1.19       1.0  T
   3    -95.4137445 -0.244545E-07  0.293E-03    1.19       4.7  T
   4    -95.4137448 -0.303975E-06  0.126E-03    1.19      11.0  T
   5    -95.4137449 -0.140342E-07  0.581E-04    1.19      23.9  T
   6    -95.4137449 -0.480594E-08  0.239E-04    1.19      58.1  T
     SCC iter.                  ...        0 min,  0.020 sec
     gradient                   ...        0 min,  0.011 sec
 * total energy  :   -94.2731141 Eh     change       -0.5366341E-04 Eh
   gradient norm :     0.0028780 Eh/α   predicted    -0.3404221E-04 ( -36.56%)
   displ. norm   :     0.2581405 α      lambda       -0.6716267E-04
   maximum displ.:     0.1611672 α      in ANC's #2, #6, #5, ...

........................................................................
.............................. CYCLE   29 ..............................
........................................................................

 iter      E             dE          RMSdq      gap      omega  full diag
   1    -95.4135783 -0.954136E+02  0.548E-02    1.19       0.0  T
   2    -95.4135795 -0.119561E-05  0.318E-02    1.19       1.0  T
   3    -95.4135795  0.197889E-08  0.360E-03    1.19       3.9  T
   4    -95.4135800 -0.461613E-06  0.148E-03    1.19       9.4  T
   5    -95.4135800 -0.113589E-07  0.653E-04    1.19      21.2  T
   6    -95.4135800 -0.109285E-07  0.249E-04    1.19      55.6  T
     SCC iter.                  ...        0 min,  0.022 sec
     gradient                   ...        0 min,  0.011 sec
 * total energy  :   -94.2731675 Eh     change       -0.5336176E-04 Eh
   gradient norm :     0.0032540 Eh/α   predicted    -0.3582051E-04 ( -32.87%)
   displ. norm   :     0.2680294 α      lambda       -0.5796916E-04
   maximum displ.:     0.1686929 α      in ANC's #2, #6, #5, ...

........................................................................
.............................. CYCLE   30 ..............................
........................................................................

 iter      E             dE          RMSdq      gap      omega  full diag
   1    -95.4136590 -0.954137E+02  0.560E-02    1.19       0.0  T
   2    -95.4136606 -0.160311E-05  0.325E-02    1.19       1.0  T
   3    -95.4136601  0.472124E-06  0.537E-03    1.19       2.6  T
   4    -95.4136612 -0.105176E-05  0.155E-03    1.19       8.9  T
   5    -95.4136612 -0.900330E-08  0.852E-04    1.19      16.3  T
   6    -95.4136612 -0.184265E-07  0.217E-04    1.19      63.9  T
     SCC iter.                  ...        0 min,  0.030 sec
     gradient                   ...        0 min,  0.011 sec
 * total energy  :   -94.2732142 Eh     change       -0.4670727E-04 Eh
   gradient norm :     0.0029197 Eh/α   predicted    -0.3107076E-04 ( -33.48%)
   displ. norm   :     0.2848896 α      lambda       -0.5558440E-04
   maximum displ.:     0.1812018 α      in ANC's #2, #6, #5, ...

........................................................................
.............................. CYCLE   31 ..............................
........................................................................

 iter      E             dE          RMSdq      gap      omega  full diag
   1    -95.4140332 -0.954140E+02  0.588E-02    1.18       0.0  T
   2    -95.4140355 -0.236255E-05  0.341E-02    1.18       1.0  T
   3    -95.4140346  0.936722E-06  0.700E-03    1.18       2.0  T
   4    -95.4140363 -0.171608E-05  0.174E-03    1.18       8.0  T
   5    -95.4140363 -0.243714E-07  0.100E-03    1.18      13.9  T
   6    -95.4140364 -0.196058E-07  0.237E-04    1.18      58.6  T
   7    -95.4140364 -0.737543E-09  0.120E-04    1.18     115.2  T
     SCC iter.                  ...        0 min,  0.023 sec
     gradient                   ...        0 min,  0.011 sec
 * total energy  :   -94.2732587 Eh     change       -0.4452150E-04 Eh
   gradient norm :     0.0020099 Eh/α   predicted    -0.3005040E-04 ( -32.50%)
   displ. norm   :     0.3071579 α      lambda       -0.5108685E-04
   maximum displ.:     0.1970661 α      in ANC's #2, #6, #5, ...

........................................................................
.............................. CYCLE   32 ..............................
........................................................................

 iter      E             dE          RMSdq      gap      omega  full diag
   1    -95.4144432 -0.954144E+02  0.630E-02    1.17       0.0  T
   2    -95.4144462 -0.301822E-05  0.365E-02    1.18       1.0  T
   3    -95.4144451  0.109185E-05  0.779E-03    1.18       1.8  T
   4    -95.4144472 -0.207111E-05  0.197E-03    1.18       7.0  T
   5    -95.4144472 -0.320118E-07  0.113E-03    1.18      12.3  T
   6    -95.4144473 -0.241770E-07  0.269E-04    1.18      51.6  T
   7    -95.4144473 -0.100333E-08  0.144E-04    1.18      96.3  T
     SCC iter.                  ...        0 min,  0.026 sec
     gradient                   ...        0 min,  0.011 sec
 * total energy  :   -94.2732986 Eh     change       -0.3987847E-04 Eh
   gradient norm :     0.0013056 Eh/α   predicted    -0.2795847E-04 ( -29.89%)
   displ. norm   :     0.4503977 α      lambda       -0.4200966E-04
   maximum displ.:     0.2903218 α      in ANC's #2, #6, #5, ...

........................................................................
.............................. CYCLE   33 ..............................
........................................................................

 iter      E             dE          RMSdq      gap      omega  full diag
   1    -95.4148431 -0.954148E+02  0.913E-02    1.16       0.0  T
   2    -95.4148496 -0.652916E-05  0.528E-02    1.16       1.0  T
   3    -95.4148475  0.212721E-05  0.113E-02    1.16       1.2  T
   4    -95.4148518 -0.431116E-05  0.299E-03    1.16       4.6  T
   5    -95.4148518 -0.606017E-07  0.169E-03    1.16       8.2  T
   6    -95.4148519 -0.599144E-07  0.378E-04    1.16      36.7  T
   7    -95.4148519 -0.185929E-08  0.215E-04    1.16      64.6  T
     SCC iter.                  ...        0 min,  0.025 sec
     gradient                   ...        0 min,  0.010 sec
 * total energy  :   -94.2733403 Eh     change       -0.4165306E-04 Eh
   gradient norm :     0.0021680 Eh/α   predicted    -0.2290162E-04 ( -45.02%)
   displ. norm   :     0.1674676 α      lambda       -0.2800385E-04
   maximum displ.:     0.1067088 α      in ANC's #2, #6, #5, ...

........................................................................
.............................. CYCLE   34 ..............................
........................................................................

 iter      E             dE          RMSdq      gap      omega  full diag
   1    -95.4159084 -0.954159E+02  0.329E-02    1.16       0.0  T
   2    -95.4159095 -0.110314E-05  0.190E-02    1.16       1.0  T
   3    -95.4159088  0.713841E-06  0.553E-03    1.16       2.5  T
   4    -95.4159099 -0.111657E-05  0.125E-03    1.16      11.1  T
   5    -95.4159100 -0.209822E-07  0.689E-04    1.16      20.1  T
   6    -95.4159100 -0.703848E-08  0.160E-04    1.16      86.9  T
     SCC iter.                  ...        0 min,  0.019 sec
     gradient                   ...        0 min,  0.010 sec
 * total energy  :   -94.2733638 Eh     change       -0.2355621E-04 Eh
   gradient norm :     0.0019066 Eh/α   predicted    -0.1439542E-04 ( -38.89%)
   displ. norm   :     0.6668103 α      lambda       -0.6319622E-04
   maximum displ.:     0.4200532 α      in ANC's #2, #6, #5, ...

........................................................................
.............................. CYCLE   35 ..............................
........................................................................

 iter      E             dE          RMSdq      gap      omega  full diag
   1    -95.4138715 -0.954139E+02  0.132E-01    1.12       0.0  T
   2    -95.4138856 -0.141122E-04  0.759E-02    1.12       1.0  T
   3    -95.4138846  0.975213E-06  0.132E-02    1.13       1.1  T
   4    -95.4138902 -0.557695E-05  0.473E-03    1.13       2.9  T
   5    -95.4138904 -0.152107E-06  0.238E-03    1.13       5.8  T
   6    -95.4138905 -0.136637E-06  0.717E-04    1.13      19.3  T
   7    -95.4138905 -0.107065E-07  0.319E-04    1.13      43.5  T
     SCC iter.                  ...        0 min,  0.024 sec
     gradient                   ...        0 min,  0.011 sec
 * total energy  :   -94.2734097 Eh     change       -0.4585491E-04 Eh
   gradient norm :     0.0046065 Eh/α   predicted    -0.3784585E-04 ( -17.47%)
   displ. norm   :     0.1273069 α      lambda       -0.6743579E-04
   maximum displ.:     0.0605933 α      in ANC's #8, #7, #16, ...

........................................................................
.............................. CYCLE   36 ..............................
........................................................................

 iter      E             dE          RMSdq      gap      omega  full diag
   1    -95.4168238 -0.954168E+02  0.332E-02    1.14       0.0  T
   2    -95.4168261 -0.235711E-05  0.193E-02    1.14       1.0  T
   3    -95.4168244  0.169016E-05  0.903E-03    1.14       1.5  T
   4    -95.4168269 -0.250908E-05  0.151E-03    1.14       9.2  T
   5    -95.4168270 -0.796797E-07  0.660E-04    1.14      21.0  T
   6    -95.4168270 -0.680174E-08  0.390E-04    1.14      35.6  T
     SCC iter.                  ...        0 min,  0.021 sec
     gradient                   ...        0 min,  0.011 sec
 * total energy  :   -94.2734450 Eh     change       -0.3531661E-04 Eh
   gradient norm :     0.0021905 Eh/α   predicted    -0.3427201E-04 (  -2.96%)
   displ. norm   :     0.1408109 α      lambda       -0.2105813E-04
   maximum displ.:     0.0770762 α      in ANC's #2, #6, #5, ...

........................................................................
.............................. CYCLE   37 ..............................
........................................................................

 iter      E             dE          RMSdq      gap      omega  full diag
   1    -95.4162824 -0.954163E+02  0.268E-02    1.13       0.0  T
   2    -95.4162833 -0.862999E-06  0.154E-02    1.13       1.0  T
   3    -95.4162830  0.296085E-06  0.414E-03    1.13       3.4  T
   4    -95.4162835 -0.568371E-06  0.111E-03    1.13      12.5  T
   5    -95.4162836 -0.155105E-07  0.617E-04    1.13      22.5  T
   6    -95.4162836 -0.697877E-08  0.175E-04    1.13      79.2  T
     SCC iter.                  ...        0 min,  0.020 sec
     gradient                   ...        0 min,  0.010 sec
 * total energy  :   -94.2734635 Eh     change       -0.1855087E-04 Eh
   gradient norm :     0.0018034 Eh/α   predicted    -0.1073815E-04 ( -42.12%)
   displ. norm   :     0.5063001 α      lambda       -0.5757802E-04
   maximum displ.:     0.2426238 α      in ANC's #2, #5, #1, ...

........................................................................
.............................. CYCLE   38 ..............................
........................................................................

 iter      E             dE          RMSdq      gap      omega  full diag
   1    -95.4134042 -0.954134E+02  0.979E-02    1.09       0.0  T
   2    -95.4134164 -0.121090E-04  0.562E-02    1.10       1.0  T
   3    -95.4134145  0.187411E-05  0.129E-02    1.10       1.1  T
   4    -95.4134197 -0.518836E-05  0.415E-03    1.10       3.3  T
   5    -95.4134199 -0.228116E-06  0.224E-03    1.10       6.2  T
   6    -95.4134200 -0.971700E-07  0.716E-04    1.10      19.4  T
   7    -95.4134200 -0.953446E-08  0.305E-04    1.10      45.5  T
     SCC iter.                  ...        0 min,  0.027 sec
     gradient                   ...        0 min,  0.011 sec
 * total energy  :   -94.2734939 Eh     change       -0.3033529E-04 Eh
   gradient norm :     0.0043545 Eh/α   predicted    -0.3207144E-04 (   5.72%)
   displ. norm   :     0.1522283 α      lambda       -0.3256663E-04
   maximum displ.:     0.0990712 α      in ANC's #2, #6, #5, ...

........................................................................
.............................. CYCLE   39 ..............................
........................................................................

 iter      E             dE          RMSdq      gap      omega  full diag
   1    -95.4148623 -0.954149E+02  0.331E-02    1.12       0.0  T
   2    -95.4148638 -0.153973E-05  0.191E-02    1.12       1.0  T
   3    -95.4148634  0.402432E-06  0.462E-03    1.12       3.0  T
   4    -95.4148641 -0.646910E-06  0.160E-03    1.12       8.7  T
   5    -95.4148642 -0.833115E-07  0.621E-04    1.12      22.3  T
   6    -95.4148642 -0.181525E-08  0.309E-04    1.12      44.9  T
     SCC iter.                  ...        0 min,  0.021 sec
     gradient                   ...        0 min,  0.010 sec
 * total energy  :   -94.2735115 Eh     change       -0.1759497E-04 Eh
   gradient norm :     0.0021172 Eh/α   predicted    -0.1666128E-04 (  -5.31%)
   displ. norm   :     0.0374239 α      lambda       -0.1547147E-04
   maximum displ.:     0.0231316 α      in ANC's #6, #2, #8, ...

........................................................................
.............................. CYCLE   40 ..............................
........................................................................

 iter      E             dE          RMSdq      gap      omega  full diag
   1    -95.4155772 -0.954156E+02  0.104E-02    1.12       0.0  T
   2    -95.4155773 -0.139434E-06  0.615E-03    1.12       2.3  T
   3    -95.4155772  0.106072E-06  0.202E-03    1.12       6.9  T
   4    -95.4155774 -0.145528E-06  0.381E-04    1.12      36.4  T
   5    -95.4155774 -0.404042E-08  0.207E-04    1.12      67.1  T
     SCC iter.                  ...        0 min,  0.017 sec
     gradient                   ...        0 min,  0.010 sec
 * total energy  :   -94.2735242 Eh     change       -0.1277676E-04 Eh
   gradient norm :     0.0010325 Eh/α   predicted    -0.7749753E-05 ( -39.34%)
   displ. norm   :     0.2065471 α      lambda       -0.3562067E-04
   maximum displ.:     0.1008679 α      in ANC's #5, #8, #6, ...

........................................................................
.............................. CYCLE   41 ..............................
........................................................................

 iter      E             dE          RMSdq      gap      omega  full diag
   1    -95.4164862 -0.954165E+02  0.488E-02    1.10       0.0  T
   2    -95.4164881 -0.184275E-05  0.286E-02    1.10       1.0  T
   3    -95.4164866  0.149990E-05  0.698E-03    1.11       2.0  T
   4    -95.4164888 -0.228408E-05  0.196E-03    1.11       7.1  T
   5    -95.4164889 -0.340068E-07  0.101E-03    1.11      13.8  T
   6    -95.4164889 -0.102857E-07  0.445E-04    1.11      31.1  T
   7    -95.4164889 -0.313423E-08  0.252E-04    1.11      55.0  T
     SCC iter.                  ...        0 min,  0.028 sec
     gradient                   ...        0 min,  0.011 sec
 * total energy  :   -94.2735535 Eh     change       -0.2923411E-04 Eh
   gradient norm :     0.0027529 Eh/α   predicted    -0.1814856E-04 ( -37.92%)
   displ. norm   :     0.1187765 α      lambda       -0.1873750E-04
   maximum displ.:     0.0611599 α      in ANC's #5, #8, #1, ...

........................................................................
.............................. CYCLE   42 ..............................
........................................................................

 iter      E             dE          RMSdq      gap      omega  full diag
   1    -95.4159243 -0.954159E+02  0.260E-02    1.10       0.0  T
   2    -95.4159252 -0.962887E-06  0.152E-02    1.10       1.0  T
   3    -95.4159248  0.383810E-06  0.473E-03    1.10       2.9  T
   4    -95.4159255 -0.678447E-06  0.106E-03    1.10      13.1  T
   5    -95.4159255 -0.141988E-07  0.579E-04    1.10      23.9  T
   6    -95.4159255 -0.381618E-08  0.249E-04    1.10      55.8  T
     SCC iter.                  ...        0 min,  0.021 sec
     gradient                   ...        0 min,  0.011 sec
 * total energy  :   -94.2735671 Eh     change       -0.1358191E-04 Eh
   gradient norm :     0.0025926 Eh/α   predicted    -0.9501609E-05 ( -30.04%)
   displ. norm   :     0.2074811 α      lambda       -0.2925711E-04
   maximum displ.:     0.1113213 α      in ANC's #5, #8, #1, ...
 * RMSD in coord.:     0.5107338 α      energy gain  -0.8332349E-03 Eh

generating ANC from exact Hessian ...
Using Lindh-Hessian (1995)
 Shifting diagonal of input Hessian by    9.8152995041747137E-003
 Lowest  eigenvalues of input Hessian
    0.000000    0.000000    0.000000    0.000000    0.000000    0.000000
    0.010000    0.010088    0.010312    0.010471    0.010872    0.011121
    0.011304    0.011577    0.011655    0.014552    0.015024    0.015414
 Highest eigenvalues
    2.039129    2.045210    2.049248    2.286397    2.377471    2.671647


........................................................................
.............................. CYCLE   43 ..............................
........................................................................

 iter      E             dE          RMSdq      gap      omega  full diag
   1    -95.4146990 -0.954147E+02  0.439E-02    1.09       0.0  T
   2    -95.4147008 -0.184697E-05  0.255E-02    1.09       1.0  T
   3    -95.4147006  0.265453E-06  0.489E-03    1.09       2.8  T
   4    -95.4147014 -0.825011E-06  0.179E-03    1.09       7.7  T
   5    -95.4147014 -0.396924E-07  0.979E-04    1.09      14.2  T
   6    -95.4147015 -0.160744E-07  0.354E-04    1.09      39.2  T
     SCC iter.                  ...        0 min,  0.023 sec
     gradient                   ...        0 min,  0.011 sec
 * total energy  :   -94.2735857 Eh     change       -0.1867473E-04 Eh
   gradient norm :     0.0021428 Eh/α   predicted     0.0000000E+00 (-100.00%)
   displ. norm   :     0.0156993 α      lambda       -0.9731359E-05
   maximum displ.:     0.0061618 α      in ANC's #3, #2, #12, ...

........................................................................
.............................. CYCLE   44 ..............................
........................................................................

 iter      E             dE          RMSdq      gap      omega  full diag
   1    -95.4155285 -0.954155E+02  0.560E-03    1.10       0.0  T
   2    -95.4155287 -0.156402E-06  0.324E-03    1.10       4.3  T
   3    -95.4155286  0.151870E-07  0.160E-03    1.10       8.7  T
   4    -95.4155287 -0.406105E-07  0.456E-04    1.09      30.4  T
   5    -95.4155287 -0.645055E-08  0.169E-04    1.09      81.8  T
     SCC iter.                  ...        0 min,  0.018 sec
     gradient                   ...        0 min,  0.010 sec
 * total energy  :   -94.2735933 Eh     change       -0.7549771E-05 Eh
   gradient norm :     0.0008616 Eh/α   predicted    -0.5188998E-05 ( -31.27%)
   displ. norm   :     0.0443731 α      lambda       -0.6833221E-05
   maximum displ.:     0.0201856 α      in ANC's #3, #2, #1, ...

........................................................................
.............................. CYCLE   45 ..............................
........................................................................

 iter      E             dE          RMSdq      gap      omega  full diag
   1    -95.4163074 -0.954163E+02  0.104E-02    1.10       0.0  T
   2    -95.4163077 -0.292120E-06  0.607E-03    1.10       2.3  T
   3    -95.4163076  0.112133E-06  0.267E-03    1.10       5.2  T
   4    -95.4163078 -0.185653E-06  0.643E-04    1.10      21.6  T
   5    -95.4163078 -0.102521E-07  0.329E-04    1.10      42.1  T
     SCC iter.                  ...        0 min,  0.016 sec
     gradient                   ...        0 min,  0.009 sec
 * total energy  :   -94.2735993 Eh     change       -0.5973799E-05 Eh
   gradient norm :     0.0012523 Eh/α   predicted    -0.3850738E-05 ( -35.54%)
   displ. norm   :     0.0329161 α      lambda       -0.3709196E-05
   maximum displ.:     0.0165138 α      in ANC's #3, #2, #1, ...

........................................................................
.............................. CYCLE   46 ..............................
........................................................................

 iter      E             dE          RMSdq      gap      omega  full diag
   1    -95.4159651 -0.954160E+02  0.692E-03    1.10       0.0  T
   2    -95.4159651 -0.418659E-07  0.404E-03    1.10       3.4  T
   3    -95.4159651  0.115111E-08  0.709E-04    1.10      19.6  T
   4    -95.4159651 -0.134378E-07  0.306E-04    1.10      45.3  T
     SCC iter.                  ...        0 min,  0.014 sec
     gradient                   ...        0 min,  0.011 sec
 * total energy  :   -94.2736034 Eh     change       -0.4100104E-05 Eh
   gradient norm :     0.0010711 Eh/α   predicted    -0.1885723E-05 ( -54.01%)
   displ. norm   :     0.1020264 α      lambda       -0.1058786E-04
   maximum displ.:     0.0497213 α      in ANC's #3, #2, #1, ...

........................................................................
.............................. CYCLE   47 ..............................
........................................................................

 iter      E             dE          RMSdq      gap      omega  full diag
   1    -95.4146543 -0.954147E+02  0.212E-02    1.09       0.0  T
   2    -95.4146547 -0.408353E-06  0.123E-02    1.09       1.1  T
   3    -95.4146547  0.142636E-07  0.189E-03    1.09       7.3  T
   4    -95.4146548 -0.849747E-07  0.790E-04    1.09      17.6  T
   5    -95.4146548 -0.146732E-07  0.381E-04    1.09      36.4  T
     SCC iter.                  ...        0 min,  0.023 sec
     gradient                   ...        0 min,  0.011 sec
 * total energy  :   -94.2736119 Eh     change       -0.8559742E-05 Eh
   gradient norm :     0.0015638 Eh/α   predicted    -0.5347149E-05 ( -37.53%)
   displ. norm   :     0.0747156 α      lambda       -0.6223283E-05
   maximum displ.:     0.0374711 α      in ANC's #3, #2, #1, ...

........................................................................
.............................. CYCLE   48 ..............................
........................................................................

 iter      E             dE          RMSdq      gap      omega  full diag
   1    -95.4147856 -0.954148E+02  0.147E-02    1.09       0.0  T
   2    -95.4147857 -0.103571E-06  0.857E-03    1.09       1.6  T
   3    -95.4147857 -0.733962E-09  0.105E-03    1.09      13.2  T
   4    -95.4147857 -0.342462E-07  0.420E-04    1.09      33.0  T
   5    -95.4147857 -0.780190E-09  0.233E-04    1.09      59.5  T
     SCC iter.                  ...        0 min,  0.016 sec
     gradient                   ...        0 min,  0.010 sec
 * total energy  :   -94.2736197 Eh     change       -0.7828452E-05 Eh
   gradient norm :     0.0012681 Eh/α   predicted    -0.3120199E-05 ( -60.14%)
   displ. norm   :     0.1485578 α      lambda       -0.1145798E-04
   maximum displ.:     0.0747546 α      in ANC's #3, #2, #1, ...

........................................................................
.............................. CYCLE   49 ..............................
........................................................................

 iter      E             dE          RMSdq      gap      omega  full diag
   1    -95.4154160 -0.954154E+02  0.297E-02    1.09       0.0  T
   2    -95.4154164 -0.447504E-06  0.173E-02    1.09       1.0  T
   3    -95.4154163  0.101919E-06  0.253E-03    1.09       5.5  T
   4    -95.4154166 -0.255322E-06  0.915E-04    1.09      15.2  T
   5    -95.4154166 -0.100324E-07  0.476E-04    1.09      29.1  T
     SCC iter.                  ...        0 min,  0.017 sec
     gradient                   ...        0 min,  0.012 sec
 * total energy  :   -94.2736323 Eh     change       -0.1256754E-04 Eh
   gradient norm :     0.0006203 Eh/α   predicted    -0.5791523E-05 ( -53.92%)
   displ. norm   :     0.1506097 α      lambda       -0.7655171E-05
   maximum displ.:     0.0773484 α      in ANC's #3, #2, #1, ...

........................................................................
.............................. CYCLE   50 ..............................
........................................................................

 iter      E             dE          RMSdq      gap      omega  full diag
   1    -95.4156930 -0.954157E+02  0.290E-02    1.09       0.0  T
   2    -95.4156934 -0.374316E-06  0.169E-02    1.09       1.0  T
   3    -95.4156933  0.122944E-06  0.249E-03    1.09       5.6  T
   4    -95.4156936 -0.268400E-06  0.871E-04    1.09      15.9  T
   5    -95.4156936 -0.696650E-08  0.438E-04    1.09      31.7  T
     SCC iter.                  ...        0 min,  0.021 sec
     gradient                   ...        0 min,  0.011 sec
 * total energy  :   -94.2736414 Eh     change       -0.9049101E-05 Eh
   gradient norm :     0.0007892 Eh/α   predicted    -0.3867334E-05 ( -57.26%)
   displ. norm   :     0.1461700 α      lambda       -0.7349498E-05
   maximum displ.:     0.0767602 α      in ANC's #3, #2, #1, ...

........................................................................
.............................. CYCLE   51 ..............................
........................................................................

 iter      E             dE          RMSdq      gap      omega  full diag
   1    -95.4158826 -0.954159E+02  0.280E-02    1.09       0.0  T
   2    -95.4158830 -0.389236E-06  0.163E-02    1.09       1.0  T
   3    -95.4158829  0.137879E-06  0.255E-03    1.09       5.4  T
   4    -95.4158832 -0.288259E-06  0.868E-04    1.09      16.0  T
   5    -95.4158832 -0.707601E-08  0.423E-04    1.09      32.8  T
     SCC iter.                  ...        0 min,  0.016 sec
     gradient                   ...        0 min,  0.010 sec
 * total energy  :   -94.2736512 Eh     change       -0.9806721E-05 Eh
   gradient norm :     0.0008177 Eh/α   predicted    -0.3710690E-05 ( -62.16%)
   displ. norm   :     0.2014031 α      lambda       -0.1155744E-04
   maximum displ.:     0.1075528 α      in ANC's #3, #2, #1, ...

........................................................................
.............................. CYCLE   52 ..............................
........................................................................

 iter      E             dE          RMSdq      gap      omega  full diag
   1    -95.4159085 -0.954159E+02  0.382E-02    1.09       0.0  T
   2    -95.4159093 -0.784651E-06  0.222E-02    1.09       1.0  T
   3    -95.4159090  0.331320E-06  0.377E-03    1.09       3.7  T
   4    -95.4159096 -0.626934E-06  0.119E-03    1.09      11.6  T
   5    -95.4159096 -0.139462E-07  0.591E-04    1.09      23.5  T
   6    -95.4159096 -0.529873E-08  0.153E-04    1.09      90.9  T
     SCC iter.                  ...        0 min,  0.019 sec
     gradient                   ...        0 min,  0.011 sec
 * total energy  :   -94.2736668 Eh     change       -0.1560393E-04 Eh
   gradient norm :     0.0007537 Eh/α   predicted    -0.5885830E-05 ( -62.28%)
   displ. norm   :     0.3095990 α      lambda       -0.1795055E-04
   maximum displ.:     0.1667490 α      in ANC's #3, #2, #1, ...

........................................................................
.............................. CYCLE   53 ..............................
........................................................................

 iter      E             dE          RMSdq      gap      omega  full diag
   1    -95.4153851 -0.954154E+02  0.590E-02    1.08       0.0  T
   2    -95.4153871 -0.196572E-05  0.343E-02    1.08       1.0  T
   3    -95.4153864  0.673434E-06  0.572E-03    1.08       2.4  T
   4    -95.4153878 -0.138139E-05  0.187E-03    1.08       7.4  T
   5    -95.4153878 -0.355843E-07  0.929E-04    1.08      14.9  T
   6    -95.4153878 -0.132269E-07  0.230E-04    1.08      60.4  T
     SCC iter.                  ...        0 min,  0.023 sec
     gradient                   ...        0 min,  0.011 sec
 * total energy  :   -94.2736893 Eh     change       -0.2248415E-04 Eh
   gradient norm :     0.0010524 Eh/α   predicted    -0.9360626E-05 ( -58.37%)
   displ. norm   :     0.3612426 α      lambda       -0.2090433E-04
   maximum displ.:     0.1951709 α      in ANC's #2, #3, #1, ...

........................................................................
.............................. CYCLE   54 ..............................
........................................................................

 iter      E             dE          RMSdq      gap      omega  full diag
   1    -95.4150240 -0.954150E+02  0.687E-02    1.07       0.0  T
   2    -95.4150266 -0.262653E-05  0.399E-02    1.08       1.0  T
   3    -95.4150257  0.898723E-06  0.667E-03    1.08       2.1  T
   4    -95.4150276 -0.185873E-05  0.216E-03    1.08       6.4  T
   5    -95.4150276 -0.437813E-07  0.108E-03    1.08      12.8  T
   6    -95.4150276 -0.192202E-07  0.272E-04    1.08      51.0  T
   7    -95.4150276 -0.869377E-09  0.145E-04    1.08      95.5  T
     SCC iter.                  ...        0 min,  0.023 sec
     gradient                   ...        0 min,  0.010 sec
 * total energy  :   -94.2737132 Eh     change       -0.2392047E-04 Eh
   gradient norm :     0.0014969 Eh/α   predicted    -0.1106230E-04 ( -53.75%)
   displ. norm   :     0.3324523 α      lambda       -0.1906157E-04
   maximum displ.:     0.1795940 α      in ANC's #2, #1, #3, ...

........................................................................
.............................. CYCLE   55 ..............................
........................................................................

 iter      E             dE          RMSdq      gap      omega  full diag
   1    -95.4147391 -0.954147E+02  0.633E-02    1.07       0.0  T
   2    -95.4147413 -0.217150E-05  0.368E-02    1.07       1.0  T
   3    -95.4147406  0.702043E-06  0.602E-03    1.07       2.3  T
   4    -95.4147421 -0.150741E-05  0.198E-03    1.07       7.0  T
   5    -95.4147421 -0.331973E-07  0.987E-04    1.07      14.1  T
   6    -95.4147421 -0.163623E-07  0.258E-04    1.07      53.8  T
     SCC iter.                  ...        0 min,  0.019 sec
     gradient                   ...        0 min,  0.009 sec
 * total energy  :   -94.2737360 Eh     change       -0.2277363E-04 Eh
   gradient norm :     0.0017476 Eh/α   predicted    -0.1000091E-04 ( -56.09%)
   displ. norm   :     0.3518050 α      lambda       -0.2525536E-04
   maximum displ.:     0.1940872 α      in ANC's #1, #2, #3, ...

........................................................................
.............................. CYCLE   56 ..............................
........................................................................

 iter      E             dE          RMSdq      gap      omega  full diag
   1    -95.4151516 -0.954152E+02  0.666E-02    1.07       0.0  T
   2    -95.4151538 -0.224126E-05  0.388E-02    1.07       1.0  T
   3    -95.4151531  0.701845E-06  0.616E-03    1.07       2.3  T
   4    -95.4151547 -0.156761E-05  0.206E-03    1.07       6.7  T
   5    -95.4151547 -0.310147E-07  0.101E-03    1.07      13.8  T
   6    -95.4151547 -0.180807E-07  0.290E-04    1.07      47.9  T
   7    -95.4151547 -0.879979E-09  0.181E-04    1.07      76.8  T
     SCC iter.                  ...        0 min,  0.029 sec
     gradient                   ...        0 min,  0.011 sec
 * total energy  :   -94.2737660 Eh     change       -0.3006376E-04 Eh
   gradient norm :     0.0014435 Eh/α   predicted    -0.1332280E-04 ( -55.68%)
   displ. norm   :     0.6681319 α      lambda       -0.3666078E-04
   maximum displ.:     0.3646731 α      in ANC's #1, #3, #2, ...

........................................................................
.............................. CYCLE   57 ..............................
........................................................................

 iter      E             dE          RMSdq      gap      omega  full diag
   1    -95.4102403 -0.954102E+02  0.128E-01    1.05       0.0  T
   2    -95.4102497 -0.937565E-05  0.744E-02    1.05       1.0  T
   3    -95.4102490  0.722497E-06  0.102E-02    1.06       1.4  T
   4    -95.4102527 -0.372620E-05  0.405E-03    1.06       3.4  T
   5    -95.4102529 -0.188785E-06  0.192E-03    1.06       7.2  T
   6    -95.4102529 -0.429396E-07  0.634E-04    1.06      21.9  T
   7    -95.4102529 -0.842350E-08  0.309E-04    1.06      44.9  T
     SCC iter.                  ...        0 min,  0.023 sec
     gradient                   ...        0 min,  0.010 sec
 * total energy  :   -94.2737481 Eh     change        0.1791983E-04 Eh
   gradient norm :     0.0071770 Eh/α   predicted    -0.2197012E-04 (-222.60%)
   displ. norm   :     0.0932158 α      lambda       -0.1046943E-03
   maximum displ.:     0.0439213 α      in ANC's #3, #2, #12, ...

........................................................................
.............................. CYCLE   58 ..............................
........................................................................

 iter      E             dE          RMSdq      gap      omega  full diag
   1    -95.4143866 -0.954144E+02  0.218E-02    1.07       0.0  T
   2    -95.4143879 -0.136872E-05  0.124E-02    1.07       1.1  T
   3    -95.4143878  0.147212E-06  0.405E-03    1.07       3.4  T
   4    -95.4143881 -0.254705E-06  0.134E-03    1.07      10.3  T
   5    -95.4143881 -0.650435E-07  0.499E-04    1.07      27.8  T
   6    -95.4143881 -0.116130E-08  0.289E-04    1.07      47.9  T
     SCC iter.                  ...        0 min,  0.020 sec
     gradient                   ...        0 min,  0.011 sec
 * total energy  :   -94.2738095 Eh     change       -0.6144472E-04 Eh
   gradient norm :     0.0020656 Eh/α   predicted    -0.5280340E-04 ( -14.06%)
   displ. norm   :     0.1208504 α      lambda       -0.1341440E-04
   maximum displ.:     0.0703180 α      in ANC's #1, #3, #2, ...

........................................................................
.............................. CYCLE   59 ..............................
........................................................................

 iter      E             dE          RMSdq      gap      omega  full diag
   1    -95.4152954 -0.954153E+02  0.229E-02    1.07       0.0  T
   2    -95.4152957 -0.280582E-06  0.133E-02    1.07       1.0  T
   3    -95.4152956  0.106942E-06  0.217E-03    1.07       6.4  T
   4    -95.4152958 -0.208180E-06  0.756E-04    1.07      18.3  T
   5    -95.4152958 -0.723365E-08  0.366E-04    1.07      37.9  T
     SCC iter.                  ...        0 min,  0.022 sec
     gradient                   ...        0 min,  0.011 sec
 * total energy  :   -94.2738190 Eh     change       -0.9461783E-05 Eh
   gradient norm :     0.0010575 Eh/α   predicted    -0.6806247E-05 ( -28.07%)
   displ. norm   :     0.2771392 α      lambda       -0.1122674E-04
   maximum displ.:     0.1614575 α      in ANC's #1, #3, #2, ...

........................................................................
.............................. CYCLE   60 ..............................
........................................................................

 iter      E             dE          RMSdq      gap      omega  full diag
   1    -95.4156236 -0.954156E+02  0.532E-02    1.06       0.0  T
   2    -95.4156249 -0.125598E-05  0.310E-02    1.06       1.0  T
   3    -95.4156245  0.311565E-06  0.437E-03    1.07       3.2  T
   4    -95.4156254 -0.828235E-06  0.163E-03    1.07       8.5  T
   5    -95.4156254 -0.187770E-07  0.710E-04    1.07      19.5  T
   6    -95.4156254 -0.985119E-08  0.250E-04    1.07      55.4  T
     SCC iter.                  ...        0 min,  0.021 sec
     gradient                   ...        0 min,  0.012 sec
 * total energy  :   -94.2738320 Eh     change       -0.1296870E-04 Eh
   gradient norm :     0.0008385 Eh/α   predicted    -0.5806720E-05 ( -55.23%)
   displ. norm   :     0.4534690 α      lambda       -0.1781895E-04
   maximum displ.:     0.2645270 α      in ANC's #1, #3, #2, ...

........................................................................
.............................. CYCLE   61 ..............................
........................................................................

 iter      E             dE          RMSdq      gap      omega  full diag
   1    -95.4142143 -0.954142E+02  0.886E-02    1.06       0.0  T
   2    -95.4142178 -0.347932E-05  0.515E-02    1.06       1.0  T
   3    -95.4142177  0.456693E-07  0.602E-03    1.06       2.3  T
   4    -95.4142191 -0.134533E-05  0.266E-03    1.06       5.2  T
   5    -95.4142191 -0.704263E-07  0.112E-03    1.06      12.4  T
   6    -95.4142192 -0.202177E-07  0.416E-04    1.06      33.4  T
   7    -95.4142192 -0.293652E-08  0.246E-04    1.06      56.4  T
     SCC iter.                  ...        0 min,  0.025 sec
     gradient                   ...        0 min,  0.010 sec
 * total energy  :   -94.2738490 Eh     change       -0.1704741E-04 Eh
   gradient norm :     0.0021819 Eh/α   predicted    -0.9727852E-05 ( -42.94%)
   displ. norm   :     0.1685584 α      lambda       -0.2188860E-04
   maximum displ.:     0.0973618 α      in ANC's #1, #3, #2, ...

........................................................................
.............................. CYCLE   62 ..............................
........................................................................

 iter      E             dE          RMSdq      gap      omega  full diag
   1    -95.4154034 -0.954154E+02  0.351E-02    1.06       0.0  T
   2    -95.4154039 -0.505475E-06  0.205E-02    1.06       1.0  T
   3    -95.4154036  0.293811E-06  0.326E-03    1.06       4.3  T
   4    -95.4154041 -0.507609E-06  0.103E-03    1.06      13.4  T
   5    -95.4154041 -0.979121E-08  0.492E-04    1.06      28.2  T
   6    -95.4154041 -0.278722E-08  0.232E-04    1.06      59.8  T
     SCC iter.                  ...        0 min,  0.025 sec
     gradient                   ...        0 min,  0.011 sec
 * total energy  :   -94.2738655 Eh     change       -0.1647686E-04 Eh
   gradient norm :     0.0016805 Eh/α   predicted    -0.1126098E-04 ( -31.66%)
   displ. norm   :     0.4679699 α      lambda       -0.2486707E-04
   maximum displ.:     0.2739032 α      in ANC's #1, #3, #2, ...

........................................................................
.............................. CYCLE   63 ..............................
........................................................................

 iter      E             dE          RMSdq      gap      omega  full diag
   1    -95.4145202 -0.954145E+02  0.956E-02    1.05       0.0  T
   2    -95.4145236 -0.343210E-05  0.557E-02    1.05       1.0  T
   3    -95.4145241 -0.478735E-06  0.526E-03    1.05       2.6  T
   4    -95.4145250 -0.843388E-06  0.263E-03    1.05       5.3  T
   5    -95.4145250 -0.661240E-07  0.102E-03    1.05      13.6  T
   6    -95.4145251 -0.231794E-07  0.385E-04    1.05      36.0  T
   7    -95.4145251 -0.237691E-08  0.219E-04    1.05      63.4  T
     SCC iter.                  ...        0 min,  0.022 sec
     gradient                   ...        0 min,  0.010 sec
 * total energy  :   -94.2738841 Eh     change       -0.1864017E-04 Eh
   gradient norm :     0.0023782 Eh/α   predicted    -0.1364575E-04 ( -26.79%)
   displ. norm   :     0.0442503 α      lambda       -0.1638116E-04
   maximum displ.:     0.0219296 α      in ANC's #9, #11, #5, ...

........................................................................
.............................. CYCLE   64 ..............................
........................................................................

 iter      E             dE          RMSdq      gap      omega  full diag
   1    -95.4161914 -0.954162E+02  0.104E-02    1.06       0.0  T
   2    -95.4161918 -0.349435E-06  0.609E-03    1.06       2.3  T
   3    -95.4161917  0.912227E-07  0.266E-03    1.06       5.2  T
   4    -95.4161919 -0.152993E-06  0.603E-04    1.06      23.0  T
   5    -95.4161919 -0.126676E-07  0.218E-04    1.06      63.7  T
     SCC iter.                  ...        0 min,  0.016 sec
     gradient                   ...        0 min,  0.011 sec
 * total energy  :   -94.2738930 Eh     change       -0.8906258E-05 Eh
   gradient norm :     0.0011366 Eh/α   predicted    -0.8207767E-05 (  -7.84%)
   displ. norm   :     0.3321783 α      lambda       -0.1294911E-04
   maximum displ.:     0.2054849 α      in ANC's #1, #3, #2, ...

........................................................................
.............................. CYCLE   65 ..............................
........................................................................

 iter      E             dE          RMSdq      gap      omega  full diag
   1    -95.4146329 -0.954146E+02  0.627E-02    1.05       0.0  T
   2    -95.4146348 -0.188497E-05  0.365E-02    1.05       1.0  T
   3    -95.4146345  0.287703E-06  0.505E-03    1.05       2.7  T
   4    -95.4146354 -0.974733E-06  0.189E-03    1.05       7.3  T
   5    -95.4146355 -0.280584E-07  0.931E-04    1.05      14.9  T
   6    -95.4146355 -0.135621E-07  0.345E-04    1.05      40.2  T
     SCC iter.                  ...        0 min,  0.026 sec
     gradient                   ...        0 min,  0.011 sec
 * total energy  :   -94.2739016 Eh     change       -0.8601112E-05 Eh
   gradient norm :     0.0022620 Eh/α   predicted    -0.6788346E-05 ( -21.08%)
   displ. norm   :     0.0804374 α      lambda       -0.1376251E-04
   maximum displ.:     0.0522876 α      in ANC's #1, #3, #2, ...

........................................................................
.............................. CYCLE   66 ..............................
........................................................................

 iter      E             dE          RMSdq      gap      omega  full diag
   1    -95.4151867 -0.954152E+02  0.150E-02    1.05       0.0  T
   2    -95.4151869 -0.250212E-06  0.872E-03    1.05       1.6  T
   3    -95.4151869  0.279881E-07  0.174E-03    1.05       8.0  T
   4    -95.4151870 -0.914246E-07  0.612E-04    1.05      22.7  T
   5    -95.4151870 -0.392609E-08  0.388E-04    1.05      35.7  T
     SCC iter.                  ...        0 min,  0.016 sec
     gradient                   ...        0 min,  0.010 sec
 * total energy  :   -94.2739115 Eh     change       -0.9870070E-05 Eh
   gradient norm :     0.0014265 Eh/α   predicted    -0.6927838E-05 ( -29.81%)
   displ. norm   :     0.2264820 α      lambda       -0.1094227E-04
   maximum displ.:     0.1510034 α      in ANC's #1, #3, #2, ...
 * RMSD in coord.:     0.6619719 α      energy gain  -0.3444532E-03 Eh

generating ANC from exact Hessian ...
Using Lindh-Hessian (1995)
 Shifting diagonal of input Hessian by    9.8284450328148896E-003
 Lowest  eigenvalues of input Hessian
    0.000000    0.000000    0.000000    0.000000    0.000000    0.000000
    0.010000    0.010081    0.010363    0.010497    0.010842    0.011140
    0.011294    0.011617    0.011677    0.014608    0.014885    0.015689
 Highest eigenvalues
    2.042110    2.044681    2.049010    2.291446    2.375078    2.672326


........................................................................
.............................. CYCLE   67 ..............................
........................................................................

 iter      E             dE          RMSdq      gap      omega  full diag
   1    -95.4154635 -0.954155E+02  0.410E-02    1.04       0.0  T
   2    -95.4154645 -0.986244E-06  0.239E-02    1.04       1.0  T
   3    -95.4154642  0.267383E-06  0.405E-03    1.04       3.4  T
   4    -95.4154648 -0.625683E-06  0.131E-03    1.04      10.6  T
   5    -95.4154648 -0.966000E-08  0.714E-04    1.04      19.4  T
   6    -95.4154648 -0.105616E-07  0.264E-04    1.04      52.5  T
     SCC iter.                  ...        0 min,  0.025 sec
     gradient                   ...        0 min,  0.011 sec
 * total energy  :   -94.2739201 Eh     change       -0.8634670E-05 Eh
   gradient norm :     0.0015694 Eh/α   predicted     0.0000000E+00 (-100.00%)
   displ. norm   :     0.0199048 α      lambda       -0.5221506E-05
   maximum displ.:     0.0071717 α      in ANC's #5, #1, #11, ...

........................................................................
.............................. CYCLE   68 ..............................
........................................................................

 iter      E             dE          RMSdq      gap      omega  full diag
   1    -95.4163086 -0.954163E+02  0.699E-03    1.04       0.0  T
   2    -95.4163087 -0.814643E-07  0.407E-03    1.04       3.4  T
   3    -95.4163087  0.239254E-07  0.117E-03    1.04      11.8  T
   4    -95.4163087 -0.367735E-07  0.388E-04    1.04      35.7  T
   5    -95.4163087 -0.373085E-08  0.215E-04    1.04      64.4  T
     SCC iter.                  ...        0 min,  0.018 sec
     gradient                   ...        0 min,  0.010 sec
 * total energy  :   -94.2739255 Eh     change       -0.5363799E-05 Eh
   gradient norm :     0.0005940 Eh/α   predicted    -0.3013733E-05 ( -43.81%)
   displ. norm   :     0.0303718 α      lambda       -0.3794119E-05
   maximum displ.:     0.0120306 α      in ANC's #1, #5, #3, ...

........................................................................
.............................. CYCLE   69 ..............................
........................................................................

 iter      E             dE          RMSdq      gap      omega  full diag
   1    -95.4165447 -0.954165E+02  0.693E-03    1.05       0.0  T
   2    -95.4165448 -0.854500E-07  0.402E-03    1.05       3.5  T
   3    -95.4165447  0.423815E-07  0.147E-03    1.05       9.4  T
   4    -95.4165448 -0.687678E-07  0.452E-04    1.05      30.7  T
   5    -95.4165448 -0.327317E-08  0.304E-04    1.05      45.6  T
     SCC iter.                  ...        0 min,  0.016 sec
     gradient                   ...        0 min,  0.010 sec
 * total energy  :   -94.2739279 Eh     change       -0.2398335E-05 Eh
   gradient norm :     0.0010364 Eh/α   predicted    -0.1898643E-05 ( -20.83%)
   displ. norm   :     0.0453617 α      lambda       -0.4835977E-05
   maximum displ.:     0.0187806 α      in ANC's #1, #5, #3, ...

........................................................................
.............................. CYCLE   70 ..............................
........................................................................

 iter      E             dE          RMSdq      gap      omega  full diag
   1    -95.4163069 -0.954163E+02  0.106E-02    1.04       0.0  T
   2    -95.4163070 -0.981475E-07  0.616E-03    1.05       2.2  T
   3    -95.4163069  0.983402E-07  0.185E-03    1.05       7.5  T
   4    -95.4163070 -0.142807E-06  0.516E-04    1.05      26.9  T
   5    -95.4163070 -0.255797E-08  0.351E-04    1.05      39.5  T
     SCC iter.                  ...        0 min,  0.022 sec
     gradient                   ...        0 min,  0.012 sec
 * total energy  :   -94.2739314 Eh     change       -0.3480208E-05 Eh
   gradient norm :     0.0009890 Eh/α   predicted    -0.2422440E-05 ( -30.39%)
   displ. norm   :     0.0247255 α      lambda       -0.2223202E-05
   maximum displ.:     0.0119222 α      in ANC's #1, #3, #6, ...

   *** GEOMETRY OPTIMIZATION CONVERGED AFTER 70 ITERATIONS ***

------------------------------------------------------------------------
 total energy gain   :        -0.0234152 Eh      -14.6932 kcal/mol
 total RMSD          :         1.3209124 a0        0.6990 Å
 total power (kW/mol):        -0.8782357 (step)  -20.6703 (real)
------------------------------------------------------------------------

 ANCopt (total)                0 d,  0 h,  0 min,  2.974 sec
 optimizer setup                ...        0 min,  0.000 sec (  0.013%)
 model hessian                  ...        0 min,  0.134 sec (  4.492%)
 ANC generation                 ...        0 min,  0.008 sec (  0.271%)
 coordinate transformation      ...        0 min,  0.002 sec (  0.072%)
 single point calculation       ...        0 min,  2.779 sec ( 93.446%)
 optimization log               ...        0 min,  0.026 sec (  0.880%)
 hessian update                 ...        0 min,  0.008 sec (  0.274%)
 rational function              ...        0 min,  0.012 sec (  0.393%)

================
 final structure:
================
52
 xtb: 6.7.1 (edcfbbe)
C            7.04718863058996       -2.08446236632199        0.03183345731715
C            6.00779442671025       -1.09810704122361        0.37710885252479
O            5.89907892464605       -0.65016351883555        1.62138595471305
N            4.89159848743953        0.26399034909879        1.71162345196833
C            4.35362218659853        0.37997786684269        0.53504458655991
C            3.34978808335200        1.43381874235652        0.16393903482645
O            3.75359488415323        2.51043439294357       -0.22433598580816
N            2.06274159680625        1.09432639421648        0.27870529432282
C            1.58335287494158       -0.19064618511519        0.73781188778620
C            0.25682255978027       -0.50204540061888        0.05697081516628
N           -0.77422001474310        0.44610169434219        0.46315224016647
C           -1.88420309389539        0.46392033333408       -0.48192056452081
C           -3.03963974490324        1.29334280981962        0.03468082652410
C           -3.29535560604261        1.40318835856484        1.39595891114779
C           -4.38623005203097        2.11673201707154        1.85538057028662
C           -5.23772483739441        2.72102920894269        0.94416281764991
Cl          -6.60545719970853        3.61207419222835        1.51077282396008
C           -5.00095479009195        2.62061696464124       -0.41704895398920
C           -3.90312554741490        1.90775382503039       -0.86285620304605
C           -2.43108103966388       -0.93039917529089       -0.70614878210756
C           -2.64961045532890       -1.40694829048861       -1.99063805988613
C           -3.19112488248989       -2.66326774533074       -2.19952468509980
C           -3.51549226259426       -3.45126740213722       -1.10850589775086
Cl          -4.19215395846573       -5.02272432341698       -1.35810674622005
C           -3.30212749227891       -2.99403459054437        0.18282817037725
C           -2.76588384742418       -1.73567837568874        0.37617299261254
C           -0.21762337316111        1.77110784447868        0.72244735124996
C            1.04065741024609        2.05548590085132       -0.09173395399710
C            5.02919655465021       -0.48218352640863       -0.38456964765805
N            4.69332474495879       -0.70037176749019       -1.73932430065133
O            3.61480968355232       -0.28778457414178       -2.11250223153175
O            5.48721023838654       -1.31308495064921       -2.42311207981078
H            7.96953762243514       -1.56199898181290       -0.22439772707288
H            6.74025302321876       -2.66017264015804       -0.83828270647308
H            7.24541550388485       -2.73296398252901        0.88134607399879
H            1.45449562931181       -0.18382486181017        1.82668496731547
H            2.30777233402241       -0.96699170954093        0.48274831808197
H           -0.06729866731865       -1.50818910697772        0.33647368764662
H            0.41778210106369       -0.49150660909142       -1.03367285682655
H           -1.56583004293983        0.86919634423758       -1.46153249047121
H           -2.62338513288603        0.93650692464040        2.09811072300774
H           -4.57869182890980        2.20415821657818        2.91306488252251
H           -5.66791866523063        3.09649757830665       -1.11843913643670
H           -3.71958748212906        1.82890267277012       -1.92433755821984
H           -2.39457562123598       -0.79585858863941       -2.84412549322964
H           -3.35867842593502       -3.02906493935841       -3.19995625429394
H           -3.55881070610209       -3.61763216088931        1.02461365496667
H           -2.59831895476043       -1.37101194097885        1.37653246677437
H            0.03032853887167        1.83686686126669        1.78778037033769
H           -0.97191175918929        2.52938470788849        0.50939226901902
H            1.42683239789268        3.05725585087060        0.10810771329399
H            0.83381904675625        1.97971070412257       -1.16574385105592

 Bond Distances (Angstroems)
 ---------------------------
C1-C2=1.4739         C1-H33=1.0906        C1-H34=1.0875        C1-H35=1.0870        C2-C1=1.4739         C2-O3=1.3269         
C2-C29=1.3846        O3-C2=1.3269         O3-N4=1.3634         N4-O3=1.3634         N4-C5=1.2989         C5-N4=1.2989         
C5-C6=1.5020         C5-C29=1.4302        C6-C5=1.5020         C6-O7=1.2136         C6-N8=1.3360         O7-C6=1.2136         
N8-C6=1.3360         N8-C9=1.4463         N8-C28=1.4511        C9-N8=1.4463         C9-C10=1.5232        C9-H36=1.0965        
C9-H37=1.0920        C10-C9=1.5232        C10-N11=1.4584       C10-H38=1.0934       C10-H39=1.1025       N11-C10=1.4584       
N11-C12=1.4579       N11-C27=1.4604       C12-N11=1.4579       C12-C13=1.5132       C12-C20=1.5144       C12-H40=1.1069       
C13-C12=1.5132       C13-C14=1.3894       C13-C19=1.3888       C14-C13=1.3894       C14-C15=1.3821       C14-H41=1.0781       
C15-C14=1.3821       C15-C16=1.3858       C15-H42=1.0786       C16-C15=1.3858       C16-Cl17=1.7279      C16-C18=1.3853       
Cl17-C16=1.7279      C18-C16=1.3853       C18-C19=1.3828       C18-H43=1.0785       C19-C13=1.3888       C19-C18=1.3828       
C19-H44=1.0801       C20-C12=1.5144       C20-C21=1.3874       C20-C26=1.3900       C21-C20=1.3874       C21-C22=1.3839       
C21-H45=1.0802       C22-C21=1.3839       C22-C23=1.3844       C22-H46=1.0783       C23-C22=1.3844       C23-Cl24=1.7291      
C23-C25=1.3864       Cl24-C23=1.7291      C25-C23=1.3864       C25-C26=1.3814       C25-H47=1.0786       C26-C20=1.3900       
C26-C25=1.3814       C26-H48=1.0779       C27-N11=1.4604       C27-C28=1.5255       C27-H49=1.0958       C27-H50=1.0906       
C28-N8=1.4511        C28-C27=1.5255       C28-H51=1.0921       C28-H52=1.0964       C29-C2=1.3846        C29-C5=1.4302        
C29-N30=1.4127       N30-C29=1.4127       N30-O31=1.2135       N30-O32=1.2138       O31-N30=1.2135       O32-N30=1.2138       
H33-C1=1.0906        H34-C1=1.0875        H35-C1=1.0870        H36-C9=1.0965        H37-C9=1.0920        H38-C10=1.0934       
H39-C10=1.1025       H40-C12=1.1069       H41-C14=1.0781       H42-C15=1.0786       H43-C18=1.0785       H44-C19=1.0801       
H45-C21=1.0802       H46-C22=1.0783       H47-C25=1.0786       H48-C26=1.0779       H49-C27=1.0958       H50-C27=1.0906       
H51-C28=1.0921       H52-C28=1.0964       
 C  H  Rav=1.0881 sigma=0.0087  Rmin=1.0779  Rmax=1.1069    20
 C  C  Rav=1.4247 sigma=0.0566  Rmin=1.3814  Rmax=1.5255    20
 N  C  Rav=1.4152 sigma=0.0589  Rmin=1.2989  Rmax=1.4604     8
 O  C  Rav=1.2703 sigma=0.0566  Rmin=1.2136  Rmax=1.3269     2
 O  N  Rav=1.2636 sigma=0.0706  Rmin=1.2135  Rmax=1.3634     3
 Cl C  Rav=1.7285 sigma=0.0006  Rmin=1.7279  Rmax=1.7291     2

 selected bond angles (degree)
 --------------------
H33-C1-C2=109.32               H34-C1-C2=110.04               H34-C1-H33=107.72              H35-C1-C2=110.17               
H35-C1-H33=108.37              H35-C1-H34=111.16              O3-C2-C1=120.22                C29-C2-C1=131.85               
C29-C2-O3=107.92               N4-O3-C2=110.42                C5-N4-O3=107.82                C6-C5-N4=124.28                
C29-C5-N4=109.45               C29-C5-C6=125.44               O7-C6-C5=118.63                N8-C6-C5=116.38                
N8-C6-O7=124.99                C9-N8-C6=124.91                C28-N8-C6=119.23               C28-N8-C9=115.85               
C10-C9-N8=109.17               H36-C9-N8=110.41               H36-C9-C10=110.05              H37-C9-N8=109.73               
H37-C9-C10=109.15              H37-C9-H36=108.32              N11-C10-C9=110.99              H38-C10-C9=109.39              
H38-C10-N11=108.51             H39-C10-C9=108.24              H39-C10-N11=111.87             H39-C10-H38=107.76             

 selected dihedral angles (degree)
 ---------------------------------
O3-C2-C1-H33=272.72           O3-C2-C1-H34=154.61           O3-C2-C1-H35= 31.70           C29-C2-C1-H33= 92.82          
C29-C2-C1-H34=334.72          C29-C2-C1-H35=211.81          N4-O3-C2-C1=179.07            N4-O3-C2-C29=358.99           
C5-N4-O3-C2=  0.87            C6-C5-N4-O3=189.61            C29-C5-N4-O3=359.63           O7-C6-C5-N4= 86.95            
O7-C6-C5-C29=278.51           N8-C6-C5-N4=266.27            N8-C6-C5-C29= 97.83           C9-N8-C6-C5=  0.53            
C9-N8-C6-O7=179.80            C28-N8-C6-C5=181.35           C28-N8-C6-O7=  0.62           C10-C9-N8-C6=210.91           
C10-C9-N8-C28= 30.11          H36-C9-N8-C6= 89.80           H36-C9-N8-C28=269.01          H37-C9-N8-C6=330.48           
H37-C9-N8-C28=149.69          N11-C10-C9-N8=294.99          N11-C10-C9-H36= 56.31         N11-C10-C9-H37=175.05         
H38-C10-C9-N8=175.28          H38-C10-C9-H36=296.60         H38-C10-C9-H37= 55.34         H39-C10-C9-N8= 58.12          
H39-C10-C9-H36=179.44         H39-C10-C9-H37=298.19         
           -------------------------------------------------
          |                Final Singlepoint                |
           -------------------------------------------------

          ...................................................
          :                      SETUP                      :
          :.................................................:
          :  # basis functions                 160          :
          :  # atomic orbitals                 158          :
          :  # shells                           86          :
          :  # electrons                       166          :
          :  max. iterations                   250          :
          :  Hamiltonian                  GFN2-xTB          :
          :  restarted?                      false          :
          :  GBSA solvation                  false          :
          :  PC potential                    false          :
          :  electronic temp.          300.0000000     K    :
          :  accuracy                    1.0000000          :
          :  -> integral cutoff          0.2500000E+02      :
          :  -> integral neglect         0.1000000E-07      :
          :  -> SCF convergence          0.1000000E-05 Eh   :
          :  -> wf. convergence          0.1000000E-03 e    :
          :  Broyden damping             0.4000000          :
          :  net charge                          0          :
          :  unpaired electrons                  0          :
          ...................................................

 iter      E             dE          RMSdq      gap      omega  full diag
   1    -95.4163070 -0.954163E+02  0.221E-04    1.05       0.0  T
   2    -95.4163070 -0.408662E-09  0.189E-04    1.05      73.3  T
   3    -95.4163070 -0.297703E-09  0.159E-04    1.05      87.1  T

   *** convergence criteria satisfied after 3 iterations ***

         #    Occupation            Energy/Eh            Energy/eV
      -------------------------------------------------------------
         1        2.0000           -1.0605357             -28.8586
       ...           ...                  ...                  ...
        77        2.0000           -0.4230036             -11.5105
        78        2.0000           -0.4216398             -11.4734
        79        2.0000           -0.4171569             -11.3514
        80        2.0000           -0.4076947             -11.0939
        81        2.0000           -0.4061353             -11.0515
        82        2.0000           -0.3989980             -10.8573
        83        2.0000           -0.3711472             -10.0994 (HOMO)
        84                         -0.3327167              -9.0537 (LUMO)
        85                         -0.2835029              -7.7145
        86                         -0.2550121              -6.9392
        87                         -0.2483652              -6.7584
        88                         -0.2453606              -6.6766
       ...                                ...                  ...
       158                          0.6311702              17.1750
      -------------------------------------------------------------
                  HL-Gap            0.0384305 Eh            1.0457 eV
             Fermi-level           -0.3519319 Eh           -9.5766 eV

 SCC (total)                   0 d,  0 h,  0 min,  0.026 sec
 SCC setup                      ...        0 min,  0.000 sec (  1.264%)
 Dispersion                     ...        0 min,  0.001 sec (  3.616%)
 classical contributions        ...        0 min,  0.000 sec (  0.415%)
 integral evaluation            ...        0 min,  0.003 sec ( 12.464%)
 iterations                     ...        0 min,  0.010 sec ( 39.514%)
 molecular gradient             ...        0 min,  0.011 sec ( 40.837%)
 printout                       ...        0 min,  0.000 sec (  1.805%)

         :::::::::::::::::::::::::::::::::::::::::::::::::::::
         ::                     SUMMARY                     ::
         :::::::::::::::::::::::::::::::::::::::::::::::::::::
         :: total energy             -94.273931392714 Eh    ::
         :: gradient norm              0.000986094520 Eh/a0 ::
         :: HOMO-LUMO gap              1.045746907935 eV    ::
         ::.................................................::
         :: SCC energy               -95.415692895526 Eh    ::
         :: -> isotropic ES            0.107985729667 Eh    ::
         :: -> anisotropic ES          0.011198998520 Eh    ::
         :: -> anisotropic XC          0.035044329224 Eh    ::
         :: -> dispersion             -0.065822182572 Eh    ::
         :: repulsion energy           1.141761502812 Eh    ::
         :: add. restraining           0.000000000000 Eh    ::
         :: total charge              -0.000000000000 e     ::
         :::::::::::::::::::::::::::::::::::::::::::::::::::::

           -------------------------------------------------
          |                Property Printout                |
           -------------------------------------------------

    * Orbital Energies and Occupations

         #    Occupation            Energy/Eh            Energy/eV
      -------------------------------------------------------------
         1        2.0000           -1.0605357             -28.8586
       ...           ...                  ...                  ...
        71        2.0000           -0.4491200             -12.2212
        72        2.0000           -0.4476474             -12.1811
        73        2.0000           -0.4448926             -12.1061
        74        2.0000           -0.4412704             -12.0076
        75        2.0000           -0.4295467             -11.6886
        76        2.0000           -0.4278510             -11.6424
        77        2.0000           -0.4230036             -11.5105
        78        2.0000           -0.4216398             -11.4734
        79        2.0000           -0.4171569             -11.3514
        80        2.0000           -0.4076947             -11.0939
        81        2.0000           -0.4061353             -11.0515
        82        2.0000           -0.3989980             -10.8573
        83        2.0000           -0.3711472             -10.0994 (HOMO)
        84                         -0.3327167              -9.0537 (LUMO)
        85                         -0.2835029              -7.7145
        86                         -0.2550121              -6.9392
        87                         -0.2483652              -6.7584
        88                         -0.2453606              -6.6766
        89                         -0.2378561              -6.4724
        90                         -0.2286918              -6.2230
        91                         -0.2082099              -5.6657
        92                         -0.1424548              -3.8764
        93                         -0.1407811              -3.8308
        94                         -0.1263947              -3.4394
       ...                                ...                  ...
       158                          0.6311702              17.1750
      -------------------------------------------------------------
                  HL-Gap            0.0384305 Eh            1.0457 eV
             Fermi-level           -0.3519319 Eh           -9.5766 eV

     #   Z          covCN         q      C6AA      α(0)
     1   6 C        3.753    -0.132    23.094     6.853
     2   6 C        2.998     0.160    24.538     8.126
     3   8 O        1.821    -0.092    15.706     5.352
     4   7 N        1.955    -0.115    24.246     7.302
     5   6 C        3.020     0.066    26.508     8.445
     6   6 C        2.767     0.272    22.397     7.751
     7   8 O        0.859    -0.413    21.943     6.281
     8   7 N        2.741    -0.076    22.712     7.078
     9   6 C        3.748     0.001    20.633     6.479
    10   6 C        3.762     0.007    20.509     6.456
    11   7 N        2.730    -0.179    24.869     7.407
    12   6 C        3.817     0.038    19.921     6.352
    13   6 C        2.981     0.006    27.882     8.662
    14   6 C        2.926    -0.034    28.853     8.809
    15   6 C        2.954    -0.040    28.987     8.831
    16   6 C        2.889     0.098    25.832     8.333
    17  17 Cl       0.966    -0.176   104.694    15.654
    18   6 C        2.954    -0.039    28.979     8.829
    19   6 C        2.927    -0.036    28.904     8.817
    20   6 C        2.981     0.007    27.856     8.658
    21   6 C        2.927    -0.035    28.872     8.812
    22   6 C        2.954    -0.039    28.978     8.829
    23   6 C        2.890     0.098    25.831     8.333
    24  17 Cl       0.966    -0.176   104.691    15.654
    25   6 C        2.953    -0.040    28.993     8.832
    26   6 C        2.927    -0.034    28.850     8.809
    27   6 C        3.758    -0.003    20.687     6.484
    28   6 C        3.755    -0.003    20.681     6.484
    29   6 C        2.961    -0.044    29.081     8.845
    30   7 N        2.756     0.550    13.480     5.453
    31   8 O        0.933    -0.386    21.376     6.201
    32   8 O        0.932    -0.389    21.421     6.207
    33   1 H        0.924     0.103     1.758     2.073
    34   1 H        0.925     0.102     1.763     2.076
    35   1 H        0.925     0.089     1.892     2.151
    36   1 H        0.924     0.059     2.209     2.324
    37   1 H        0.924     0.047     2.352     2.398
    38   1 H        0.924     0.048     2.348     2.396
    39   1 H        0.923     0.034     2.531     2.488
    40   1 H        0.922     0.020     2.731     2.585
    41   1 H        0.926     0.060     2.204     2.321
    42   1 H        0.926     0.060     2.205     2.322
    43   1 H        0.926     0.059     2.206     2.323
    44   1 H        0.926     0.045     2.386     2.416
    45   1 H        0.926     0.046     2.370     2.408
    46   1 H        0.926     0.061     2.193     2.316
    47   1 H        0.926     0.059     2.209     2.324
    48   1 H        0.926     0.058     2.218     2.329
    49   1 H        0.924     0.048     2.343     2.394
    50   1 H        0.924     0.050     2.316     2.380
    51   1 H        0.924     0.076     2.023     2.224
    52   1 H        0.924     0.056     2.241     2.341

 Mol. C6AA /au·bohr⁶  :      39019.359731
 Mol. C8AA /au·bohr⁸  :     999451.421905
 Mol. α(0) /au        :        306.003442


Wiberg/Mayer (AO) data.
largest (>0.10) Wiberg bond orders for each atom

 ---------------------------------------------------------------------------
     #   Z sym  total        # sym  WBO       # sym  WBO       # sym  WBO
 ---------------------------------------------------------------------------
     1   6 C    3.979 --     2 C    1.047    35 H    0.969    34 H    0.963
                            33 H    0.939
     2   6 C    3.928 --    29 C    1.434     3 O    1.211     1 C    1.047
                             4 N    0.132
     3   8 O    2.490 --     2 C    1.211     4 N    1.068
     4   7 N    2.954 --     5 C    1.615     3 O    1.068     2 C    0.132
     5   6 C    3.968 --     4 N    1.615    29 C    1.208     6 C    0.932
     6   6 C    3.965 --     7 O    1.659     8 N    1.284     5 C    0.932
     7   8 O    2.035 --     6 C    1.659     8 N    0.216
     8   7 N    3.528 --     6 C    1.284     9 C    0.986    28 C    0.974
                             7 O    0.216
     9   6 C    3.973 --    10 C    1.003     8 N    0.986    37 H    0.965
                            36 H    0.963
    10   6 C    3.986 --     9 C    1.003    11 N    1.000    38 H    0.968
                            39 H    0.964
    11   7 N    3.115 --    10 C    1.000    27 C    0.999    12 C    0.985
    12   6 C    3.984 --    11 N    0.985    13 C    0.978    20 C    0.975
                            40 H    0.948
    13   6 C    3.986 --    19 C    1.409    14 C    1.401    12 C    0.978
    14   6 C    3.988 --    15 C    1.448    13 C    1.401    41 H    0.964
                            18 C    0.108
    15   6 C    3.988 --    14 C    1.448    16 C    1.400    42 H    0.967
                            19 C    0.107
    16   6 C    3.916 --    18 C    1.403    15 C    1.400    17 Cl   0.975
    17  17 Cl   1.109 --    16 C    0.975
    18   6 C    3.988 --    19 C    1.445    16 C    1.403    43 H    0.967
                            14 C    0.108
    19   6 C    3.989 --    18 C    1.445    13 C    1.409    44 H    0.967
                            15 C    0.107
    20   6 C    3.986 --    21 C    1.416    26 C    1.399    12 C    0.975
    21   6 C    3.989 --    22 C    1.438    20 C    1.416    45 H    0.966
                            25 C    0.106
    22   6 C    3.988 --    21 C    1.438    23 C    1.408    46 H    0.967
                            26 C    0.109
    23   6 C    3.915 --    22 C    1.408    25 C    1.396    24 Cl   0.974
    24  17 Cl   1.109 --    23 C    0.974
    25   6 C    3.989 --    26 C    1.454    23 C    1.396    47 H    0.967
                            21 C    0.106
    26   6 C    3.990 --    25 C    1.454    20 C    1.399    48 H    0.964
                            22 C    0.109
    27   6 C    3.985 --    11 N    0.999    28 C    0.998    49 H    0.969
                            50 H    0.968
    28   6 C    3.964 --    27 C    0.998     8 N    0.974    51 H    0.965
                            52 H    0.962
    29   6 C    3.943 --     2 C    1.434     5 C    1.208    30 N    1.008
    30   7 N    3.918 --    31 O    1.440    32 O    1.435    29 C    1.008
    31   8 O    1.930 --    30 N    1.440    32 O    0.356
    32   8 O    1.926 --    30 N    1.435    31 O    0.356
    33   1 H    0.989 --     1 C    0.939
    34   1 H    0.989 --     1 C    0.963
    35   1 H    0.991 --     1 C    0.969
    36   1 H    0.996 --     9 C    0.963
    37   1 H    0.997 --     9 C    0.965
    38   1 H    0.997 --    10 C    0.968
    39   1 H    0.999 --    10 C    0.964
    40   1 H    0.999 --    12 C    0.948
    41   1 H    0.996 --    14 C    0.964
    42   1 H    0.996 --    15 C    0.967
    43   1 H    0.996 --    18 C    0.967
    44   1 H    0.998 --    19 C    0.967
    45   1 H    0.998 --    21 C    0.966
    46   1 H    0.996 --    22 C    0.967
    47   1 H    0.996 --    25 C    0.967
    48   1 H    0.997 --    26 C    0.964
    49   1 H    0.997 --    27 C    0.969
    50   1 H    0.997 --    27 C    0.968
    51   1 H    0.994 --    28 C    0.965
    52   1 H    0.997 --    28 C    0.962
 ---------------------------------------------------------------------------

Topologies differ in total number of bonds
Writing topology from bond orders to xtbtopo.mol

molecular dipole:
                 x           y           z       tot (Debye)
 q only:        0.435      -0.933       1.248
   full:        0.396      -1.174       0.777       3.716
molecular quadrupole (traceless):
                xx          xy          yy          xz          yz          zz
 q only:        0.173     -24.659      -6.562      18.994     -10.361       6.389
  q+dip:        0.785     -26.433      -7.991      16.847     -11.201       7.206
   full:        3.596     -25.591      -5.579      16.192     -10.471       1.983

           -------------------------------------------------
          |                Geometry Summary                 |
           -------------------------------------------------

      molecular mass/u    :      475.3253125
   center of mass at/Å    :       -0.2674726      -0.0493152      -0.0951374
  moments of inertia/u·Å² :        0.3182973E+04   0.8857353E+04   0.1110332E+05
rotational constants/cm⁻¹ :        0.5296190E-02   0.1903236E-02   0.1518251E-02

 * 52 selected distances

     #   Z          #   Z                                           value/Å
     1   6 C        2   6 C                                       1.4739242
     2   6 C        3   8 O                                       1.3269131
     3   8 O        4   7 N                                       1.3633918
     4   7 N        5   6 C                                       1.2989264
     6   6 C        7   8 O                                       1.2136387
     6   6 C        8   7 N                                       1.3360072
     8   7 N        9   6 C                                       1.4462874
     9   6 C       10   6 C                                       1.5232193
    10   6 C       11   7 N                                       1.4584291
    11   7 N       12   6 C                                       1.4579242
    13   6 C       14   6 C                                       1.3894369
    14   6 C       15   6 C                                       1.3821072
    15   6 C       16   6 C                                       1.3858343
    16   6 C       17  17 Cl                                      1.7279179
    16   6 C       18   6 C                                       1.3852944
    13   6 C       19   6 C                                       1.3887699
    18   6 C       19   6 C                                       1.3828042
    20   6 C       21   6 C                                       1.3873598
    21   6 C       22   6 C                                       1.3839113
    22   6 C       23   6 C                                       1.3843699
    23   6 C       24  17 Cl                                      1.7290602 (max)
    23   6 C       25   6 C                                       1.3864092
    20   6 C       26   6 C                                       1.3899598
    25   6 C       26   6 C                                       1.3814486
    11   7 N       27   6 C                                       1.4603683
     8   7 N       28   6 C                                       1.4511062
    27   6 C       28   6 C                                       1.5254616
     2   6 C       29   6 C                                       1.3846191
     5   6 C       29   6 C                                       1.4301796
    29   6 C       30   7 N                                       1.4127195
    30   7 N       31   8 O                                       1.2135423
    30   7 N       32   8 O                                       1.2137700
     1   6 C       33   1 H                                       1.0905734
     1   6 C       34   1 H                                       1.0875450
     1   6 C       35   1 H                                       1.0869775
     9   6 C       36   1 H                                       1.0964924
     9   6 C       37   1 H                                       1.0920410
    10   6 C       38   1 H                                       1.0933901
    10   6 C       39   1 H                                       1.1025075
    12   6 C       40   1 H                                       1.1069100
    14   6 C       41   1 H                                       1.0781249
    15   6 C       42   1 H                                       1.0786015
    18   6 C       43   1 H                                       1.0785414
    19   6 C       44   1 H                                       1.0801142
    21   6 C       45   1 H                                       1.0802381
    22   6 C       46   1 H                                       1.0783067
    25   6 C       47   1 H                                       1.0785932
    26   6 C       48   1 H                                       1.0778585 (min)
    27   6 C       49   1 H                                       1.0957824
    27   6 C       50   1 H                                       1.0905629
    28   6 C       51   1 H                                       1.0920673
    28   6 C       52   1 H                                       1.0963674

 * 6 distinct bonds (by element types)

   Z      Z             #   av. dist./Å        max./Å        min./Å
   1 H    6 C          20     1.0880798     1.1069100     1.0778585
   6 C    6 C          17     1.4097123     1.5254616     1.3814486
   6 C    7 N           8     1.4152210     1.4603683     1.2989264
   6 C    8 O           2     1.2702759     1.3269131     1.2136387
   7 N    8 O           3     1.2635681     1.3633918     1.2135423
   6 C   17 Cl          2     1.7284891     1.7290602     1.7279179


optimized geometry written to: xtbopt.xyz


           -------------------------------------------------
          | TOTAL ENERGY              -94.273931392714 Eh   |
          | GRADIENT NORM               0.000986094520 Eh/α |
          | HOMO-LUMO GAP               1.045746907935 eV   |
           -------------------------------------------------
########################################################################
[WARNING] Runtime exception occurred
-2- restart_readRestart: Dimension missmatch in restart file.
-1- restart_readRestart: Number of electron missmatch in restart file.
########################################################################

------------------------------------------------------------------------
 * finished run on 2026/08/28 at 15:40:06.599     
------------------------------------------------------------------------
 total:
 * wall-time:     0 d,  0 h,  0 min,  3.121 sec
 *  cpu-time:     0 d,  0 h,  0 min, 21.719 sec
 * ratio c/w:     6.959 speedup
 SCF:
 * wall-time:     0 d,  0 h,  0 min,  0.069 sec
 *  cpu-time:     0 d,  0 h,  0 min,  0.438 sec
 * ratio c/w:     6.383 speedup
 ANC optimizer:
 * wall-time:     0 d,  0 h,  0 min,  3.006 sec
 *  cpu-time:     0 d,  0 h,  0 min, 21.062 sec
 * ratio c/w:     7.007 speedup

