23

C      3.842854   -0.558965    0.354704
C      2.370236   -0.504435    0.290040
O      1.718858   -1.697591    0.233300
N      0.353836   -1.481292    0.180906
C      0.182758   -0.145085    0.199172
C     -1.136401    0.487498    0.274438
O     -1.290729    1.457740    1.015449
N     -2.189859   -0.039131   -0.480786
C     -3.539336    0.438134   -0.232680
C     -2.053199   -1.091363   -1.477549
C      1.436247    0.502417    0.261604
N      1.705816    1.894442    0.261899
O      2.638973    2.282631    0.975175
O      1.029619    2.591677   -0.502076
H      4.288164    0.143525   -0.356504
H      4.189940   -0.300942    1.359807
H      4.214069   -1.560043    0.113579
H     -4.167409   -0.414384    0.043067
H     -3.925097    0.893305   -1.149684
H     -3.579808    1.176629    0.571756
H     -1.060232   -1.085304   -1.932435
H     -2.242567   -2.055584   -0.997698
H     -2.786731   -0.933879   -2.274458
