      -----------------------------------------------------------      
     |                   =====================                   |     
     |                           x T B                           |     
     |                   =====================                   |     
     |                         S. Grimme                         |     
     |          Mulliken Center for Theoretical Chemistry        |     
     |                    University of Bonn                     |     
      -----------------------------------------------------------      

   * xtb version 6.7.1 (edcfbbe) compiled by 'VssAdministrator@runnervm171ch' on 2026-06-10

   xtb is free software: you can redistribute it and/or modify it under
   the terms of the GNU Lesser General Public License as published by
   the Free Software Foundation, either version 3 of the License, or
   (at your option) any later version.
   
   xtb is distributed in the hope that it will be useful,
   but WITHOUT ANY WARRANTY; without even the implied warranty of
   MERCHANTABILITY or FITNESS FOR A PARTICULAR PURPOSE.  See the
   GNU Lesser General Public License for more details.
   
   Cite this work as:
   * C. Bannwarth, E. Caldeweyher, S. Ehlert, A. Hansen, P. Pracht,
     J. Seibert, S. Spicher, S. Grimme, WIREs Comput. Mol. Sci., 2020, 11,
     e01493. DOI: 10.1002/wcms.1493
   
   for GFN2-xTB:
   * C. Bannwarth, S. Ehlert and S. Grimme., J. Chem. Theory Comput., 2019,
     15, 1652-1671. DOI: 10.1021/acs.jctc.8b01176
   for GFN1-xTB:
   * S. Grimme, C. Bannwarth, P. Shushkov, J. Chem. Theory Comput., 2017,
     13, 1989-2009. DOI: 10.1021/acs.jctc.7b00118
   for GFN0-xTB:
   * P. Pracht, E. Caldeweyher, S. Ehlert, S. Grimme, ChemRxiv, 2019, preprint.
     DOI: 10.26434/chemrxiv.8326202.v1
   for GFN-FF:
   * S. Spicher and S. Grimme, Angew. Chem. Int. Ed., 2020, 59, 15665-15673.
     DOI: 10.1002/anie.202004239
   
   for ALPB and GBSA implicit solvation:
   * S. Ehlert, M. Stahn, S. Spicher, S. Grimme, J. Chem. Theory Comput.,
     2021, 17, 4250-4261. DOI: 10.1021/acs.jctc.1c00471
   
   for ddCOSMO and CPCM-X implicit solvation:
   * M. Stahn, S. Ehlert, S. Grimme, J. Phys. Chem. A,
     2023, XX, XXXX-XXXX. DOI: 10.1021/acs.jpca.3c04382
   
   for DFT-D4:
   * E. Caldeweyher, C. Bannwarth and S. Grimme, J. Chem. Phys., 2017,
     147, 034112. DOI: 10.1063/1.4993215
   * E. Caldeweyher, S. Ehlert, A. Hansen, H. Neugebauer, S. Spicher,
     C. Bannwarth and S. Grimme, J. Chem. Phys., 2019, 150, 154122.
     DOI: 10.1063/1.5090222
   * E. Caldeweyher, J.-M. Mewes, S. Ehlert and S. Grimme, Phys. Chem. Chem. Phys.
     2020, 22, 8499-8512. DOI: 10.1039/D0CP00502A
   
   for sTDA-xTB:
   * S. Grimme and C. Bannwarth, J. Chem. Phys., 2016, 145, 054103.
     DOI: 10.1063/1.4959605
   
   in the mass-spec context:
   * V. Asgeirsson, C. Bauer and S. Grimme, Chem. Sci., 2017, 8, 4879.
     DOI: 10.1039/c7sc00601b
   * J. Koopman and S. Grimme, ACS Omega 2019, 4, 12, 15120-15133.
     DOI: 10.1021/acsomega.9b02011
   
   for metadynamics refer to:
   * S. Grimme, J. Chem. Theory Comput., 2019, 155, 2847-2862
     DOI: 10.1021/acs.jctc.9b00143
   
   for SPH calculations refer to:
   * S. Spicher and S. Grimme, J. Chem. Theory Comput., 2021, 17, 1701-1714
     DOI: 10.1021/acs.jctc.0c01306
   
   for ONIOM refer to:
   * C. Plett, A. Katbashev, S. Ehlert, S. Grimme, M. Bursch,
     Phys. Chem. Chem. Phys., 2023, 25, 17860-17868. DOI: 10.1039/D3CP02178E
   
   for DIPRO refer to:
   * J. Kohn, N. Gildemeister, S. Grimme, D. Fazzi, A. Hansen,
     J. Chem. Phys., 2023, just accepted.
   
   for PTB refer to:
   * S. Grimme, M. Mueller, A. Hansen, J. Chem. Phys., 2023, 158, 124111.
     DOI: 10.1063/5.0137838
   
   with help from (in alphabetical order)
   P. Atkinson, C. Bannwarth, F. Bohle, G. Brandenburg, E. Caldeweyher
   M. Checinski, S. Dohm, S. Ehlert, S. Ehrlich, I. Gerasimov, C. Hölzer
   A. Katbashev, J. Kohn, J. Koopman, C. Lavigne, S. Lehtola, F. März, M. Müller,
   F. Musil, H. Neugebauer, J. Pisarek, C. Plett, P. Pracht, F. Pultar,
   J. Seibert, P. Shushkov, S. Spicher, M. Stahn, M. Steiner, T. Strunk,
   J. Stückrath, T. Rose, and J. Unsleber
   
 * started run on 2026/08/28 at 15:38:47.372     
   ID    Z sym.   atoms
    1    6 C      1, 2, 5, 6, 9-11
    2    8 O      3, 7, 13, 14
    3    7 N      4, 8, 12
    4    1 H      15-23

           -------------------------------------------------
          |                Calculation Setup                |
           -------------------------------------------------

          program call               : C:\Users\Christian\Miniconda3\Library\bin\xtb.exe nitroisoxazole_ML210.xyz --gfn 2 --opt --vfukui
          coordinate file            : nitroisoxazole_ML210.xyz
          omp threads                :                    12


           -------------------------------------------------
          |                 G F N 2 - x T B                 |
           -------------------------------------------------

        Reference                      10.1021/acs.jctc.8b01176
      * Hamiltonian:
        H0-scaling (s, p, d)           1.850000    2.230000    2.230000
        zeta-weighting                 0.500000
      * Dispersion:
        s8                             2.700000
        a1                             0.520000
        a2                             5.000000
        s9                             5.000000
      * Repulsion:
        kExp                           1.500000    1.000000
        rExp                           1.000000
      * Coulomb:
        alpha                          2.000000
        third order                    shell-resolved
        anisotropic                    true
        a3                             3.000000
        a5                             4.000000
        cn-shift                       1.200000
        cn-exp                         4.000000
        max-rad                        5.000000


          ...................................................
          :                      SETUP                      :
          :.................................................:
          :  # basis functions                  65          :
          :  # atomic orbitals                  65          :
          :  # shells                           37          :
          :  # electrons                        76          :
          :  max. iterations                   250          :
          :  Hamiltonian                  GFN2-xTB          :
          :  restarted?                      false          :
          :  GBSA solvation                  false          :
          :  PC potential                    false          :
          :  electronic temp.          300.0000000     K    :
          :  accuracy                    1.0000000          :
          :  -> integral cutoff          0.2500000E+02      :
          :  -> integral neglect         0.1000000E-07      :
          :  -> SCF convergence          0.1000000E-05 Eh   :
          :  -> wf. convergence          0.1000000E-03 e    :
          :  Broyden damping             0.4000000          :
          :  net charge                          0          :
          :  unpaired electrons                  0          :
          ...................................................

 iter      E             dE          RMSdq      gap      omega  full diag
   1    -44.6754057 -0.446754E+02  0.527E+00    3.24       0.0  T
   2    -44.8666590 -0.191253E+00  0.272E+00    2.72       1.0  T
   3    -44.8798148 -0.131559E-01  0.147E+00    2.20       1.0  T
   4    -44.8820919 -0.227703E-02  0.809E-01    1.95       1.0  T
   5    -44.8881349 -0.604301E-02  0.143E-01    1.79       1.0  T
   6    -44.8883574 -0.222481E-03  0.674E-02    1.79       1.0  T
   7    -44.8883647 -0.732646E-05  0.270E-02    1.83       1.0  T
   8    -44.8883711 -0.642684E-05  0.107E-02    1.84       2.0  T
   9    -44.8883716 -0.524489E-06  0.440E-03    1.84       4.7  T
  10    -44.8883718 -0.118812E-06  0.140E-03    1.84      14.9  T
  11    -44.8883718 -0.141188E-07  0.681E-04    1.83      30.6  T
  12    -44.8883718 -0.190853E-08  0.242E-04    1.83      86.3  T

   *** convergence criteria satisfied after 12 iterations ***

         #    Occupation            Energy/Eh            Energy/eV
      -------------------------------------------------------------
         1        2.0000           -0.7961153             -21.6634
       ...           ...                  ...                  ...
        32        2.0000           -0.4772574             -12.9868
        33        2.0000           -0.4662531             -12.6874
        34        2.0000           -0.4599464             -12.5158
        35        2.0000           -0.4555529             -12.3962
        36        2.0000           -0.4465591             -12.1515
        37        2.0000           -0.4172441             -11.3538
        38        2.0000           -0.4001829             -10.8895 (HOMO)
        39                         -0.3327571              -9.0548 (LUMO)
        40                         -0.3057095              -8.3188
        41                         -0.2490725              -6.7776
        42                         -0.1857875              -5.0555
        43                         -0.0818576              -2.2275
       ...                                ...                  ...
        65                          0.5875150              15.9871
      -------------------------------------------------------------
                  HL-Gap            0.0674259 Eh            1.8348 eV
             Fermi-level           -0.3664700 Eh           -9.9722 eV

 SCC (total)                   0 d,  0 h,  0 min,  4.418 sec
 SCC setup                      ...        0 min,  0.001 sec (  0.018%)
 Dispersion                     ...        0 min,  0.000 sec (  0.011%)
 classical contributions        ...        0 min,  0.000 sec (  0.003%)
 integral evaluation            ...        0 min,  0.001 sec (  0.031%)
 iterations                     ...        0 min,  4.411 sec ( 99.839%)
 molecular gradient             ...        0 min,  0.004 sec (  0.090%)
 printout                       ...        0 min,  0.000 sec (  0.007%)

         :::::::::::::::::::::::::::::::::::::::::::::::::::::
         ::                     SUMMARY                     ::
         :::::::::::::::::::::::::::::::::::::::::::::::::::::
         :: total energy             -44.482908982997 Eh    ::
         :: gradient norm              0.114775841906 Eh/a0 ::
         :: HOMO-LUMO gap              1.834751465705 eV    ::
         ::.................................................::
         :: SCC energy               -44.888317843069 Eh    ::
         :: -> isotropic ES            0.093080147231 Eh    ::
         :: -> anisotropic ES          0.009863532576 Eh    ::
         :: -> anisotropic XC          0.010680729002 Eh    ::
         :: -> dispersion             -0.020437555338 Eh    ::
         :: repulsion energy           0.405408860072 Eh    ::
         :: add. restraining           0.000000000000 Eh    ::
         :: total charge               0.000000000000 e     ::
         :::::::::::::::::::::::::::::::::::::::::::::::::::::

      ----------------------------------------------------------- 
     |                   =====================                   |
     |                        A N C O P T                        |
     |                   =====================                   |
     |               Approximate Normal Coordinate               |
     |                Rational Function Optimizer                |
      ----------------------------------------------------------- 
      ----------------------------------------------------------- 
     |                   =====================                   |
     |                        A N C O P T                        |
     |                   =====================                   |
     |               Approximate Normal Coordinate               |
     |                Rational Function Optimizer                |
      ----------------------------------------------------------- 

          ...................................................
          :                      SETUP                      :
          :.................................................:
          :   optimization level            normal          :
          :   max. optcycles                   200          :
          :   ANC micro-cycles                  20          :
          :   degrees of freedom                63          :
          :.................................................:
          :   RF solver                   davidson          :
          :   write xtbopt.log                true          :
          :   linear?                        false          :
          :   energy convergence         0.5000000E-05 Eh   :
          :   grad. convergence          0.1000000E-02 Eh/α :
          :   maxmium RF displ.          1.0000000          :
          :   Hlow (freq-cutoff)         0.1000000E-01      :
          :   Hmax (freq-cutoff)         5.0000000          :
          :   S6 in model hess.         20.0000000          :
          ...................................................

generating ANC from exact Hessian ...
Using Lindh-Hessian (1995)
 Shifting diagonal of input Hessian by    8.8123085207439961E-003
 Lowest  eigenvalues of input Hessian
    0.000000    0.000000    0.000000    0.000000    0.000000    0.000000
    0.010000    0.010622    0.011297    0.015253    0.018522    0.018783
    0.019364    0.020807    0.023279    0.024376    0.028682    0.035072
 Highest eigenvalues
    1.721323    1.868523    1.956324    2.177757    2.254430    2.518853


........................................................................
.............................. CYCLE    1 ..............................
........................................................................

 iter      E             dE          RMSdq      gap      omega  full diag
   1    -44.8883718 -0.448884E+02  0.755E-05    1.83       0.0  T
   2    -44.8883718 -0.345679E-10  0.467E-05    1.83     446.4  T
   3    -44.8883718 -0.116742E-10  0.289E-05    1.83     721.9  T
     SCC iter.                  ...        0 min,  0.004 sec
     gradient                   ...        0 min,  0.004 sec
 * total energy  :   -44.4829090 Eh     change       -0.2731753E-09 Eh
   gradient norm :     0.1147756 Eh/α   predicted     0.0000000E+00 (-100.00%)
   displ. norm   :     0.2058357 α      lambda       -0.1244903E-01
   maximum displ.:     0.0810151 α      in ANC's #17, #20, #7, ...

........................................................................
.............................. CYCLE    2 ..............................
........................................................................

 iter      E             dE          RMSdq      gap      omega  full diag
   1    -44.9169220 -0.449169E+02  0.241E-01    2.10       0.0  T
   2    -44.9172962 -0.374229E-03  0.148E-01    2.16       1.0  T
   3    -44.9173598 -0.635558E-04  0.786E-02    2.14       1.0  T
   4    -44.9173714 -0.116113E-04  0.264E-02    2.15       1.0  T
   5    -44.9173767 -0.528731E-05  0.918E-03    2.15       2.3  T
   6    -44.9173778 -0.113596E-05  0.429E-03    2.15       4.9  T
   7    -44.9173779 -0.235263E-07  0.136E-03    2.15      15.4  T
   8    -44.9173779 -0.157864E-07  0.463E-04    2.15      45.0  T
   9    -44.9173779 -0.911250E-09  0.226E-04    2.15      92.4  T
     SCC iter.                  ...        0 min,  0.010 sec
     gradient                   ...        0 min,  0.003 sec
 * total energy  :   -44.4914896 Eh     change       -0.8580632E-02 Eh
   gradient norm :     0.0467685 Eh/α   predicted    -0.6489143E-02 ( -24.37%)
   displ. norm   :     0.1977174 α      lambda       -0.3487047E-02
   maximum displ.:     0.0851875 α      in ANC's #4, #3, #11, ...

........................................................................
.............................. CYCLE    3 ..............................
........................................................................

 iter      E             dE          RMSdq      gap      omega  full diag
   1    -44.9309152 -0.449309E+02  0.175E-01    2.30       0.0  T
   2    -44.9311504 -0.235243E-03  0.114E-01    2.35       1.0  T
   3    -44.9312068 -0.564132E-04  0.589E-02    2.34       1.0  T
   4    -44.9312085 -0.162686E-05  0.199E-02    2.34       1.0  T
   5    -44.9312130 -0.451566E-05  0.623E-03    2.35       3.3  T
   6    -44.9312134 -0.457710E-06  0.272E-03    2.34       7.7  T
   7    -44.9312135 -0.825589E-08  0.112E-03    2.34      18.6  T
   8    -44.9312135 -0.812002E-08  0.290E-04    2.34      71.9  T
   9    -44.9312135 -0.368182E-09  0.166E-04    2.34     125.5  T
     SCC iter.                  ...        0 min,  0.012 sec
     gradient                   ...        0 min,  0.003 sec
 * total energy  :   -44.4932012 Eh     change       -0.1711552E-02 Eh
   gradient norm :     0.0117527 Eh/α   predicted    -0.1811958E-02 (   5.87%)
   displ. norm   :     0.1300363 α      lambda       -0.6094208E-03
   maximum displ.:     0.0738603 α      in ANC's #3, #7, #4, ...

........................................................................
.............................. CYCLE    4 ..............................
........................................................................

 iter      E             dE          RMSdq      gap      omega  full diag
   1    -44.9308764 -0.449309E+02  0.761E-02    2.32       0.0  T
   2    -44.9308845 -0.804342E-05  0.449E-02    2.34       1.0  T
   3    -44.9308821  0.236001E-05  0.180E-02    2.34       1.2  T
   4    -44.9308865 -0.435422E-05  0.477E-03    2.34       4.4  T
   5    -44.9308867 -0.212293E-06  0.218E-03    2.34       9.6  T
   6    -44.9308867 -0.260655E-07  0.119E-03    2.34      17.5  T
   7    -44.9308867 -0.528726E-08  0.276E-04    2.34      75.7  T
   8    -44.9308867 -0.454804E-09  0.134E-04    2.34     156.0  T
     SCC iter.                  ...        0 min,  0.009 sec
     gradient                   ...        0 min,  0.003 sec
 * total energy  :   -44.4934183 Eh     change       -0.2171539E-03 Eh
   gradient norm :     0.0109079 Eh/α   predicted    -0.3098875E-03 (  42.70%)
   displ. norm   :     0.1198256 α      lambda       -0.3766045E-03
   maximum displ.:     0.0825012 α      in ANC's #3, #10, #8, ...

........................................................................
.............................. CYCLE    5 ..............................
........................................................................

 iter      E             dE          RMSdq      gap      omega  full diag
   1    -44.9291229 -0.449291E+02  0.567E-02    2.32       0.0  T
   2    -44.9291272 -0.431767E-05  0.335E-02    2.32       1.0  T
   3    -44.9291264  0.789669E-06  0.131E-02    2.32       1.6  T
   4    -44.9291284 -0.199835E-05  0.366E-03    2.32       5.7  T
   5    -44.9291285 -0.924662E-07  0.208E-03    2.32      10.0  T
   6    -44.9291285 -0.185111E-07  0.898E-04    2.32      23.2  T
   7    -44.9291285 -0.346816E-08  0.159E-04    2.32     130.8  T
     SCC iter.                  ...        0 min,  0.007 sec
     gradient                   ...        0 min,  0.003 sec
 * total energy  :   -44.4936942 Eh     change       -0.2758410E-03 Eh
   gradient norm :     0.0055149 Eh/α   predicted    -0.1910065E-03 ( -30.75%)
   displ. norm   :     0.2112336 α      lambda       -0.3096104E-03
   maximum displ.:     0.1549264 α      in ANC's #3, #10, #8, ...

........................................................................
.............................. CYCLE    6 ..............................
........................................................................

 iter      E             dE          RMSdq      gap      omega  full diag
   1    -44.9280390 -0.449280E+02  0.896E-02    2.28       0.0  T
   2    -44.9280492 -0.101753E-04  0.516E-02    2.29       1.0  T
   3    -44.9280478  0.140454E-05  0.219E-02    2.30       1.0  T
   4    -44.9280526 -0.484282E-05  0.581E-03    2.30       3.6  T
   5    -44.9280528 -0.128794E-06  0.343E-03    2.30       6.1  T
   6    -44.9280528 -0.489632E-07  0.123E-03    2.30      16.9  T
   7    -44.9280528 -0.757062E-08  0.359E-04    2.30      58.1  T
   8    -44.9280528 -0.110908E-08  0.183E-04    2.30     113.8  T
     SCC iter.                  ...        0 min,  0.010 sec
     gradient                   ...        0 min,  0.003 sec
 * total energy  :   -44.4939113 Eh     change       -0.2171301E-03 Eh
   gradient norm :     0.0084031 Eh/α   predicted    -0.1617160E-03 ( -25.52%)
   displ. norm   :     0.1888302 α      lambda       -0.2077561E-03
   maximum displ.:     0.1448816 α      in ANC's #3, #10, #8, ...

........................................................................
.............................. CYCLE    7 ..............................
........................................................................

 iter      E             dE          RMSdq      gap      omega  full diag
   1    -44.9280910 -0.449281E+02  0.789E-02    2.28       0.0  T
   2    -44.9280962 -0.522425E-05  0.450E-02    2.29       1.0  T
   3    -44.9280942  0.205337E-05  0.193E-02    2.30       1.1  T
   4    -44.9280986 -0.442941E-05  0.465E-03    2.30       4.5  T
   5    -44.9280987 -0.490786E-07  0.265E-03    2.30       7.9  T
   6    -44.9280987 -0.326066E-07  0.767E-04    2.29      27.2  T
   7    -44.9280987 -0.353079E-08  0.324E-04    2.29      64.4  T
     SCC iter.                  ...        0 min,  0.007 sec
     gradient                   ...        0 min,  0.003 sec
 * total energy  :   -44.4940797 Eh     change       -0.1684071E-03 Eh
   gradient norm :     0.0092645 Eh/α   predicted    -0.1075835E-03 ( -36.12%)
   displ. norm   :     0.2616918 α      lambda       -0.3066335E-03
   maximum displ.:     0.2042322 α      in ANC's #3, #10, #2, ...

........................................................................
.............................. CYCLE    8 ..............................
........................................................................

 iter      E             dE          RMSdq      gap      omega  full diag
   1    -44.9291420 -0.449291E+02  0.108E-01    2.29       0.0  T
   2    -44.9291509 -0.891599E-05  0.612E-02    2.29       1.0  T
   3    -44.9291464  0.455278E-05  0.266E-02    2.30       1.0  T
   4    -44.9291551 -0.872554E-05  0.606E-03    2.30       3.4  T
   5    -44.9291552 -0.897505E-07  0.326E-03    2.30       6.4  T
   6    -44.9291553 -0.448019E-07  0.133E-03    2.30      15.7  T
   7    -44.9291553 -0.125412E-07  0.407E-04    2.30      51.3  T
   8    -44.9291553 -0.136455E-08  0.190E-04    2.30     109.8  T
     SCC iter.                  ...        0 min,  0.008 sec
     gradient                   ...        0 min,  0.003 sec
 * total energy  :   -44.4943158 Eh     change       -0.2360509E-03 Eh
   gradient norm :     0.0062932 Eh/α   predicted    -0.1638166E-03 ( -30.60%)
   displ. norm   :     0.3134254 α      lambda       -0.2547820E-03
   maximum displ.:     0.2335712 α      in ANC's #3, #2, #10, ...

........................................................................
.............................. CYCLE    9 ..............................
........................................................................

 iter      E             dE          RMSdq      gap      omega  full diag
   1    -44.9293219 -0.449293E+02  0.125E-01    2.27       0.0  T
   2    -44.9293321 -0.101761E-04  0.714E-02    2.28       1.0  T
   3    -44.9293251  0.698977E-05  0.290E-02    2.29       1.0  T
   4    -44.9293373 -0.122070E-04  0.687E-03    2.29       3.0  T
   5    -44.9293373 -0.780530E-07  0.352E-03    2.29       5.9  T
   6    -44.9293374 -0.595702E-07  0.126E-03    2.29      16.6  T
   7    -44.9293374 -0.122092E-07  0.441E-04    2.29      47.3  T
   8    -44.9293374 -0.120293E-08  0.208E-04    2.29     100.3  T
     SCC iter.                  ...        0 min,  0.008 sec
     gradient                   ...        0 min,  0.003 sec
 * total energy  :   -44.4945003 Eh     change       -0.1845437E-03 Eh
   gradient norm :     0.0063478 Eh/α   predicted    -0.1399063E-03 ( -24.19%)
   displ. norm   :     0.2849971 α      lambda       -0.2162572E-03
   maximum displ.:     0.2005942 α      in ANC's #3, #2, #6, ...

........................................................................
.............................. CYCLE   10 ..............................
........................................................................

 iter      E             dE          RMSdq      gap      omega  full diag
   1    -44.9312408 -0.449312E+02  0.103E-01    2.30       0.0  T
   2    -44.9312495 -0.875638E-05  0.588E-02    2.31       1.0  T
   3    -44.9312485  0.105846E-05  0.180E-02    2.31       1.2  T
   4    -44.9312517 -0.322168E-05  0.622E-03    2.31       3.4  T
   5    -44.9312520 -0.312209E-06  0.290E-03    2.31       7.2  T
   6    -44.9312520 -0.138308E-07  0.133E-03    2.31      15.7  T
   7    -44.9312520 -0.143573E-07  0.325E-04    2.31      64.2  T
   8    -44.9312520 -0.899512E-09  0.172E-04    2.31     121.1  T
     SCC iter.                  ...        0 min,  0.009 sec
     gradient                   ...        0 min,  0.003 sec
 * total energy  :   -44.4946354 Eh     change       -0.1351408E-03 Eh
   gradient norm :     0.0048267 Eh/α   predicted    -0.1169214E-03 ( -13.48%)
   displ. norm   :     0.4607602 α      lambda       -0.2143358E-03
   maximum displ.:     0.2945445 α      in ANC's #3, #2, #10, ...

........................................................................
.............................. CYCLE   11 ..............................
........................................................................

 iter      E             dE          RMSdq      gap      omega  full diag
   1    -44.9275545 -0.449276E+02  0.173E-01    2.19       0.0  T
   2    -44.9275916 -0.370921E-04  0.100E-01    2.22       1.0  T
   3    -44.9275863  0.530540E-05  0.338E-02    2.23       1.0  T
   4    -44.9275995 -0.131667E-04  0.126E-02    2.23       1.7  T
   5    -44.9276010 -0.151274E-05  0.572E-03    2.23       3.6  T
   6    -44.9276010 -0.101868E-07  0.218E-03    2.23       9.6  T
   7    -44.9276011 -0.502288E-07  0.639E-04    2.23      32.7  T
   8    -44.9276011 -0.253290E-08  0.312E-04    2.23      66.8  T
     SCC iter.                  ...        0 min,  0.010 sec
     gradient                   ...        0 min,  0.003 sec
 * total energy  :   -44.4946580 Eh     change       -0.2257750E-04 Eh
   gradient norm :     0.0147071 Eh/α   predicted    -0.1299200E-03 ( 475.44%)
   displ. norm   :     0.1091241 α      lambda       -0.2857982E-03
   maximum displ.:     0.0811250 α      in ANC's #3, #10, #8, ...

........................................................................
.............................. CYCLE   12 ..............................
........................................................................

 iter      E             dE          RMSdq      gap      omega  full diag
   1    -44.9310323 -0.449310E+02  0.586E-02    2.31       0.0  T
   2    -44.9310526 -0.203005E-04  0.332E-02    2.30       1.0  T
   3    -44.9310540 -0.143881E-05  0.184E-02    2.29       1.1  T
   4    -44.9310548 -0.743043E-06  0.683E-03    2.29       3.1  T
   5    -44.9310551 -0.300208E-06  0.225E-03    2.29       9.3  T
   6    -44.9310551 -0.130540E-07  0.130E-03    2.29      16.0  T
   7    -44.9310551 -0.615622E-08  0.307E-04    2.29      67.9  T
   8    -44.9310551 -0.224944E-09  0.147E-04    2.29     141.6  T
     SCC iter.                  ...        0 min,  0.010 sec
     gradient                   ...        0 min,  0.003 sec
 * total energy  :   -44.4948161 Eh     change       -0.1580994E-03 Eh
   gradient norm :     0.0034613 Eh/α   predicted    -0.1446091E-03 (  -8.53%)
   displ. norm   :     0.2080158 α      lambda       -0.1336852E-03
   maximum displ.:     0.1804399 α      in ANC's #2, #3, #6, ...

........................................................................
.............................. CYCLE   13 ..............................
........................................................................

 iter      E             dE          RMSdq      gap      omega  full diag
   1    -44.9319639 -0.449320E+02  0.612E-02    2.29       0.0  T
   2    -44.9319667 -0.279919E-05  0.353E-02    2.29       1.0  T
   3    -44.9319667 -0.387514E-07  0.875E-03    2.29       2.4  T
   4    -44.9319675 -0.797267E-06  0.295E-03    2.29       7.1  T
   5    -44.9319676 -0.180836E-07  0.151E-03    2.29      13.8  T
   6    -44.9319676 -0.650699E-08  0.540E-04    2.29      38.6  T
   7    -44.9319676 -0.237154E-08  0.178E-04    2.29     117.1  T
     SCC iter.                  ...        0 min,  0.007 sec
     gradient                   ...        0 min,  0.003 sec
 * total energy  :   -44.4949311 Eh     change       -0.1149898E-03 Eh
   gradient norm :     0.0034614 Eh/α   predicted    -0.6973680E-04 ( -39.35%)
   displ. norm   :     0.5998987 α      lambda       -0.3175244E-03
   maximum displ.:     0.5154049 α      in ANC's #2, #3, #6, ...

........................................................................
.............................. CYCLE   14 ..............................
........................................................................

 iter      E             dE          RMSdq      gap      omega  full diag
   1    -44.9289204 -0.449289E+02  0.181E-01    2.24       0.0  T
   2    -44.9289376 -0.172365E-04  0.105E-01    2.25       1.0  T
   3    -44.9289380 -0.417224E-06  0.220E-02    2.25       1.0  T
   4    -44.9289442 -0.619646E-05  0.884E-03    2.25       2.4  T
   5    -44.9289444 -0.149089E-06  0.440E-03    2.25       4.7  T
   6    -44.9289445 -0.140044E-06  0.138E-03    2.25      15.1  T
   7    -44.9289446 -0.206654E-07  0.529E-04    2.25      39.5  T
   8    -44.9289446 -0.716412E-09  0.270E-04    2.25      77.1  T
     SCC iter.                  ...        0 min,  0.008 sec
     gradient                   ...        0 min,  0.003 sec
 * total energy  :   -44.4951602 Eh     change       -0.2290665E-03 Eh
   gradient norm :     0.0081532 Eh/α   predicted    -0.2159002E-03 (  -5.75%)
   displ. norm   :     0.3779767 α      lambda       -0.2126391E-03
   maximum displ.:     0.3501007 α      in ANC's #2, #4, #6, ...

........................................................................
.............................. CYCLE   15 ..............................
........................................................................

 iter      E             dE          RMSdq      gap      omega  full diag
   1    -44.9286286 -0.449286E+02  0.105E-01    2.21       0.0  T
   2    -44.9286432 -0.145298E-04  0.605E-02    2.21       1.0  T
   3    -44.9286423  0.847322E-06  0.238E-02    2.22       1.0  T
   4    -44.9286470 -0.463611E-05  0.559E-03    2.22       3.7  T
   5    -44.9286471 -0.156954E-06  0.319E-03    2.22       6.5  T
   6    -44.9286472 -0.629752E-07  0.114E-03    2.22      18.4  T
   7    -44.9286472 -0.789865E-08  0.372E-04    2.22      56.1  T
   8    -44.9286472 -0.845723E-09  0.173E-04    2.22     120.8  T
     SCC iter.                  ...        0 min,  0.008 sec
     gradient                   ...        0 min,  0.003 sec
 * total energy  :   -44.4952989 Eh     change       -0.1387007E-03 Eh
   gradient norm :     0.0092101 Eh/α   predicted    -0.1215164E-03 ( -12.39%)
   displ. norm   :     0.3324235 α      lambda       -0.3138179E-03
   maximum displ.:     0.2949718 α      in ANC's #2, #3, #4, ...

........................................................................
.............................. CYCLE   16 ..............................
........................................................................

 iter      E             dE          RMSdq      gap      omega  full diag
   1    -44.9322925 -0.449323E+02  0.933E-02    2.26       0.0  T
   2    -44.9323078 -0.153261E-04  0.535E-02    2.25       1.0  T
   3    -44.9323070  0.839741E-06  0.215E-02    2.25       1.0  T
   4    -44.9323095 -0.257129E-05  0.629E-03    2.25       3.3  T
   5    -44.9323101 -0.523267E-06  0.254E-03    2.25       8.2  T
   6    -44.9323101 -0.435812E-07  0.125E-03    2.25      16.6  T
   7    -44.9323101 -0.456966E-08  0.273E-04    2.25      76.3  T
   8    -44.9323101 -0.260037E-09  0.136E-04    2.25     152.9  T
     SCC iter.                  ...        0 min,  0.008 sec
     gradient                   ...        0 min,  0.003 sec
 * total energy  :   -44.4954398 Eh     change       -0.1409321E-03 Eh
   gradient norm :     0.0079109 Eh/α   predicted    -0.1742485E-03 (  23.64%)
   displ. norm   :     0.4492667 α      lambda       -0.2167597E-03
   maximum displ.:     0.4073905 α      in ANC's #2, #3, #4, ...

........................................................................
.............................. CYCLE   17 ..............................
........................................................................

 iter      E             dE          RMSdq      gap      omega  full diag
   1    -44.9278480 -0.449278E+02  0.136E-01    2.18       0.0  T
   2    -44.9278647 -0.167148E-04  0.786E-02    2.20       1.0  T
   3    -44.9278635  0.114248E-05  0.219E-02    2.20       1.0  T
   4    -44.9278689 -0.539535E-05  0.693E-03    2.20       3.0  T
   5    -44.9278691 -0.186477E-06  0.345E-03    2.20       6.0  T
   6    -44.9278691 -0.127729E-07  0.146E-03    2.20      14.2  T
   7    -44.9278692 -0.176920E-07  0.397E-04    2.20      52.6  T
   8    -44.9278692 -0.390500E-09  0.189E-04    2.20     110.3  T
     SCC iter.                  ...        0 min,  0.009 sec
     gradient                   ...        0 min,  0.003 sec
 * total energy  :   -44.4955440 Eh     change       -0.1042288E-03 Eh
   gradient norm :     0.0100840 Eh/α   predicted    -0.1302561E-03 (  24.97%)
   displ. norm   :     0.0821463 α      lambda       -0.1875706E-03
   maximum displ.:     0.0545579 α      in ANC's #2, #7, #13, ...

........................................................................
.............................. CYCLE   18 ..............................
........................................................................

 iter      E             dE          RMSdq      gap      omega  full diag
   1    -44.9311087 -0.449311E+02  0.430E-02    2.18       0.0  T
   2    -44.9311205 -0.118203E-04  0.280E-02    2.18       1.0  T
   3    -44.9311244 -0.391347E-05  0.147E-02    2.18       1.4  T
   4    -44.9311246 -0.197899E-06  0.449E-03    2.18       4.6  T
   5    -44.9311249 -0.300950E-06  0.153E-03    2.18      13.6  T
   6    -44.9311249 -0.823899E-08  0.634E-04    2.18      32.9  T
   7    -44.9311249 -0.131241E-08  0.308E-04    2.18      67.7  T
     SCC iter.                  ...        0 min,  0.008 sec
     gradient                   ...        0 min,  0.003 sec
 * total energy  :   -44.4956435 Eh     change       -0.9942624E-04 Eh
   gradient norm :     0.0061878 Eh/α   predicted    -0.9442052E-04 (  -5.03%)
   displ. norm   :     0.2112478 α      lambda       -0.9977985E-04
   maximum displ.:     0.1887874 α      in ANC's #2, #4, #7, ...

........................................................................
.............................. CYCLE   19 ..............................
........................................................................

 iter      E             dE          RMSdq      gap      omega  full diag
   1    -44.9313532 -0.449314E+02  0.600E-02    2.18       0.0  T
   2    -44.9313568 -0.363406E-05  0.349E-02    2.18       1.0  T
   3    -44.9313551  0.174433E-05  0.151E-02    2.18       1.4  T
   4    -44.9313581 -0.306918E-05  0.327E-03    2.18       6.4  T
   5    -44.9313582 -0.926520E-07  0.169E-03    2.18      12.3  T
   6    -44.9313582 -0.786196E-08  0.483E-04    2.18      43.2  T
   7    -44.9313582 -0.101242E-08  0.185E-04    2.18     112.7  T
     SCC iter.                  ...        0 min,  0.009 sec
     gradient                   ...        0 min,  0.004 sec
 * total energy  :   -44.4957218 Eh     change       -0.7832566E-04 Eh
   gradient norm :     0.0039481 Eh/α   predicted    -0.5212089E-04 ( -33.46%)
   displ. norm   :     0.3686777 α      lambda       -0.1315490E-03
   maximum displ.:     0.3220896 α      in ANC's #2, #7, #4, ...

........................................................................
.............................. CYCLE   20 ..............................
........................................................................

 iter      E             dE          RMSdq      gap      omega  full diag
   1    -44.9311075 -0.449311E+02  0.105E-01    2.17       0.0  T
   2    -44.9311185 -0.109726E-04  0.606E-02    2.18       1.0  T
   3    -44.9311150  0.353502E-05  0.247E-02    2.18       1.0  T
   4    -44.9311224 -0.736864E-05  0.542E-03    2.18       3.8  T
   5    -44.9311225 -0.141654E-06  0.301E-03    2.18       6.9  T
   6    -44.9311225 -0.347320E-07  0.879E-04    2.18      23.7  T
   7    -44.9311225 -0.552993E-08  0.336E-04    2.18      62.0  T
     SCC iter.                  ...        0 min,  0.009 sec
     gradient                   ...        0 min,  0.003 sec
 * total energy  :   -44.4958055 Eh     change       -0.8369420E-04 Eh
   gradient norm :     0.0055332 Eh/α   predicted    -0.7471863E-04 ( -10.72%)
   displ. norm   :     0.1907817 α      lambda       -0.7603851E-04
   maximum displ.:     0.1463189 α      in ANC's #2, #3, #7, ...
 * RMSD in coord.:     0.8579506 α      energy gain  -0.1289649E-01 Eh

generating ANC from exact Hessian ...
Using Lindh-Hessian (1995)
 Shifting diagonal of input Hessian by    8.7086457593867524E-003
 Lowest  eigenvalues of input Hessian
    0.000000    0.000000    0.000000    0.000000    0.000000    0.000000
    0.010000    0.010392    0.010756    0.015707    0.019201    0.019704
    0.019981    0.022675    0.023425    0.025733    0.029428    0.038238
 Highest eigenvalues
    1.846056    1.938464    2.033358    2.289000    2.366247    2.677059


........................................................................
.............................. CYCLE   21 ..............................
........................................................................

 iter      E             dE          RMSdq      gap      omega  full diag
   1    -44.9319210 -0.449319E+02  0.583E-02    2.18       0.0  T
   2    -44.9319241 -0.310481E-05  0.339E-02    2.18       1.0  T
   3    -44.9319223  0.184750E-05  0.139E-02    2.18       1.5  T
   4    -44.9319253 -0.304774E-05  0.317E-03    2.18       6.6  T
   5    -44.9319254 -0.811790E-07  0.167E-03    2.18      12.5  T
   6    -44.9319254 -0.917411E-08  0.563E-04    2.18      37.0  T
   7    -44.9319254 -0.104609E-08  0.206E-04    2.18     101.4  T
     SCC iter.                  ...        0 min,  0.008 sec
     gradient                   ...        0 min,  0.003 sec
 * total energy  :   -44.4958558 Eh     change       -0.5033693E-04 Eh
   gradient norm :     0.0051535 Eh/α   predicted     0.0000000E+00 (-100.00%)
   displ. norm   :     0.0412967 α      lambda       -0.2506241E-04
   maximum displ.:     0.0274762 α      in ANC's #3, #2, #8, ...

........................................................................
.............................. CYCLE   22 ..............................
........................................................................

 iter      E             dE          RMSdq      gap      omega  full diag
   1    -44.9327017 -0.449327E+02  0.174E-02    2.18       0.0  T
   2    -44.9327025 -0.832386E-06  0.104E-02    2.18       2.0  T
   3    -44.9327026 -0.728704E-07  0.542E-03    2.18       3.8  T
   4    -44.9327027 -0.128683E-06  0.108E-03    2.18      19.4  T
   5    -44.9327027 -0.146211E-07  0.465E-04    2.18      44.8  T
   6    -44.9327027 -0.469598E-09  0.185E-04    2.18     112.5  T
     SCC iter.                  ...        0 min,  0.007 sec
     gradient                   ...        0 min,  0.003 sec
 * total energy  :   -44.4958852 Eh     change       -0.2938968E-04 Eh
   gradient norm :     0.0026549 Eh/α   predicted    -0.2606940E-04 ( -11.30%)
   displ. norm   :     0.0703792 α      lambda       -0.5017249E-04
   maximum displ.:     0.0468392 α      in ANC's #3, #2, #8, ...

........................................................................
.............................. CYCLE   23 ..............................
........................................................................

 iter      E             dE          RMSdq      gap      omega  full diag
   1    -44.9335044 -0.449335E+02  0.248E-02    2.17       0.0  T
   2    -44.9335062 -0.180571E-05  0.149E-02    2.17       1.4  T
   3    -44.9335064 -0.194386E-06  0.793E-03    2.18       2.6  T
   4    -44.9335067 -0.242190E-06  0.158E-03    2.18      13.2  T
   5    -44.9335067 -0.359653E-07  0.528E-04    2.18      39.5  T
   6    -44.9335067 -0.104215E-08  0.242E-04    2.18      86.3  T
     SCC iter.                  ...        0 min,  0.006 sec
     gradient                   ...        0 min,  0.003 sec
 * total energy  :   -44.4959142 Eh     change       -0.2895126E-04 Eh
   gradient norm :     0.0033175 Eh/α   predicted    -0.2522682E-04 ( -12.86%)
   displ. norm   :     0.0664551 α      lambda       -0.2933542E-04
   maximum displ.:     0.0459062 α      in ANC's #3, #2, #8, ...

........................................................................
.............................. CYCLE   24 ..............................
........................................................................

 iter      E             dE          RMSdq      gap      omega  full diag
   1    -44.9332858 -0.449333E+02  0.181E-02    2.17       0.0  T
   2    -44.9332864 -0.542661E-06  0.107E-02    2.18       1.9  T
   3    -44.9332864 -0.628779E-08  0.577E-03    2.17       3.6  T
   4    -44.9332866 -0.198359E-06  0.786E-04    2.18      26.5  T
   5    -44.9332866 -0.611713E-08  0.367E-04    2.18      56.9  T
     SCC iter.                  ...        0 min,  0.007 sec
     gradient                   ...        0 min,  0.003 sec
 * total energy  :   -44.4959395 Eh     change       -0.2536154E-04 Eh
   gradient norm :     0.0030445 Eh/α   predicted    -0.1473274E-04 ( -41.91%)
   displ. norm   :     0.1409474 α      lambda       -0.5535803E-04
   maximum displ.:     0.0956395 α      in ANC's #3, #2, #5, ...

........................................................................
.............................. CYCLE   25 ..............................
........................................................................

 iter      E             dE          RMSdq      gap      omega  full diag
   1    -44.9324265 -0.449324E+02  0.354E-02    2.17       0.0  T
   2    -44.9324284 -0.192840E-05  0.210E-02    2.18       1.0  T
   3    -44.9324282  0.183414E-06  0.100E-02    2.17       2.1  T
   4    -44.9324289 -0.681628E-06  0.157E-03    2.17      13.3  T
   5    -44.9324290 -0.264096E-07  0.718E-04    2.17      29.1  T
   6    -44.9324290 -0.101562E-08  0.236E-04    2.17      88.2  T
     SCC iter.                  ...        0 min,  0.008 sec
     gradient                   ...        0 min,  0.003 sec
 * total energy  :   -44.4959816 Eh     change       -0.4210621E-04 Eh
   gradient norm :     0.0024874 Eh/α   predicted    -0.2822966E-04 ( -32.96%)
   displ. norm   :     0.1556958 α      lambda       -0.4211512E-04
   maximum displ.:     0.1071292 α      in ANC's #3, #2, #5, ...

........................................................................
.............................. CYCLE   26 ..............................
........................................................................

 iter      E             dE          RMSdq      gap      omega  full diag
   1    -44.9317558 -0.449318E+02  0.365E-02    2.17       0.0  T
   2    -44.9317570 -0.125081E-05  0.214E-02    2.18       1.0  T
   3    -44.9317568  0.241222E-06  0.753E-03    2.17       2.8  T
   4    -44.9317573 -0.492644E-06  0.136E-03    2.18      15.3  T
   5    -44.9317573 -0.162564E-07  0.713E-04    2.18      29.3  T
   6    -44.9317573 -0.156763E-08  0.214E-04    2.18      97.5  T
     SCC iter.                  ...        0 min,  0.008 sec
     gradient                   ...        0 min,  0.003 sec
 * total energy  :   -44.4960146 Eh     change       -0.3302450E-04 Eh
   gradient norm :     0.0034514 Eh/α   predicted    -0.2156869E-04 ( -34.69%)
   displ. norm   :     0.1558485 α      lambda       -0.4369283E-04
   maximum displ.:     0.1080459 α      in ANC's #3, #2, #5, ...

........................................................................
.............................. CYCLE   27 ..............................
........................................................................

 iter      E             dE          RMSdq      gap      omega  full diag
   1    -44.9315377 -0.449315E+02  0.356E-02    2.17       0.0  T
   2    -44.9315386 -0.827478E-06  0.208E-02    2.18       1.0  T
   3    -44.9315383  0.234007E-06  0.590E-03    2.18       3.5  T
   4    -44.9315387 -0.392711E-06  0.150E-03    2.18      13.9  T
   5    -44.9315387 -0.267976E-07  0.714E-04    2.18      29.2  T
   6    -44.9315387 -0.167777E-08  0.168E-04    2.18     124.4  T
     SCC iter.                  ...        0 min,  0.008 sec
     gradient                   ...        0 min,  0.003 sec
 * total energy  :   -44.4960511 Eh     change       -0.3647411E-04 Eh
   gradient norm :     0.0038429 Eh/α   predicted    -0.2238186E-04 ( -38.64%)
   displ. norm   :     0.2274126 α      lambda       -0.7256802E-04
   maximum displ.:     0.1608105 α      in ANC's #3, #5, #2, ...

........................................................................
.............................. CYCLE   28 ..............................
........................................................................

 iter      E             dE          RMSdq      gap      omega  full diag
   1    -44.9315530 -0.449316E+02  0.525E-02    2.17       0.0  T
   2    -44.9315545 -0.153930E-05  0.306E-02    2.18       1.0  T
   3    -44.9315533  0.122208E-05  0.112E-02    2.18       1.9  T
   4    -44.9315550 -0.174603E-05  0.221E-03    2.18       9.4  T
   5    -44.9315551 -0.424799E-07  0.106E-03    2.18      19.6  T
   6    -44.9315551 -0.202871E-08  0.296E-04    2.18      70.4  T
   7    -44.9315551 -0.796597E-09  0.122E-04    2.18     171.2  T
     SCC iter.                  ...        0 min,  0.010 sec
     gradient                   ...        0 min,  0.003 sec
 * total energy  :   -44.4961056 Eh     change       -0.5450024E-04 Eh
   gradient norm :     0.0040158 Eh/α   predicted    -0.3816107E-04 ( -29.98%)
   displ. norm   :     0.2003565 α      lambda       -0.6860001E-04
   maximum displ.:     0.1485368 α      in ANC's #3, #5, #2, ...

........................................................................
.............................. CYCLE   29 ..............................
........................................................................

 iter      E             dE          RMSdq      gap      omega  full diag
   1    -44.9322619 -0.449323E+02  0.481E-02    2.17       0.0  T
   2    -44.9322633 -0.135030E-05  0.280E-02    2.18       1.0  T
   3    -44.9322617  0.152795E-05  0.126E-02    2.18       1.7  T
   4    -44.9322640 -0.222892E-05  0.190E-03    2.18      11.0  T
   5    -44.9322640 -0.167524E-07  0.100E-03    2.18      20.8  T
   6    -44.9322640 -0.354372E-08  0.289E-04    2.18      72.2  T
   7    -44.9322640 -0.944311E-09  0.106E-04    2.18     196.6  T
     SCC iter.                  ...        0 min,  0.009 sec
     gradient                   ...        0 min,  0.003 sec
 * total energy  :   -44.4961544 Eh     change       -0.4877911E-04 Eh
   gradient norm :     0.0036224 Eh/α   predicted    -0.3567722E-04 ( -26.86%)
   displ. norm   :     0.1472382 α      lambda       -0.4862685E-04
   maximum displ.:     0.1152057 α      in ANC's #3, #5, #7, ...

........................................................................
.............................. CYCLE   30 ..............................
........................................................................

 iter      E             dE          RMSdq      gap      omega  full diag
   1    -44.9331480 -0.449331E+02  0.367E-02    2.17       0.0  T
   2    -44.9331487 -0.694022E-06  0.214E-02    2.18       1.0  T
   3    -44.9331477  0.962703E-06  0.887E-03    2.18       2.4  T
   4    -44.9331491 -0.132429E-05  0.141E-03    2.18      14.7  T
   5    -44.9331491 -0.460965E-08  0.695E-04    2.18      30.0  T
   6    -44.9331491 -0.242708E-08  0.225E-04    2.18      92.6  T
     SCC iter.                  ...        0 min,  0.007 sec
     gradient                   ...        0 min,  0.003 sec
 * total energy  :   -44.4961914 Eh     change       -0.3698302E-04 Eh
   gradient norm :     0.0028934 Eh/α   predicted    -0.2484107E-04 ( -32.83%)
   displ. norm   :     0.2975451 α      lambda       -0.6527612E-04
   maximum displ.:     0.2337164 α      in ANC's #3, #5, #7, ...

........................................................................
.............................. CYCLE   31 ..............................
........................................................................

 iter      E             dE          RMSdq      gap      omega  full diag
   1    -44.9315930 -0.449316E+02  0.740E-02    2.16       0.0  T
   2    -44.9315955 -0.249442E-05  0.431E-02    2.17       1.0  T
   3    -44.9315937  0.182275E-05  0.125E-02    2.17       1.7  T
   4    -44.9315963 -0.263594E-05  0.309E-03    2.17       6.7  T
   5    -44.9315964 -0.649425E-07  0.149E-03    2.17      14.0  T
   6    -44.9315964 -0.800323E-08  0.470E-04    2.17      44.4  T
   7    -44.9315964 -0.138506E-08  0.132E-04    2.17     157.4  T
     SCC iter.                  ...        0 min,  0.008 sec
     gradient                   ...        0 min,  0.003 sec
 * total energy  :   -44.4962213 Eh     change       -0.2992272E-04 Eh
   gradient norm :     0.0058465 Eh/α   predicted    -0.3552849E-04 (  18.73%)
   displ. norm   :     0.1676995 α      lambda       -0.1181522E-03
   maximum displ.:     0.1241677 α      in ANC's #3, #5, #7, ...

........................................................................
.............................. CYCLE   32 ..............................
........................................................................

 iter      E             dE          RMSdq      gap      omega  full diag
   1    -44.9336365 -0.449336E+02  0.451E-02    2.16       0.0  T
   2    -44.9336387 -0.215802E-05  0.260E-02    2.16       1.0  T
   3    -44.9336380  0.605422E-06  0.103E-02    2.16       2.0  T
   4    -44.9336392 -0.114725E-05  0.207E-03    2.16      10.1  T
   5    -44.9336392 -0.404834E-07  0.109E-03    2.16      19.1  T
   6    -44.9336392 -0.594369E-08  0.409E-04    2.16      51.0  T
   7    -44.9336392 -0.927251E-09  0.117E-04    2.16     177.8  T
     SCC iter.                  ...        0 min,  0.008 sec
     gradient                   ...        0 min,  0.003 sec
 * total energy  :   -44.4962994 Eh     change       -0.7807945E-04 Eh
   gradient norm :     0.0043133 Eh/α   predicted    -0.6073835E-04 ( -22.21%)
   displ. norm   :     0.3781637 α      lambda       -0.1045069E-03
   maximum displ.:     0.3010023 α      in ANC's #3, #5, #7, ...

........................................................................
.............................. CYCLE   33 ..............................
........................................................................

 iter      E             dE          RMSdq      gap      omega  full diag
   1    -44.9311857 -0.449312E+02  0.961E-02    2.14       0.0  T
   2    -44.9311911 -0.545289E-05  0.557E-02    2.14       1.0  T
   3    -44.9311890  0.218301E-05  0.173E-02    2.15       1.2  T
   4    -44.9311927 -0.379656E-05  0.384E-03    2.15       5.4  T
   5    -44.9311928 -0.733026E-07  0.210E-03    2.15       9.9  T
   6    -44.9311928 -0.250173E-07  0.637E-04    2.15      32.7  T
   7    -44.9311929 -0.345477E-08  0.215E-04    2.15      97.1  T
     SCC iter.                  ...        0 min,  0.008 sec
     gradient                   ...        0 min,  0.003 sec
 * total energy  :   -44.4963576 Eh     change       -0.5819295E-04 Eh
   gradient norm :     0.0070430 Eh/α   predicted    -0.5972680E-04 (   2.64%)
   displ. norm   :     0.1671195 α      lambda       -0.1574461E-03
   maximum displ.:     0.0980085 α      in ANC's #3, #2, #1, ...

........................................................................
.............................. CYCLE   34 ..............................
........................................................................

 iter      E             dE          RMSdq      gap      omega  full diag
   1    -44.9320350 -0.449320E+02  0.454E-02    2.15       0.0  T
   2    -44.9320390 -0.396008E-05  0.266E-02    2.14       1.0  T
   3    -44.9320388  0.153992E-06  0.136E-02    2.14       1.5  T
   4    -44.9320401 -0.126327E-05  0.245E-03    2.14       8.5  T
   5    -44.9320402 -0.557619E-07  0.108E-03    2.14      19.3  T
   6    -44.9320402 -0.422887E-08  0.473E-04    2.14      44.1  T
   7    -44.9320402 -0.725315E-09  0.198E-04    2.14     105.2  T
     SCC iter.                  ...        0 min,  0.008 sec
     gradient                   ...        0 min,  0.003 sec
 * total energy  :   -44.4964659 Eh     change       -0.1083508E-03 Eh
   gradient norm :     0.0034498 Eh/α   predicted    -0.8092253E-04 ( -25.31%)
   displ. norm   :     0.3673802 α      lambda       -0.1189017E-03
   maximum displ.:     0.2596245 α      in ANC's #3, #2, #7, ...

........................................................................
.............................. CYCLE   35 ..............................
........................................................................

 iter      E             dE          RMSdq      gap      omega  full diag
   1    -44.9304003 -0.449304E+02  0.916E-02    2.13       0.0  T
   2    -44.9304069 -0.664549E-05  0.533E-02    2.13       1.0  T
   3    -44.9304046  0.237060E-05  0.195E-02    2.12       1.1  T
   4    -44.9304088 -0.427483E-05  0.378E-03    2.12       5.5  T
   5    -44.9304089 -0.753181E-07  0.198E-03    2.12      10.5  T
   6    -44.9304089 -0.121752E-07  0.600E-04    2.12      34.8  T
   7    -44.9304089 -0.170754E-08  0.222E-04    2.12      93.8  T
     SCC iter.                  ...        0 min,  0.008 sec
     gradient                   ...        0 min,  0.003 sec
 * total energy  :   -44.4965218 Eh     change       -0.5587200E-04 Eh
   gradient norm :     0.0069674 Eh/α   predicted    -0.6747593E-04 (  20.77%)
   displ. norm   :     0.1150266 α      lambda       -0.1272943E-03
   maximum displ.:     0.0916983 α      in ANC's #2, #1, #5, ...

........................................................................
.............................. CYCLE   36 ..............................
........................................................................

 iter      E             dE          RMSdq      gap      omega  full diag
   1    -44.9343974 -0.449344E+02  0.373E-02    2.13       0.0  T
   2    -44.9343998 -0.242499E-05  0.213E-02    2.12       1.0  T
   3    -44.9343997  0.185986E-06  0.781E-03    2.12       2.7  T
   4    -44.9344000 -0.367655E-06  0.244E-03    2.12       8.6  T
   5    -44.9344001 -0.901015E-07  0.841E-04    2.12      24.8  T
   6    -44.9344001 -0.192752E-08  0.447E-04    2.12      46.6  T
     SCC iter.                  ...        0 min,  0.009 sec
     gradient                   ...        0 min,  0.004 sec
 * total energy  :   -44.4965662 Eh     change       -0.4440785E-04 Eh
   gradient norm :     0.0048536 Eh/α   predicted    -0.6449806E-04 (  45.24%)
   displ. norm   :     0.1910208 α      lambda       -0.8188053E-04
   maximum displ.:     0.1480514 α      in ANC's #3, #2, #5, ...

........................................................................
.............................. CYCLE   37 ..............................
........................................................................

 iter      E             dE          RMSdq      gap      omega  full diag
   1    -44.9326276 -0.449326E+02  0.488E-02    2.11       0.0  T
   2    -44.9326290 -0.141298E-05  0.281E-02    2.11       1.0  T
   3    -44.9326290  0.744639E-07  0.560E-03    2.11       3.7  T
   4    -44.9326293 -0.335724E-06  0.227E-03    2.11       9.2  T
   5    -44.9326293 -0.516015E-07  0.105E-03    2.11      19.8  T
   6    -44.9326294 -0.353494E-08  0.305E-04    2.11      68.4  T
   7    -44.9326294 -0.101060E-08  0.995E-05    2.11     209.6  T
     SCC iter.                  ...        0 min,  0.009 sec
     gradient                   ...        0 min,  0.003 sec
 * total energy  :   -44.4966196 Eh     change       -0.5339178E-04 Eh
   gradient norm :     0.0034038 Eh/α   predicted    -0.4243743E-04 ( -20.52%)
   displ. norm   :     0.2530132 α      lambda       -0.5754805E-04
   maximum displ.:     0.1802490 α      in ANC's #3, #2, #7, ...

........................................................................
.............................. CYCLE   38 ..............................
........................................................................

 iter      E             dE          RMSdq      gap      omega  full diag
   1    -44.9311378 -0.449311E+02  0.625E-02    2.09       0.0  T
   2    -44.9311396 -0.170710E-05  0.361E-02    2.09       1.0  T
   3    -44.9311389  0.667771E-06  0.847E-03    2.09       2.5  T
   4    -44.9311401 -0.118087E-05  0.263E-03    2.09       7.9  T
   5    -44.9311401 -0.422703E-07  0.124E-03    2.09      16.9  T
   6    -44.9311401 -0.352363E-08  0.331E-04    2.09      62.9  T
   7    -44.9311401 -0.137921E-08  0.122E-04    2.09     171.5  T
     SCC iter.                  ...        0 min,  0.007 sec
     gradient                   ...        0 min,  0.003 sec
 * total energy  :   -44.4966462 Eh     change       -0.2656228E-04 Eh
   gradient norm :     0.0058412 Eh/α   predicted    -0.3062698E-04 (  15.30%)
   displ. norm   :     0.0525788 α      lambda       -0.6059571E-04
   maximum displ.:     0.0253788 α      in ANC's #3, #2, #8, ...

........................................................................
.............................. CYCLE   39 ..............................
........................................................................

 iter      E             dE          RMSdq      gap      omega  full diag
   1    -44.9326106 -0.449326E+02  0.218E-02    2.08       0.0  T
   2    -44.9326121 -0.147107E-05  0.131E-02    2.08       1.6  T
   3    -44.9326124 -0.367846E-06  0.769E-03    2.08       2.7  T
   4    -44.9326128 -0.357516E-06  0.147E-03    2.09      14.2  T
   5    -44.9326128 -0.167313E-07  0.728E-04    2.09      28.7  T
   6    -44.9326128 -0.206536E-08  0.355E-04    2.08      58.7  T
     SCC iter.                  ...        0 min,  0.006 sec
     gradient                   ...        0 min,  0.003 sec
 * total energy  :   -44.4966878 Eh     change       -0.4164635E-04 Eh
   gradient norm :     0.0036355 Eh/α   predicted    -0.3038254E-04 ( -27.05%)
   displ. norm   :     0.2018716 α      lambda       -0.5520540E-04
   maximum displ.:     0.1395275 α      in ANC's #3, #2, #7, ...

........................................................................
.............................. CYCLE   40 ..............................
........................................................................

 iter      E             dE          RMSdq      gap      omega  full diag
   1    -44.9328582 -0.449329E+02  0.533E-02    2.07       0.0  T
   2    -44.9328600 -0.179164E-05  0.309E-02    2.07       1.0  T
   3    -44.9328581  0.182714E-05  0.121E-02    2.07       1.7  T
   4    -44.9328608 -0.263533E-05  0.236E-03    2.07       8.8  T
   5    -44.9328608 -0.193794E-07  0.118E-03    2.07      17.6  T
   6    -44.9328608 -0.322609E-08  0.378E-04    2.07      55.1  T
   7    -44.9328608 -0.121440E-08  0.147E-04    2.07     141.6  T
     SCC iter.                  ...        0 min,  0.008 sec
     gradient                   ...        0 min,  0.003 sec
 * total energy  :   -44.4967256 Eh     change       -0.3781126E-04 Eh
   gradient norm :     0.0036683 Eh/α   predicted    -0.2872822E-04 ( -24.02%)
   displ. norm   :     0.2257573 α      lambda       -0.4962857E-04
   maximum displ.:     0.1582268 α      in ANC's #3, #2, #7, ...

........................................................................
.............................. CYCLE   41 ..............................
........................................................................

 iter      E             dE          RMSdq      gap      omega  full diag
   1    -44.9327420 -0.449327E+02  0.608E-02    2.05       0.0  T
   2    -44.9327439 -0.190820E-05  0.352E-02    2.06       1.0  T
   3    -44.9327424  0.147428E-05  0.110E-02    2.06       1.9  T
   4    -44.9327447 -0.225875E-05  0.270E-03    2.06       7.7  T
   5    -44.9327447 -0.334222E-07  0.142E-03    2.06      14.7  T
   6    -44.9327447 -0.968470E-08  0.360E-04    2.06      57.8  T
   7    -44.9327447 -0.737224E-09  0.158E-04    2.06     132.3  T
     SCC iter.                  ...        0 min,  0.008 sec
     gradient                   ...        0 min,  0.003 sec
 * total energy  :   -44.4967621 Eh     change       -0.3643289E-04 Eh
   gradient norm :     0.0034794 Eh/α   predicted    -0.2608531E-04 ( -28.40%)
   displ. norm   :     0.2271255 α      lambda       -0.6330026E-04
   maximum displ.:     0.1675285 α      in ANC's #3, #2, #7, ...

........................................................................
.............................. CYCLE   42 ..............................
........................................................................

 iter      E             dE          RMSdq      gap      omega  full diag
   1    -44.9331842 -0.449332E+02  0.684E-02    2.05       0.0  T
   2    -44.9331873 -0.312577E-05  0.399E-02    2.05       1.0  T
   3    -44.9331852  0.208860E-05  0.148E-02    2.05       1.4  T
   4    -44.9331886 -0.340120E-05  0.305E-03    2.05       6.8  T
   5    -44.9331887 -0.406768E-07  0.174E-03    2.05      11.9  T
   6    -44.9331887 -0.169433E-07  0.496E-04    2.05      42.1  T
   7    -44.9331887 -0.195258E-08  0.221E-04    2.05      94.5  T
     SCC iter.                  ...        0 min,  0.009 sec
     gradient                   ...        0 min,  0.003 sec
 * total energy  :   -44.4968052 Eh     change       -0.4314835E-04 Eh
   gradient norm :     0.0025511 Eh/α   predicted    -0.3328797E-04 ( -22.85%)
   displ. norm   :     0.3163615 α      lambda       -0.5065992E-04
   maximum displ.:     0.2444795 α      in ANC's #3, #2, #7, ...
 * RMSD in coord.:     0.7374838 α      energy gain  -0.9997252E-03 Eh

generating ANC from exact Hessian ...
Using Lindh-Hessian (1995)
 Shifting diagonal of input Hessian by    8.7080918652872336E-003
 Lowest  eigenvalues of input Hessian
    0.000000    0.000000    0.000000    0.000000    0.000000    0.000000
    0.010000    0.010230    0.011014    0.015685    0.019070    0.019752
    0.019884    0.022424    0.023435    0.026404    0.028493    0.038491
 Highest eigenvalues
    1.842850    1.931805    2.034388    2.288521    2.367817    2.668676


........................................................................
.............................. CYCLE   43 ..............................
........................................................................

 iter      E             dE          RMSdq      gap      omega  full diag
   1    -44.9308795 -0.449309E+02  0.909E-02    2.03       0.0  T
   2    -44.9308842 -0.473050E-05  0.527E-02    2.03       1.0  T
   3    -44.9308819  0.230833E-05  0.162E-02    2.03       1.3  T
   4    -44.9308859 -0.403313E-05  0.394E-03    2.03       5.3  T
   5    -44.9308860 -0.528057E-07  0.211E-03    2.03       9.9  T
   6    -44.9308860 -0.226255E-07  0.674E-04    2.03      30.9  T
   7    -44.9308860 -0.495338E-08  0.265E-04    2.03      78.6  T
     SCC iter.                  ...        0 min,  0.009 sec
     gradient                   ...        0 min,  0.003 sec
 * total energy  :   -44.4968097 Eh     change       -0.4521037E-05 Eh
   gradient norm :     0.0051244 Eh/α   predicted     0.0000000E+00 (-100.00%)
   displ. norm   :     0.0326151 α      lambda       -0.7193659E-04
   maximum displ.:     0.0202927 α      in ANC's #2, #1, #5, ...

........................................................................
.............................. CYCLE   44 ..............................
........................................................................

 iter      E             dE          RMSdq      gap      omega  full diag
   1    -44.9330423 -0.449330E+02  0.191E-02    2.03       0.0  T
   2    -44.9330429 -0.601184E-06  0.106E-02    2.03       2.0  T
   3    -44.9330429 -0.211720E-07  0.307E-03    2.03       6.8  T
   4    -44.9330429 -0.203483E-07  0.836E-04    2.03      24.9  T
   5    -44.9330429 -0.436236E-08  0.442E-04    2.03      47.2  T
     SCC iter.                  ...        0 min,  0.007 sec
     gradient                   ...        0 min,  0.004 sec
 * total energy  :   -44.4968566 Eh     change       -0.4689143E-04 Eh
   gradient norm :     0.0014843 Eh/α   predicted    -0.3637184E-04 ( -22.43%)
   displ. norm   :     0.0581438 α      lambda       -0.1867509E-04
   maximum displ.:     0.0395907 α      in ANC's #2, #1, #5, ...

........................................................................
.............................. CYCLE   45 ..............................
........................................................................

 iter      E             dE          RMSdq      gap      omega  full diag
   1    -44.9342624 -0.449343E+02  0.181E-02    2.03       0.0  T
   2    -44.9342628 -0.332753E-06  0.104E-02    2.03       2.0  T
   3    -44.9342627  0.487027E-08  0.261E-03    2.03       8.0  T
   4    -44.9342628 -0.416429E-07  0.857E-04    2.03      24.3  T
   5    -44.9342628 -0.671604E-08  0.402E-04    2.03      51.9  T
     SCC iter.                  ...        0 min,  0.007 sec
     gradient                   ...        0 min,  0.003 sec
 * total energy  :   -44.4968739 Eh     change       -0.1726399E-04 Eh
   gradient norm :     0.0015141 Eh/α   predicted    -0.9355201E-05 ( -45.81%)
   displ. norm   :     0.0656790 α      lambda       -0.1341901E-04
   maximum displ.:     0.0426392 α      in ANC's #2, #1, #5, ...

........................................................................
.............................. CYCLE   46 ..............................
........................................................................

 iter      E             dE          RMSdq      gap      omega  full diag
   1    -44.9341332 -0.449341E+02  0.156E-02    2.03       0.0  T
   2    -44.9341333 -0.751210E-07  0.919E-03    2.03       2.3  T
   3    -44.9341332  0.344227E-07  0.196E-03    2.03      10.6  T
   4    -44.9341333 -0.664586E-07  0.591E-04    2.03      35.3  T
   5    -44.9341333 -0.633314E-09  0.283E-04    2.03      73.8  T
     SCC iter.                  ...        0 min,  0.006 sec
     gradient                   ...        0 min,  0.003 sec
 * total energy  :   -44.4968916 Eh     change       -0.1772267E-04 Eh
   gradient norm :     0.0014056 Eh/α   predicted    -0.6723614E-05 ( -62.06%)
   displ. norm   :     0.1942014 α      lambda       -0.3489704E-04
   maximum displ.:     0.1178325 α      in ANC's #2, #1, #5, ...

........................................................................
.............................. CYCLE   47 ..............................
........................................................................

 iter      E             dE          RMSdq      gap      omega  full diag
   1    -44.9329296 -0.449329E+02  0.447E-02    2.03       0.0  T
   2    -44.9329304 -0.791921E-06  0.265E-02    2.03       1.0  T
   3    -44.9329298  0.562698E-06  0.706E-03    2.03       3.0  T
   4    -44.9329307 -0.893076E-06  0.180E-03    2.03      11.6  T
   5    -44.9329308 -0.839471E-08  0.976E-04    2.03      21.4  T
   6    -44.9329308 -0.497074E-08  0.272E-04    2.03      76.5  T
     SCC iter.                  ...        0 min,  0.007 sec
     gradient                   ...        0 min,  0.003 sec
 * total energy  :   -44.4969186 Eh     change       -0.2702030E-04 Eh
   gradient norm :     0.0023455 Eh/α   predicted    -0.1774260E-04 ( -34.34%)
   displ. norm   :     0.0777295 α      lambda       -0.2166614E-04
   maximum displ.:     0.0458941 α      in ANC's #2, #1, #5, ...

........................................................................
.............................. CYCLE   48 ..............................
........................................................................

 iter      E             dE          RMSdq      gap      omega  full diag
   1    -44.9325803 -0.449326E+02  0.201E-02    2.03       0.0  T
   2    -44.9325804 -0.107640E-06  0.118E-02    2.03       1.8  T
   3    -44.9325805 -0.586869E-08  0.158E-03    2.03      13.2  T
   4    -44.9325805 -0.289311E-07  0.749E-04    2.03      27.8  T
   5    -44.9325805 -0.365041E-08  0.372E-04    2.03      56.1  T
     SCC iter.                  ...        0 min,  0.006 sec
     gradient                   ...        0 min,  0.003 sec
 * total energy  :   -44.4969243 Eh     change       -0.5709458E-05 Eh
   gradient norm :     0.0025591 Eh/α   predicted    -0.1090073E-04 (  90.92%)
   displ. norm   :     0.0169743 α      lambda       -0.1086200E-04
   maximum displ.:     0.0095955 α      in ANC's #2, #1, #5, ...

........................................................................
.............................. CYCLE   49 ..............................
........................................................................

 iter      E             dE          RMSdq      gap      omega  full diag
   1    -44.9330949 -0.449331E+02  0.665E-03    2.03       0.0  T
   2    -44.9330949 -0.583581E-07  0.382E-03    2.03       5.5  T
   3    -44.9330949  0.844660E-08  0.150E-03    2.03      13.9  T
   4    -44.9330950 -0.189867E-07  0.371E-04    2.03      56.2  T
   5    -44.9330950 -0.137517E-08  0.166E-04    2.03     126.0  T
     SCC iter.                  ...        0 min,  0.007 sec
     gradient                   ...        0 min,  0.003 sec
 * total energy  :   -44.4969318 Eh     change       -0.7506441E-05 Eh
   gradient norm :     0.0012226 Eh/α   predicted    -0.5433569E-05 ( -27.61%)
   displ. norm   :     0.0466461 α      lambda       -0.7046771E-05
   maximum displ.:     0.0222347 α      in ANC's #6, #2, #7, ...

........................................................................
.............................. CYCLE   50 ..............................
........................................................................

 iter      E             dE          RMSdq      gap      omega  full diag
   1    -44.9336398 -0.449336E+02  0.126E-02    2.03       0.0  T
   2    -44.9336401 -0.260044E-06  0.743E-03    2.03       2.8  T
   3    -44.9336401  0.285788E-07  0.372E-03    2.03       5.6  T
   4    -44.9336402 -0.992623E-07  0.726E-04    2.03      28.7  T
   5    -44.9336402 -0.774222E-08  0.296E-04    2.03      70.6  T
     SCC iter.                  ...        0 min,  0.006 sec
     gradient                   ...        0 min,  0.003 sec
 * total energy  :   -44.4969377 Eh     change       -0.5865257E-05 Eh
   gradient norm :     0.0005842 Eh/α   predicted    -0.3540340E-05 ( -39.64%)
   displ. norm   :     0.0471886 α      lambda       -0.2699796E-05
   maximum displ.:     0.0232551 α      in ANC's #2, #6, #5, ...

........................................................................
.............................. CYCLE   51 ..............................
........................................................................

 iter      E             dE          RMSdq      gap      omega  full diag
   1    -44.9335604 -0.449336E+02  0.108E-02    2.03       0.0  T
   2    -44.9335605 -0.476864E-07  0.644E-03    2.03       3.2  T
   3    -44.9335604  0.518413E-07  0.214E-03    2.04       9.7  T
   4    -44.9335605 -0.701801E-07  0.390E-04    2.04      53.4  T
   5    -44.9335605 -0.129692E-08  0.205E-04    2.04     101.5  T
     SCC iter.                  ...        0 min,  0.007 sec
     gradient                   ...        0 min,  0.003 sec
 * total energy  :   -44.4969407 Eh     change       -0.2982897E-05 Eh
   gradient norm :     0.0004747 Eh/α   predicted    -0.1351796E-05 ( -54.68%)
   displ. norm   :     0.0555922 α      lambda       -0.2853603E-05
   maximum displ.:     0.0289062 α      in ANC's #6, #7, #5, ...

   *** GEOMETRY OPTIMIZATION CONVERGED AFTER 51 ITERATIONS ***

------------------------------------------------------------------------
 total energy gain   :        -0.0140317 Eh       -8.8050 kcal/mol
 total RMSD          :         1.5408040 a0        0.8154 Å
 total power (kW/mol):        -0.7223574 (step)  -50.6467 (real)
------------------------------------------------------------------------

 ANCopt (total)                0 d,  0 h,  0 min,  0.727 sec
 optimizer setup                ...        0 min,  0.000 sec (  0.057%)
 model hessian                  ...        0 min,  0.026 sec (  3.548%)
 ANC generation                 ...        0 min,  0.002 sec (  0.262%)
 coordinate transformation      ...        0 min,  0.001 sec (  0.082%)
 single point calculation       ...        0 min,  0.671 sec ( 92.208%)
 optimization log               ...        0 min,  0.011 sec (  1.558%)
 hessian update                 ...        0 min,  0.005 sec (  0.751%)
 rational function              ...        0 min,  0.008 sec (  1.076%)

================
 final structure:
================
23
 xtb: 6.7.1 (edcfbbe)
C            3.77608045616566       -0.41025937681751        0.29105028299756
C            2.32376676653792       -0.58664616312056        0.47204110068643
O            1.84885953014279       -1.71684156095958        0.97994493628387
N            0.49033099047822       -1.65820905676247        1.08210251638533
C            0.10539851005259       -0.50570241034288        0.62185544587256
C           -1.28723455068530        0.04207431053412        0.76463558343417
O           -1.58003195066187        0.57376547093421        1.81587938482723
N           -2.09767849030022       -0.08609813850646       -0.29275482619464
C           -3.39885355210608        0.53877008645542       -0.26133353740150
C           -1.68329881046371       -0.63635510620231       -1.55751575299897
C            1.24955551316936        0.24488884585910        0.20281119602891
N            1.25118317519104        1.51451851934222       -0.41647651189305
O            2.31941442115768        2.07761748613218       -0.54216507368942
O            0.18507466649805        1.93864621866460       -0.81141793528597
H            3.96733281554355        0.34479615942077       -0.46740653249972
H            4.21675893807903       -0.06524747079016        1.22693541357744
H            4.23843081818740       -1.35799633659733        0.02651982392672
H           -4.17328166558747       -0.19688664810651       -0.48399063799513
H           -3.44500184802790        1.34744368916300       -0.99330222960993
H           -3.55585835843337        0.94510310123181        0.73555105561744
H           -0.84727295712133       -1.31947443231762       -1.42054338723928
H           -2.51412585020611       -1.19024360592502       -1.99562822005064
H           -1.38954656760849        0.16233641871369       -2.24576609477840

 Bond Distances (Angstroems)
 ---------------------------
C1-C2=1.4741         C1-H15=1.0872        C1-H16=1.0905        C1-H17=1.0872        C2-C1=1.4741         C2-O3=1.3270         
C2-C11=1.3849        O3-C2=1.3270         O3-N4=1.3636         N4-O3=1.3636         N4-C5=1.2993         C5-N4=1.2993         
C5-C6=1.5033         C5-C11=1.4311        C6-C5=1.5033         C6-O7=1.2139         C6-N8=1.3384         O7-C6=1.2139         
N8-C6=1.3384         N8-C9=1.4438         N8-C10=1.4402        C9-N8=1.4438         C9-H18=1.0911        C9-H19=1.0917        
C9-H20=1.0879        C10-N8=1.4402        C10-H21=1.0883       C10-H22=1.0904       C10-H23=1.0945       C11-C2=1.3849        
C11-C5=1.4311        C11-N12=1.4126       N12-C11=1.4126       N12-O13=1.2141       N12-O14=1.2134       O13-N12=1.2141       
O14-N12=1.2134       H15-C1=1.0872        H16-C1=1.0905        H17-C1=1.0872        H18-C9=1.0911        H19-C9=1.0917        
H20-C9=1.0879        H21-C10=1.0883       H22-C10=1.0904       H23-C10=1.0945       
 C  H  Rav=1.0899 sigma=0.0023  Rmin=1.0872  Rmax=1.0945     9
 C  C  Rav=1.4484 sigma=0.0447  Rmin=1.3849  Rmax=1.5033     4
 N  C  Rav=1.3869 sigma=0.0579  Rmin=1.2993  Rmax=1.4438     5
 O  C  Rav=1.2704 sigma=0.0565  Rmin=1.2139  Rmax=1.3270     2
 O  N  Rav=1.2637 sigma=0.0706  Rmin=1.2134  Rmax=1.3636     3

 selected bond angles (degree)
 --------------------
H15-C1-C2=110.00               H16-C1-C2=109.31               H16-C1-H15=107.93              H17-C1-C2=110.15               
H17-C1-H15=111.15              H17-C1-H16=108.23              O3-C2-C1=120.10                C11-C2-C1=131.95               
C11-C2-O3=107.95               N4-O3-C2=110.40                C5-N4-O3=107.86                C6-C5-N4=124.33                
C11-C5-N4=109.40               C11-C5-C6=125.26               O7-C6-C5=117.73                N8-C6-C5=116.81                
N8-C6-O7=125.46                C9-N8-C6=119.15                C10-N8-C6=123.79               C10-N8-C9=116.35               
H18-C9-N8=110.08               H19-C9-N8=110.13               H19-C9-H18=109.43              H20-C9-N8=108.16               
H20-C9-H18=109.66              H20-C9-H19=109.37              H21-C10-N8=110.51              H22-C10-N8=109.13              
H22-C10-H21=108.48             H23-C10-N8=110.53              H23-C10-H21=109.33             H23-C10-H22=108.82             

 selected dihedral angles (degree)
 ---------------------------------
O3-C2-C1-H15=157.29           O3-C2-C1-H16=275.64           O3-C2-C1-H17= 34.43           C11-C2-C1-H15=337.33          
C11-C2-C1-H16= 95.67          C11-C2-C1-H17=214.46          N4-O3-C2-C1=178.91            N4-O3-C2-C11=358.89           
C5-N4-O3-C2=  0.99            C6-C5-N4-O3=190.54            C11-C5-N4-O3=359.55           O7-C6-C5-N4= 81.41            
O7-C6-C5-C11=274.12           N8-C6-C5-N4=260.64            N8-C6-C5-C11= 93.35           C9-N8-C6-C5=186.16            
C9-N8-C6-O7=  5.33            C10-N8-C6-C5=356.11           C10-N8-C6-O7=175.28           H18-C9-N8-C6=233.46           
H18-C9-N8-C10= 62.78          H19-C9-N8-C6=112.72           H19-C9-N8-C10=302.04          H20-C9-N8-C6=353.26           
H20-C9-N8-C10=182.57          H21-C10-N8-C6= 26.05          H21-C10-N8-C9=196.25          H22-C10-N8-C6=145.26          
H22-C10-N8-C9=315.47          H23-C10-N8-C6=264.89          H23-C10-N8-C9= 75.09          
           -------------------------------------------------
          |                Final Singlepoint                |
           -------------------------------------------------

          ...................................................
          :                      SETUP                      :
          :.................................................:
          :  # basis functions                  65          :
          :  # atomic orbitals                  65          :
          :  # shells                           37          :
          :  # electrons                        76          :
          :  max. iterations                   250          :
          :  Hamiltonian                  GFN2-xTB          :
          :  restarted?                      false          :
          :  GBSA solvation                  false          :
          :  PC potential                    false          :
          :  electronic temp.          300.0000000     K    :
          :  accuracy                    1.0000000          :
          :  -> integral cutoff          0.2500000E+02      :
          :  -> integral neglect         0.1000000E-07      :
          :  -> SCF convergence          0.1000000E-05 Eh   :
          :  -> wf. convergence          0.1000000E-03 e    :
          :  Broyden damping             0.4000000          :
          :  net charge                          0          :
          :  unpaired electrons                  0          :
          ...................................................

 iter      E             dE          RMSdq      gap      omega  full diag
   1    -44.9335605 -0.449336E+02  0.610E-05    2.04       0.0  T
   2    -44.9335605 -0.148219E-10  0.373E-05    2.04     558.4  T
   3    -44.9335605 -0.500222E-11  0.239E-05    2.04     870.8  T

   *** convergence criteria satisfied after 3 iterations ***

         #    Occupation            Energy/Eh            Energy/eV
      -------------------------------------------------------------
         1        2.0000           -0.8024357             -21.8354
       ...           ...                  ...                  ...
        32        2.0000           -0.4782134             -13.0128
        33        2.0000           -0.4671781             -12.7126
        34        2.0000           -0.4593169             -12.4987
        35        2.0000           -0.4583804             -12.4732
        36        2.0000           -0.4419611             -12.0264
        37        2.0000           -0.4152738             -11.3002
        38        2.0000           -0.4053190             -11.0293 (HOMO)
        39                         -0.3305320              -8.9942 (LUMO)
        40                         -0.2809726              -7.6457
        41                         -0.2252511              -6.1294
        42                         -0.2060177              -5.6060
        43                         -0.0684931              -1.8638
       ...                                ...                  ...
        65                          0.6217159              16.9178
      -------------------------------------------------------------
                  HL-Gap            0.0747871 Eh            2.0351 eV
             Fermi-level           -0.3679255 Eh          -10.0118 eV

 SCC (total)                   0 d,  0 h,  0 min,  0.010 sec
 SCC setup                      ...        0 min,  0.000 sec (  2.309%)
 Dispersion                     ...        0 min,  0.000 sec (  4.402%)
 classical contributions        ...        0 min,  0.000 sec (  1.078%)
 integral evaluation            ...        0 min,  0.001 sec ( 12.160%)
 iterations                     ...        0 min,  0.004 sec ( 46.137%)
 molecular gradient             ...        0 min,  0.003 sec ( 30.668%)
 printout                       ...        0 min,  0.000 sec (  2.991%)

         :::::::::::::::::::::::::::::::::::::::::::::::::::::
         ::                     SUMMARY                     ::
         :::::::::::::::::::::::::::::::::::::::::::::::::::::
         :: total energy             -44.496940684657 Eh    ::
         :: gradient norm              0.000473724515 Eh/a0 ::
         :: HOMO-LUMO gap              2.035059938816 eV    ::
         ::.................................................::
         :: SCC energy               -44.933441582374 Eh    ::
         :: -> isotropic ES            0.092722534475 Eh    ::
         :: -> anisotropic ES          0.011334383033 Eh    ::
         :: -> anisotropic XC          0.008992130313 Eh    ::
         :: -> dispersion             -0.021327754339 Eh    ::
         :: repulsion energy           0.436500897717 Eh    ::
         :: add. restraining           0.000000000000 Eh    ::
         :: total charge               0.000000000000 e     ::
         :::::::::::::::::::::::::::::::::::::::::::::::::::::

           -------------------------------------------------
          |                Property Printout                |
           -------------------------------------------------

    * Orbital Energies and Occupations

         #    Occupation            Energy/Eh            Energy/eV
      -------------------------------------------------------------
         1        2.0000           -0.8024357             -21.8354
       ...           ...                  ...                  ...
        26        2.0000           -0.5125359             -13.9468
        27        2.0000           -0.5068112             -13.7910
        28        2.0000           -0.5024575             -13.6726
        29        2.0000           -0.4989145             -13.5762
        30        2.0000           -0.4914826             -13.3739
        31        2.0000           -0.4836728             -13.1614
        32        2.0000           -0.4782134             -13.0128
        33        2.0000           -0.4671781             -12.7126
        34        2.0000           -0.4593169             -12.4987
        35        2.0000           -0.4583804             -12.4732
        36        2.0000           -0.4419611             -12.0264
        37        2.0000           -0.4152738             -11.3002
        38        2.0000           -0.4053190             -11.0293 (HOMO)
        39                         -0.3305320              -8.9942 (LUMO)
        40                         -0.2809726              -7.6457
        41                         -0.2252511              -6.1294
        42                         -0.2060177              -5.6060
        43                         -0.0684931              -1.8638
        44                         -0.0215300              -0.5859
        45                         -0.0038513              -0.1048
        46                          0.0486333               1.3234
        47                          0.1002366               2.7276
        48                          0.1148757               3.1259
        49                          0.1174037               3.1947
       ...                                ...                  ...
        65                          0.6217159              16.9178
      -------------------------------------------------------------
                  HL-Gap            0.0747871 Eh            2.0351 eV
             Fermi-level           -0.3679255 Eh          -10.0118 eV

     #   Z          covCN         q      C6AA      α(0)
     1   6 C        3.753    -0.132    23.101     6.854
     2   6 C        2.997     0.160    24.536     8.125
     3   8 O        1.821    -0.094    15.728     5.356
     4   7 N        1.955    -0.115    24.247     7.302
     5   6 C        3.018     0.067    26.472     8.440
     6   6 C        2.769     0.273    22.378     7.747
     7   8 O        0.859    -0.413    21.938     6.280
     8   7 N        2.732    -0.061    22.423     7.033
     9   6 C        3.706    -0.056    21.737     6.665
    10   6 C        3.698    -0.055    21.732     6.668
    11   6 C        2.960    -0.044    29.082     8.845
    12   7 N        2.756     0.550    13.478     5.453
    13   8 O        0.932    -0.391    21.462     6.213
    14   8 O        0.933    -0.386    21.371     6.200
    15   1 H        0.925     0.103     1.759     2.074
    16   1 H        0.924     0.102     1.770     2.080
    17   1 H        0.925     0.088     1.898     2.154
    18   1 H        0.924     0.057     2.239     2.340
    19   1 H        0.924     0.064     2.158     2.297
    20   1 H        0.925     0.093     1.853     2.129
    21   1 H        0.925     0.056     2.247     2.344
    22   1 H        0.924     0.066     2.125     2.280
    23   1 H        0.924     0.068     2.112     2.273

 Mol. C6AA /au·bohr⁶  :       6106.776281
 Mol. C8AA /au·bohr⁸  :     137816.057629
 Mol. α(0) /au        :        117.151424


Wiberg/Mayer (AO) data.
largest (>0.10) Wiberg bond orders for each atom

 ---------------------------------------------------------------------------
     #   Z sym  total        # sym  WBO       # sym  WBO       # sym  WBO
 ---------------------------------------------------------------------------
     1   6 C    3.979 --     2 C    1.046    17 H    0.967    15 H    0.964
                            16 H    0.939
     2   6 C    3.928 --    11 C    1.434     3 O    1.211     1 C    1.046
                             4 N    0.132
     3   8 O    2.489 --     2 C    1.211     4 N    1.067
     4   7 N    2.954 --     5 C    1.614     3 O    1.067     2 C    0.132
     5   6 C    3.967 --     4 N    1.614    11 C    1.206     6 C    0.932
     6   6 C    3.965 --     7 O    1.658     8 N    1.285     5 C    0.932
     7   8 O    2.039 --     6 C    1.658     8 N    0.216
     8   7 N    3.534 --     6 C    1.285    10 C    1.002     9 C    0.992
                             7 O    0.216
     9   6 C    3.958 --     8 N    0.992    18 H    0.976    19 H    0.974
                            20 H    0.973
    10   6 C    3.969 --     8 N    1.002    22 H    0.977    21 H    0.976
                            23 H    0.971
    11   6 C    3.943 --     2 C    1.434     5 C    1.206    12 N    1.008
    12   7 N    3.918 --    14 O    1.440    13 O    1.434    11 C    1.008
    13   8 O    1.925 --    12 N    1.434    14 O    0.354
    14   8 O    1.931 --    12 N    1.440    13 O    0.354
    15   1 H    0.989 --     1 C    0.964
    16   1 H    0.990 --     1 C    0.939
    17   1 H    0.992 --     1 C    0.967
    18   1 H    0.997 --     9 C    0.976
    19   1 H    0.996 --     9 C    0.974
    20   1 H    0.991 --     9 C    0.973
    21   1 H    0.997 --    10 C    0.976
    22   1 H    0.995 --    10 C    0.977
    23   1 H    0.995 --    10 C    0.971
 ---------------------------------------------------------------------------

Topologies differ in total number of bonds
Writing topology from bond orders to xtbtopo.mol

molecular dipole:
                 x           y           z       tot (Debye)
 q only:        0.254      -1.411      -1.095
   full:        0.483      -1.250      -1.325       4.789
molecular quadrupole (traceless):
                xx          xy          yy          xz          yz          zz
 q only:       19.882      -5.003     -13.299       9.564       3.952      -6.583
  q+dip:       18.682      -4.917     -13.398      11.456       5.227      -5.285
   full:       18.594      -4.772     -14.041      11.131       6.132      -4.553

           -------------------------------------------------
          |                Geometry Summary                 |
           -------------------------------------------------

      molecular mass/u    :      199.1643474
   center of mass at/Å    :        0.2454705       0.1287235       0.1458279
  moments of inertia/u·Å² :        0.4314133E+03   0.9243578E+03   0.1128262E+04
rotational constants/cm⁻¹ :        0.3907537E-01   0.1823713E-01   0.1494123E-01

 * 22 selected distances

     #   Z          #   Z                                           value/Å
     1   6 C        2   6 C                                       1.4741389 (max)
     2   6 C        3   8 O                                       1.3269684
     3   8 O        4   7 N                                       1.3636253
     4   7 N        5   6 C                                       1.2993353
     6   6 C        7   8 O                                       1.2138944
     6   6 C        8   7 N                                       1.3384029
     8   7 N        9   6 C                                       1.4437813
     8   7 N       10   6 C                                       1.4401784
     2   6 C       11   6 C                                       1.3848702
     5   6 C       11   6 C                                       1.4311118
    11   6 C       12   7 N                                       1.4126145
    12   7 N       13   8 O                                       1.2140825
    12   7 N       14   8 O                                       1.2134458
     1   6 C       15   1 H                                       1.0871722 (min)
     1   6 C       16   1 H                                       1.0904641
     1   6 C       17   1 H                                       1.0871751
     9   6 C       18   1 H                                       1.0911032
     9   6 C       19   1 H                                       1.0917239
     9   6 C       20   1 H                                       1.0879045
    10   6 C       21   1 H                                       1.0882798
    10   6 C       22   1 H                                       1.0904168
    10   6 C       23   1 H                                       1.0944804

 * 5 distinct bonds (by element types)

   Z      Z             #   av. dist./Å        max./Å        min./Å
   1 H    6 C           9     1.0898578     1.0944804     1.0871722
   6 C    6 C           3     1.4300403     1.4741389     1.3848702
   6 C    7 N           5     1.3868625     1.4437813     1.2993353
   6 C    8 O           2     1.2704314     1.3269684     1.2138944
   7 N    8 O           3     1.2637179     1.3636253     1.2134458


optimized geometry written to: xtbopt.xyz


           -------------------------------------------------
          | TOTAL ENERGY              -44.496940684657 Eh   |
          | GRADIENT NORM               0.000473724515 Eh/α |
          | HOMO-LUMO GAP               2.035059938816 eV   |
           -------------------------------------------------

------------------------------------------------------------------------
 * finished run on 2026/08/28 at 15:38:54.356     
------------------------------------------------------------------------
 total:
 * wall-time:     0 d,  0 h,  0 min,  6.984 sec
 *  cpu-time:     0 d,  0 h,  0 min,  5.281 sec
 * ratio c/w:     0.756 speedup
 SCF:
 * wall-time:     0 d,  0 h,  0 min,  4.419 sec
 *  cpu-time:     0 d,  0 h,  0 min,  0.234 sec
 * ratio c/w:     0.053 speedup
 ANC optimizer:
 * wall-time:     0 d,  0 h,  0 min,  0.741 sec
 *  cpu-time:     0 d,  0 h,  0 min,  5.000 sec
 * ratio c/w:     6.748 speedup

