      -----------------------------------------------------------      
     |                   =====================                   |     
     |                           x T B                           |     
     |                   =====================                   |     
     |                         S. Grimme                         |     
     |          Mulliken Center for Theoretical Chemistry        |     
     |                    University of Bonn                     |     
      -----------------------------------------------------------      

   * xtb version 6.7.1 (edcfbbe) compiled by 'VssAdministrator@runnervm171ch' on 2026-06-10

   xtb is free software: you can redistribute it and/or modify it under
   the terms of the GNU Lesser General Public License as published by
   the Free Software Foundation, either version 3 of the License, or
   (at your option) any later version.
   
   xtb is distributed in the hope that it will be useful,
   but WITHOUT ANY WARRANTY; without even the implied warranty of
   MERCHANTABILITY or FITNESS FOR A PARTICULAR PURPOSE.  See the
   GNU Lesser General Public License for more details.
   
   Cite this work as:
   * C. Bannwarth, E. Caldeweyher, S. Ehlert, A. Hansen, P. Pracht,
     J. Seibert, S. Spicher, S. Grimme, WIREs Comput. Mol. Sci., 2020, 11,
     e01493. DOI: 10.1002/wcms.1493
   
   for GFN2-xTB:
   * C. Bannwarth, S. Ehlert and S. Grimme., J. Chem. Theory Comput., 2019,
     15, 1652-1671. DOI: 10.1021/acs.jctc.8b01176
   for GFN1-xTB:
   * S. Grimme, C. Bannwarth, P. Shushkov, J. Chem. Theory Comput., 2017,
     13, 1989-2009. DOI: 10.1021/acs.jctc.7b00118
   for GFN0-xTB:
   * P. Pracht, E. Caldeweyher, S. Ehlert, S. Grimme, ChemRxiv, 2019, preprint.
     DOI: 10.26434/chemrxiv.8326202.v1
   for GFN-FF:
   * S. Spicher and S. Grimme, Angew. Chem. Int. Ed., 2020, 59, 15665-15673.
     DOI: 10.1002/anie.202004239
   
   for ALPB and GBSA implicit solvation:
   * S. Ehlert, M. Stahn, S. Spicher, S. Grimme, J. Chem. Theory Comput.,
     2021, 17, 4250-4261. DOI: 10.1021/acs.jctc.1c00471
   
   for ddCOSMO and CPCM-X implicit solvation:
   * M. Stahn, S. Ehlert, S. Grimme, J. Phys. Chem. A,
     2023, XX, XXXX-XXXX. DOI: 10.1021/acs.jpca.3c04382
   
   for DFT-D4:
   * E. Caldeweyher, C. Bannwarth and S. Grimme, J. Chem. Phys., 2017,
     147, 034112. DOI: 10.1063/1.4993215
   * E. Caldeweyher, S. Ehlert, A. Hansen, H. Neugebauer, S. Spicher,
     C. Bannwarth and S. Grimme, J. Chem. Phys., 2019, 150, 154122.
     DOI: 10.1063/1.5090222
   * E. Caldeweyher, J.-M. Mewes, S. Ehlert and S. Grimme, Phys. Chem. Chem. Phys.
     2020, 22, 8499-8512. DOI: 10.1039/D0CP00502A
   
   for sTDA-xTB:
   * S. Grimme and C. Bannwarth, J. Chem. Phys., 2016, 145, 054103.
     DOI: 10.1063/1.4959605
   
   in the mass-spec context:
   * V. Asgeirsson, C. Bauer and S. Grimme, Chem. Sci., 2017, 8, 4879.
     DOI: 10.1039/c7sc00601b
   * J. Koopman and S. Grimme, ACS Omega 2019, 4, 12, 15120-15133.
     DOI: 10.1021/acsomega.9b02011
   
   for metadynamics refer to:
   * S. Grimme, J. Chem. Theory Comput., 2019, 155, 2847-2862
     DOI: 10.1021/acs.jctc.9b00143
   
   for SPH calculations refer to:
   * S. Spicher and S. Grimme, J. Chem. Theory Comput., 2021, 17, 1701-1714
     DOI: 10.1021/acs.jctc.0c01306
   
   for ONIOM refer to:
   * C. Plett, A. Katbashev, S. Ehlert, S. Grimme, M. Bursch,
     Phys. Chem. Chem. Phys., 2023, 25, 17860-17868. DOI: 10.1039/D3CP02178E
   
   for DIPRO refer to:
   * J. Kohn, N. Gildemeister, S. Grimme, D. Fazzi, A. Hansen,
     J. Chem. Phys., 2023, just accepted.
   
   for PTB refer to:
   * S. Grimme, M. Mueller, A. Hansen, J. Chem. Phys., 2023, 158, 124111.
     DOI: 10.1063/5.0137838
   
   with help from (in alphabetical order)
   P. Atkinson, C. Bannwarth, F. Bohle, G. Brandenburg, E. Caldeweyher
   M. Checinski, S. Dohm, S. Ehlert, S. Ehrlich, I. Gerasimov, C. Hölzer
   A. Katbashev, J. Kohn, J. Koopman, C. Lavigne, S. Lehtola, F. März, M. Müller,
   F. Musil, H. Neugebauer, J. Pisarek, C. Plett, P. Pracht, F. Pultar,
   J. Seibert, P. Shushkov, S. Spicher, M. Stahn, M. Steiner, T. Strunk,
   J. Stückrath, T. Rose, and J. Unsleber
   
 * started run on 2026/08/28 at 15:40:06.654     
   ID    Z sym.   atoms
    1    6 C      1, 2, 5, 6, 9, 10, 12-16, 18-23, 25-30
    2    8 O      3, 7, 17, 32, 33
    3    7 N      4, 8, 11, 24, 31
    4    1 H      34-58

           -------------------------------------------------
          |                Calculation Setup                |
           -------------------------------------------------

          program call               : C:\Users\Christian\Miniconda3\Library\bin\xtb.exe TOP1_OH_NHMe.xyz --gfn 2 --opt
          coordinate file            : TOP1_OH_NHMe.xyz
          omp threads                :                    12


           -------------------------------------------------
          |                 G F N 2 - x T B                 |
           -------------------------------------------------

        Reference                      10.1021/acs.jctc.8b01176
      * Hamiltonian:
        H0-scaling (s, p, d)           1.850000    2.230000    2.230000
        zeta-weighting                 0.500000
      * Dispersion:
        s8                             2.700000
        a1                             0.520000
        a2                             5.000000
        s9                             5.000000
      * Repulsion:
        kExp                           1.500000    1.000000
        rExp                           1.000000
      * Coulomb:
        alpha                          2.000000
        third order                    shell-resolved
        anisotropic                    true
        a3                             3.000000
        a5                             4.000000
        cn-shift                       1.200000
        cn-exp                         4.000000
        max-rad                        5.000000


          ...................................................
          :                      SETUP                      :
          :.................................................:
          :  # basis functions                 157          :
          :  # atomic orbitals                 157          :
          :  # shells                           91          :
          :  # electrons                       172          :
          :  max. iterations                   250          :
          :  Hamiltonian                  GFN2-xTB          :
          :  restarted?                      false          :
          :  GBSA solvation                  false          :
          :  PC potential                    false          :
          :  electronic temp.          300.0000000     K    :
          :  accuracy                    1.0000000          :
          :  -> integral cutoff          0.2500000E+02      :
          :  -> integral neglect         0.1000000E-07      :
          :  -> SCF convergence          0.1000000E-05 Eh   :
          :  -> wf. convergence          0.1000000E-03 e    :
          :  Broyden damping             0.4000000          :
          :  net charge                          0          :
          :  unpaired electrons                  0          :
          ...................................................

 iter      E             dE          RMSdq      gap      omega  full diag
   1    -97.7348333 -0.977348E+02  0.433E+00    2.97       0.0  T
   2    -97.9568527 -0.222019E+00  0.242E+00    1.96       1.0  T
   3    -97.9641984 -0.734570E-02  0.127E+00    1.12       1.0  T
   4    -97.9719351 -0.773675E-02  0.562E-01    0.61       1.0  T
   5    -97.9819330 -0.999788E-02  0.113E-01    0.45       1.0  T
   6    -97.9822640 -0.331010E-03  0.538E-02    0.46       1.0  T
   7    -97.9822888 -0.248302E-04  0.210E-02    0.51       1.0  T
   8    -97.9822981 -0.928354E-05  0.913E-03    0.51       1.4  T
   9    -97.9823002 -0.203750E-05  0.362E-03    0.51       3.6  T
  10    -97.9823004 -0.233742E-06  0.145E-03    0.51       9.0  T
  11    -97.9823004 -0.494667E-07  0.652E-04    0.51      20.1  T
  12    -97.9823004 -0.112731E-07  0.292E-04    0.51      45.0  T

   *** convergence criteria satisfied after 12 iterations ***

         #    Occupation            Energy/Eh            Energy/eV
      -------------------------------------------------------------
         1        2.0000           -0.7936508             -21.5963
       ...           ...                  ...                  ...
        80        2.0000           -0.4119418             -11.2095
        81        2.0000           -0.4050752             -11.0227
        82        2.0000           -0.3957001             -10.7675
        83        2.0000           -0.3931624             -10.6985
        84        2.0000           -0.3808093             -10.3623
        85        2.0000           -0.3562099              -9.6930
        86        1.9999           -0.3515639              -9.5665 (HOMO)
        87        0.0001           -0.3329104              -9.0590 (LUMO)
        88                         -0.2999564              -8.1622
        89                         -0.2435957              -6.6286
        90                         -0.2291015              -6.2342
        91                         -0.2228502              -6.0641
       ...                                ...                  ...
       157                          0.6273492              17.0710
      -------------------------------------------------------------
                  HL-Gap            0.0186535 Eh            0.5076 eV
             Fermi-level           -0.3422336 Eh           -9.3126 eV

 SCC (total)                   0 d,  0 h,  0 min,  0.059 sec
 SCC setup                      ...        0 min,  0.000 sec (  0.596%)
 Dispersion                     ...        0 min,  0.002 sec (  3.045%)
 classical contributions        ...        0 min,  0.000 sec (  0.229%)
 integral evaluation            ...        0 min,  0.003 sec (  5.801%)
 iterations                     ...        0 min,  0.041 sec ( 69.510%)
 molecular gradient             ...        0 min,  0.012 sec ( 20.066%)
 printout                       ...        0 min,  0.000 sec (  0.712%)

         :::::::::::::::::::::::::::::::::::::::::::::::::::::
         ::                     SUMMARY                     ::
         :::::::::::::::::::::::::::::::::::::::::::::::::::::
         :: total energy             -96.818944100281 Eh    ::
         :: gradient norm              0.124428825323 Eh/a0 ::
         :: HOMO-LUMO gap              0.507587748019 eV    ::
         ::.................................................::
         :: SCC energy               -97.981982237115 Eh    ::
         :: -> isotropic ES            0.126425872327 Eh    ::
         :: -> anisotropic ES          0.020710787895 Eh    ::
         :: -> anisotropic XC          0.039952172648 Eh    ::
         :: -> dispersion             -0.065644193347 Eh    ::
         :: repulsion energy           1.163038136834 Eh    ::
         :: add. restraining           0.000000000000 Eh    ::
         :: total charge               0.000000000004 e     ::
         :::::::::::::::::::::::::::::::::::::::::::::::::::::

      ----------------------------------------------------------- 
     |                   =====================                   |
     |                        A N C O P T                        |
     |                   =====================                   |
     |               Approximate Normal Coordinate               |
     |                Rational Function Optimizer                |
      ----------------------------------------------------------- 
      ----------------------------------------------------------- 
     |                   =====================                   |
     |                        A N C O P T                        |
     |                   =====================                   |
     |               Approximate Normal Coordinate               |
     |                Rational Function Optimizer                |
      ----------------------------------------------------------- 

          ...................................................
          :                      SETUP                      :
          :.................................................:
          :   optimization level            normal          :
          :   max. optcycles                   200          :
          :   ANC micro-cycles                  20          :
          :   degrees of freedom               168          :
          :.................................................:
          :   RF solver                   davidson          :
          :   write xtbopt.log                true          :
          :   linear?                        false          :
          :   energy convergence         0.5000000E-05 Eh   :
          :   grad. convergence          0.1000000E-02 Eh/α :
          :   maxmium RF displ.          1.0000000          :
          :   Hlow (freq-cutoff)         0.1000000E-01      :
          :   Hmax (freq-cutoff)         5.0000000          :
          :   S6 in model hess.         20.0000000          :
          ...................................................

generating ANC from exact Hessian ...
Using Lindh-Hessian (1995)
 Shifting diagonal of input Hessian by    9.8898913671263758E-003
 Lowest  eigenvalues of input Hessian
    0.000000    0.000000    0.000000    0.000000    0.000000    0.000000
    0.010000    0.010095    0.010209    0.010285    0.010745    0.010906
    0.011053    0.011066    0.011217    0.012387    0.013444    0.014445
 Highest eigenvalues
    1.984050    2.014563    2.048905    2.182579    2.250581    2.525379


........................................................................
.............................. CYCLE    1 ..............................
........................................................................

 iter      E             dE          RMSdq      gap      omega  full diag
   1    -97.9823004 -0.979823E+02  0.120E-04    0.51       0.0  T
   2    -97.9823004 -0.149612E-09  0.781E-05    0.51     168.1  T
   3    -97.9823004 -0.598561E-10  0.496E-05    0.51     264.9  T
     SCC iter.                  ...        0 min,  0.011 sec
     gradient                   ...        0 min,  0.011 sec
 * total energy  :   -96.8189441 Eh     change       -0.1307782E-08 Eh
   gradient norm :     0.1244285 Eh/α   predicted     0.0000000E+00 (-100.00%)
   displ. norm   :     0.3545851 α      lambda       -0.2061239E-01
   maximum displ.:     0.1089707 α      in ANC's #17, #16, #69, ...

........................................................................
.............................. CYCLE    2 ..............................
........................................................................

 iter      E             dE          RMSdq      gap      omega  full diag
   1    -98.0434658 -0.980435E+02  0.192E-01    0.76       0.0  T
   2    -98.0437994 -0.333644E-03  0.120E-01    0.81       1.0  T
   3    -98.0438219 -0.225069E-04  0.591E-02    0.79       1.0  T
   4    -98.0438671 -0.452301E-04  0.169E-02    0.80       1.0  T
   5    -98.0438755 -0.835983E-05  0.598E-03    0.79       2.2  T
   6    -98.0438769 -0.139365E-05  0.287E-03    0.79       4.6  T
   7    -98.0438769 -0.273738E-07  0.936E-04    0.79      14.0  T
   8    -98.0438770 -0.298794E-07  0.356E-04    0.79      36.9  T
     SCC iter.                  ...        0 min,  0.026 sec
     gradient                   ...        0 min,  0.011 sec
 * total energy  :   -96.8334081 Eh     change       -0.1446403E-01 Eh
   gradient norm :     0.0519590 Eh/α   predicted    -0.1161839E-01 ( -19.67%)
   displ. norm   :     0.4007037 α      lambda       -0.7368496E-02
   maximum displ.:     0.1438542 α      in ANC's #17, #16, #13, ...

........................................................................
.............................. CYCLE    3 ..............................
........................................................................

 iter      E             dE          RMSdq      gap      omega  full diag
   1    -98.0790509 -0.980791E+02  0.135E-01    0.88       0.0  T
   2    -98.0792926 -0.241715E-03  0.881E-02    0.93       1.0  T
   3    -98.0793397 -0.471165E-04  0.456E-02    0.92       1.0  T
   4    -98.0793511 -0.114136E-04  0.132E-02    0.93       1.0  T
   5    -98.0793572 -0.602638E-05  0.414E-03    0.93       3.2  T
   6    -98.0793577 -0.530023E-06  0.189E-03    0.93       6.9  T
   7    -98.0793577 -0.118044E-07  0.737E-04    0.93      17.8  T
   8    -98.0793577 -0.111734E-07  0.247E-04    0.93      53.1  T
     SCC iter.                  ...        0 min,  0.035 sec
     gradient                   ...        0 min,  0.012 sec
 * total energy  :   -96.8379071 Eh     change       -0.4498936E-02 Eh
   gradient norm :     0.0158510 Eh/α   predicted    -0.4279626E-02 (  -4.87%)
   displ. norm   :     0.3649394 α      lambda       -0.2369567E-02
   maximum displ.:     0.1358532 α      in ANC's #16, #17, #13, ...

........................................................................
.............................. CYCLE    4 ..............................
........................................................................

 iter      E             dE          RMSdq      gap      omega  full diag
   1    -98.0869792 -0.980870E+02  0.858E-02    0.88       0.0  T
   2    -98.0870094 -0.301491E-04  0.513E-02    0.91       1.0  T
   3    -98.0870014  0.794858E-05  0.226E-02    0.91       1.0  T
   4    -98.0870170 -0.155521E-04  0.455E-03    0.91       2.9  T
   5    -98.0870176 -0.665129E-06  0.194E-03    0.91       6.8  T
   6    -98.0870177 -0.514073E-07  0.977E-04    0.91      13.4  T
   7    -98.0870177 -0.100672E-07  0.297E-04    0.91      44.2  T
     SCC iter.                  ...        0 min,  0.024 sec
     gradient                   ...        0 min,  0.012 sec
 * total energy  :   -96.8393956 Eh     change       -0.1488501E-02 Eh
   gradient norm :     0.0173975 Eh/α   predicted    -0.1342634E-02 (  -9.80%)
   displ. norm   :     0.4426061 α      lambda       -0.2070865E-02
   maximum displ.:     0.1511102 α      in ANC's #12, #14, #16, ...

........................................................................
.............................. CYCLE    5 ..............................
........................................................................

 iter      E             dE          RMSdq      gap      omega  full diag
   1    -98.0889003 -0.980889E+02  0.900E-02    0.83       0.0  T
   2    -98.0889302 -0.299124E-04  0.528E-02    0.85       1.0  T
   3    -98.0889235  0.675290E-05  0.226E-02    0.85       1.0  T
   4    -98.0889374 -0.139079E-04  0.480E-03    0.86       2.7  T
   5    -98.0889381 -0.694944E-06  0.234E-03    0.86       5.6  T
   6    -98.0889381 -0.451433E-07  0.103E-03    0.86      12.8  T
   7    -98.0889381 -0.157726E-07  0.326E-04    0.86      40.3  T
   8    -98.0889381 -0.245242E-08  0.164E-04    0.86      79.8  T
     SCC iter.                  ...        0 min,  0.029 sec
     gradient                   ...        0 min,  0.013 sec
 * total energy  :   -96.8406121 Eh     change       -0.1216577E-02 Eh
   gradient norm :     0.0144518 Eh/α   predicted    -0.1238276E-02 (   1.78%)
   displ. norm   :     0.2968897 α      lambda       -0.8708534E-03
   maximum displ.:     0.1176932 α      in ANC's #8, #14, #16, ...

........................................................................
.............................. CYCLE    6 ..............................
........................................................................

 iter      E             dE          RMSdq      gap      omega  full diag
   1    -98.0893393 -0.980893E+02  0.582E-02    0.81       0.0  T
   2    -98.0893499 -0.106782E-04  0.351E-02    0.81       1.0  T
   3    -98.0893464  0.354060E-05  0.143E-02    0.82       1.0  T
   4    -98.0893533 -0.688989E-05  0.301E-03    0.81       4.4  T
   5    -98.0893535 -0.200514E-06  0.170E-03    0.81       7.7  T
   6    -98.0893535 -0.421167E-07  0.739E-04    0.81      17.8  T
   7    -98.0893535 -0.118352E-07  0.258E-04    0.81      50.9  T
     SCC iter.                  ...        0 min,  0.026 sec
     gradient                   ...        0 min,  0.011 sec
 * total energy  :   -96.8412859 Eh     change       -0.6738046E-03 Eh
   gradient norm :     0.0102635 Eh/α   predicted    -0.4738584E-03 ( -29.67%)
   displ. norm   :     0.4156265 α      lambda       -0.9595421E-03
   maximum displ.:     0.1705326 α      in ANC's #8, #11, #20, ...

........................................................................
.............................. CYCLE    7 ..............................
........................................................................

 iter      E             dE          RMSdq      gap      omega  full diag
   1    -98.0902426 -0.980902E+02  0.750E-02    0.78       0.0  T
   2    -98.0902560 -0.134092E-04  0.452E-02    0.78       1.0  T
   3    -98.0902486  0.748490E-05  0.185E-02    0.79       1.0  T
   4    -98.0902614 -0.128623E-04  0.359E-03    0.78       3.7  T
   5    -98.0902615 -0.115919E-06  0.208E-03    0.78       6.3  T
   6    -98.0902616 -0.624105E-07  0.822E-04    0.78      16.0  T
   7    -98.0902616 -0.197871E-07  0.310E-04    0.78      42.4  T
     SCC iter.                  ...        0 min,  0.023 sec
     gradient                   ...        0 min,  0.013 sec
 * total energy  :   -96.8419793 Eh     change       -0.6933092E-03 Eh
   gradient norm :     0.0097951 Eh/α   predicted    -0.5626554E-03 ( -18.84%)
   displ. norm   :     0.3625179 α      lambda       -0.5804533E-03
   maximum displ.:     0.1486329 α      in ANC's #8, #11, #20, ...

........................................................................
.............................. CYCLE    8 ..............................
........................................................................

 iter      E             dE          RMSdq      gap      omega  full diag
   1    -98.0919500 -0.980920E+02  0.627E-02    0.77       0.0  T
   2    -98.0919564 -0.640584E-05  0.366E-02    0.77       1.0  T
   3    -98.0919526  0.385770E-05  0.130E-02    0.78       1.0  T
   4    -98.0919590 -0.643023E-05  0.298E-03    0.78       4.4  T
   5    -98.0919591 -0.681082E-07  0.149E-03    0.78       8.8  T
   6    -98.0919591 -0.185181E-07  0.612E-04    0.78      21.5  T
   7    -98.0919591 -0.965566E-08  0.231E-04    0.78      56.9  T
     SCC iter.                  ...        0 min,  0.032 sec
     gradient                   ...        0 min,  0.013 sec
 * total energy  :   -96.8424013 Eh     change       -0.4220116E-03 Eh
   gradient norm :     0.0088938 Eh/α   predicted    -0.3284100E-03 ( -22.18%)
   displ. norm   :     0.2978746 α      lambda       -0.3724423E-03
   maximum displ.:     0.1151954 α      in ANC's #8, #11, #9, ...

........................................................................
.............................. CYCLE    9 ..............................
........................................................................

 iter      E             dE          RMSdq      gap      omega  full diag
   1    -98.0940591 -0.980941E+02  0.533E-02    0.77       0.0  T
   2    -98.0940637 -0.464274E-05  0.310E-02    0.78       1.0  T
   3    -98.0940607  0.297587E-05  0.106E-02    0.78       1.2  T
   4    -98.0940655 -0.479304E-05  0.270E-03    0.78       4.9  T
   5    -98.0940657 -0.111910E-06  0.140E-03    0.78       9.4  T
   6    -98.0940657 -0.217452E-07  0.458E-04    0.78      28.7  T
   7    -98.0940657 -0.279408E-08  0.180E-04    0.78      73.0  T
     SCC iter.                  ...        0 min,  0.023 sec
     gradient                   ...        0 min,  0.011 sec
 * total energy  :   -96.8426645 Eh     change       -0.2632585E-03 Eh
   gradient norm :     0.0061827 Eh/α   predicted    -0.2027710E-03 ( -22.98%)
   displ. norm   :     0.2220650 α      lambda       -0.1935232E-03
   maximum displ.:     0.0893735 α      in ANC's #9, #8, #11, ...

........................................................................
.............................. CYCLE   10 ..............................
........................................................................

 iter      E             dE          RMSdq      gap      omega  full diag
   1    -98.0949968 -0.980950E+02  0.419E-02    0.77       0.0  T
   2    -98.0949998 -0.301230E-05  0.248E-02    0.77       1.0  T
   3    -98.0949975  0.231546E-05  0.880E-03    0.77       1.5  T
   4    -98.0950012 -0.363961E-05  0.212E-03    0.77       6.2  T
   5    -98.0950012 -0.574932E-07  0.116E-03    0.77      11.3  T
   6    -98.0950012 -0.203747E-07  0.335E-04    0.77      39.2  T
   7    -98.0950012 -0.146728E-08  0.154E-04    0.77      85.2  T
     SCC iter.                  ...        0 min,  0.027 sec
     gradient                   ...        0 min,  0.011 sec
 * total energy  :   -96.8427987 Eh     change       -0.1341571E-03 Eh
   gradient norm :     0.0038737 Eh/α   predicted    -0.1015359E-03 ( -24.32%)
   displ. norm   :     0.1511861 α      lambda       -0.1021696E-03
   maximum displ.:     0.0656938 α      in ANC's #9, #2, #24, ...

........................................................................
.............................. CYCLE   11 ..............................
........................................................................

 iter      E             dE          RMSdq      gap      omega  full diag
   1    -98.0955546 -0.980956E+02  0.309E-02    0.77       0.0  T
   2    -98.0955563 -0.164511E-05  0.183E-02    0.77       1.0  T
   3    -98.0955552  0.110638E-05  0.647E-03    0.77       2.0  T
   4    -98.0955570 -0.178370E-05  0.147E-03    0.77       8.9  T
   5    -98.0955570 -0.260396E-07  0.816E-04    0.77      16.1  T
   6    -98.0955570 -0.109336E-07  0.303E-04    0.77      43.4  T
     SCC iter.                  ...        0 min,  0.023 sec
     gradient                   ...        0 min,  0.011 sec
 * total energy  :   -96.8428712 Eh     change       -0.7247613E-04 Eh
   gradient norm :     0.0029775 Eh/α   predicted    -0.5225280E-04 ( -27.90%)
   displ. norm   :     0.1666801 α      lambda       -0.8219350E-04
   maximum displ.:     0.0639760 α      in ANC's #9, #2, #6, ...

........................................................................
.............................. CYCLE   12 ..............................
........................................................................

 iter      E             dE          RMSdq      gap      omega  full diag
   1    -98.0945462 -0.980945E+02  0.344E-02    0.76       0.0  T
   2    -98.0945479 -0.169997E-05  0.201E-02    0.76       1.0  T
   3    -98.0945470  0.872952E-06  0.566E-03    0.76       2.3  T
   4    -98.0945485 -0.151867E-05  0.172E-03    0.76       7.6  T
   5    -98.0945485 -0.414416E-07  0.900E-04    0.76      14.6  T
   6    -98.0945486 -0.935756E-08  0.359E-04    0.76      36.6  T
     SCC iter.                  ...        0 min,  0.021 sec
     gradient                   ...        0 min,  0.012 sec
 * total energy  :   -96.8429288 Eh     change       -0.5765844E-04 Eh
   gradient norm :     0.0034059 Eh/α   predicted    -0.4224157E-04 ( -26.74%)
   displ. norm   :     0.1869151 α      lambda       -0.9497699E-04
   maximum displ.:     0.0831270 α      in ANC's #2, #6, #3, ...

........................................................................
.............................. CYCLE   13 ..............................
........................................................................

 iter      E             dE          RMSdq      gap      omega  full diag
   1    -98.0951480 -0.980951E+02  0.382E-02    0.77       0.0  T
   2    -98.0951508 -0.273133E-05  0.223E-02    0.77       1.0  T
   3    -98.0951492  0.157183E-05  0.765E-03    0.77       1.7  T
   4    -98.0951516 -0.235489E-05  0.180E-03    0.77       7.3  T
   5    -98.0951516 -0.705963E-07  0.925E-04    0.77      14.2  T
   6    -98.0951516 -0.798484E-08  0.421E-04    0.77      31.2  T
     SCC iter.                  ...        0 min,  0.022 sec
     gradient                   ...        0 min,  0.013 sec
 * total energy  :   -96.8429859 Eh     change       -0.5712728E-04 Eh
   gradient norm :     0.0046988 Eh/α   predicted    -0.4915336E-04 ( -13.96%)
   displ. norm   :     0.1809396 α      lambda       -0.8072399E-04
   maximum displ.:     0.0844816 α      in ANC's #2, #3, #6, ...

........................................................................
.............................. CYCLE   14 ..............................
........................................................................

 iter      E             dE          RMSdq      gap      omega  full diag
   1    -98.0934386 -0.980934E+02  0.354E-02    0.76       0.0  T
   2    -98.0934412 -0.259086E-05  0.206E-02    0.76       1.0  T
   3    -98.0934396  0.159770E-05  0.736E-03    0.76       1.8  T
   4    -98.0934420 -0.240584E-05  0.186E-03    0.77       7.1  T
   5    -98.0934420 -0.701404E-07  0.975E-04    0.77      13.5  T
   6    -98.0934420 -0.644121E-08  0.447E-04    0.76      29.4  T
     SCC iter.                  ...        0 min,  0.022 sec
     gradient                   ...        0 min,  0.012 sec
 * total energy  :   -96.8430420 Eh     change       -0.5608882E-04 Eh
   gradient norm :     0.0041239 Eh/α   predicted    -0.4170711E-04 ( -25.64%)
   displ. norm   :     0.1854707 α      lambda       -0.9043900E-04
   maximum displ.:     0.0885536 α      in ANC's #2, #3, #1, ...

........................................................................
.............................. CYCLE   15 ..............................
........................................................................

 iter      E             dE          RMSdq      gap      omega  full diag
   1    -98.0935411 -0.980935E+02  0.322E-02    0.77       0.0  T
   2    -98.0935438 -0.264791E-05  0.189E-02    0.77       1.0  T
   3    -98.0935425  0.126126E-05  0.782E-03    0.77       1.7  T
   4    -98.0935446 -0.208846E-05  0.164E-03    0.77       8.0  T
   5    -98.0935447 -0.624335E-07  0.840E-04    0.77      15.6  T
   6    -98.0935447 -0.608355E-08  0.340E-04    0.77      38.7  T
     SCC iter.                  ...        0 min,  0.020 sec
     gradient                   ...        0 min,  0.012 sec
 * total energy  :   -96.8431054 Eh     change       -0.6336943E-04 Eh
   gradient norm :     0.0039714 Eh/α   predicted    -0.4677548E-04 ( -26.19%)
   displ. norm   :     0.2093558 α      lambda       -0.8532665E-04
   maximum displ.:     0.1015471 α      in ANC's #2, #3, #1, ...

........................................................................
.............................. CYCLE   16 ..............................
........................................................................

 iter      E             dE          RMSdq      gap      omega  full diag
   1    -98.0937273 -0.980937E+02  0.343E-02    0.78       0.0  T
   2    -98.0937302 -0.296108E-05  0.200E-02    0.78       1.0  T
   3    -98.0937286  0.157714E-05  0.877E-03    0.78       1.5  T
   4    -98.0937312 -0.255170E-05  0.175E-03    0.78       7.5  T
   5    -98.0937313 -0.892827E-07  0.845E-04    0.78      15.5  T
   6    -98.0937313 -0.467391E-08  0.312E-04    0.78      42.1  T
     SCC iter.                  ...        0 min,  0.028 sec
     gradient                   ...        0 min,  0.012 sec
 * total energy  :   -96.8431612 Eh     change       -0.5575616E-04 Eh
   gradient norm :     0.0039876 Eh/α   predicted    -0.4453719E-04 ( -20.12%)
   displ. norm   :     0.2139060 α      lambda       -0.6706881E-04
   maximum displ.:     0.1034444 α      in ANC's #2, #3, #1, ...

........................................................................
.............................. CYCLE   17 ..............................
........................................................................

 iter      E             dE          RMSdq      gap      omega  full diag
   1    -98.0939565 -0.980940E+02  0.358E-02    0.77       0.0  T
   2    -98.0939582 -0.172400E-05  0.208E-02    0.77       1.0  T
   3    -98.0939571  0.118739E-05  0.642E-03    0.78       2.0  T
   4    -98.0939589 -0.186099E-05  0.165E-03    0.78       8.0  T
   5    -98.0939589 -0.298642E-07  0.830E-04    0.78      15.8  T
   6    -98.0939590 -0.692157E-08  0.308E-04    0.78      42.7  T
     SCC iter.                  ...        0 min,  0.020 sec
     gradient                   ...        0 min,  0.012 sec
 * total energy  :   -96.8432110 Eh     change       -0.4981282E-04 Eh
   gradient norm :     0.0049723 Eh/α   predicted    -0.3507225E-04 ( -29.59%)
   displ. norm   :     0.2987653 α      lambda       -0.1003705E-03
   maximum displ.:     0.1461039 α      in ANC's #2, #3, #1, ...

........................................................................
.............................. CYCLE   18 ..............................
........................................................................

 iter      E             dE          RMSdq      gap      omega  full diag
   1    -98.0946278 -0.980946E+02  0.502E-02    0.79       0.0  T
   2    -98.0946319 -0.400481E-05  0.291E-02    0.79       1.0  T
   3    -98.0946294  0.249250E-05  0.968E-03    0.79       1.4  T
   4    -98.0946330 -0.365451E-05  0.226E-03    0.79       5.8  T
   5    -98.0946331 -0.136095E-06  0.108E-03    0.79      12.1  T
   6    -98.0946332 -0.155095E-07  0.486E-04    0.79      27.0  T
   7    -98.0946332 -0.196104E-08  0.129E-04    0.79     101.5  T
     SCC iter.                  ...        0 min,  0.024 sec
     gradient                   ...        0 min,  0.012 sec
 * total energy  :   -96.8432775 Eh     change       -0.6655579E-04 Eh
   gradient norm :     0.0045623 Eh/α   predicted    -0.5467033E-04 ( -17.86%)
   displ. norm   :     0.3864567 α      lambda       -0.1029565E-03
   maximum displ.:     0.1899334 α      in ANC's #2, #3, #1, ...

........................................................................
.............................. CYCLE   19 ..............................
........................................................................

 iter      E             dE          RMSdq      gap      omega  full diag
   1    -98.0935834 -0.980936E+02  0.657E-02    0.74       0.0  T
   2    -98.0935901 -0.673281E-05  0.382E-02    0.75       1.0  T
   3    -98.0935881  0.200947E-05  0.103E-02    0.76       1.3  T
   4    -98.0935920 -0.386820E-05  0.313E-03    0.76       4.2  T
   5    -98.0935921 -0.186712E-06  0.159E-03    0.76       8.3  T
   6    -98.0935922 -0.236807E-07  0.665E-04    0.76      19.7  T
   7    -98.0935922 -0.901852E-08  0.187E-04    0.76      70.3  T
     SCC iter.                  ...        0 min,  0.031 sec
     gradient                   ...        0 min,  0.012 sec
 * total energy  :   -96.8433417 Eh     change       -0.6418699E-04 Eh
   gradient norm :     0.0054285 Eh/α   predicted    -0.5917132E-04 (  -7.81%)
   displ. norm   :     0.2304547 α      lambda       -0.9160312E-04
   maximum displ.:     0.1181027 α      in ANC's #2, #3, #1, ...

........................................................................
.............................. CYCLE   20 ..............................
........................................................................

 iter      E             dE          RMSdq      gap      omega  full diag
   1    -98.0950476 -0.980950E+02  0.390E-02    0.75       0.0  T
   2    -98.0950523 -0.467894E-05  0.228E-02    0.75       1.0  T
   3    -98.0950511  0.119673E-05  0.101E-02    0.75       1.3  T
   4    -98.0950537 -0.255558E-05  0.185E-03    0.75       7.1  T
   5    -98.0950538 -0.979485E-07  0.984E-04    0.75      13.3  T
   6    -98.0950538 -0.164523E-07  0.416E-04    0.75      31.6  T
     SCC iter.                  ...        0 min,  0.019 sec
     gradient                   ...        0 min,  0.012 sec
 * total energy  :   -96.8434123 Eh     change       -0.7060368E-04 Eh
   gradient norm :     0.0042114 Eh/α   predicted    -0.4823705E-04 ( -31.68%)
   displ. norm   :     0.4115075 α      lambda       -0.1219966E-03
   maximum displ.:     0.2103409 α      in ANC's #2, #3, #1, ...
 * RMSD in coord.:     0.5163287 α      energy gain  -0.2446822E-01 Eh

generating ANC from exact Hessian ...
Using Lindh-Hessian (1995)
 Shifting diagonal of input Hessian by    9.8901604661250538E-003
 Lowest  eigenvalues of input Hessian
    0.000000    0.000000    0.000000    0.000000    0.000000    0.000000
    0.010000    0.010119    0.010234    0.010340    0.010809    0.011041
    0.011189    0.011255    0.011518    0.012625    0.014050    0.014725
 Highest eigenvalues
    2.043207    2.117180    2.127439    2.285097    2.372357    2.677900


........................................................................
.............................. CYCLE   21 ..............................
........................................................................

 iter      E             dE          RMSdq      gap      omega  full diag
   1    -98.0943395 -0.980943E+02  0.669E-02    0.73       0.0  T
   2    -98.0943439 -0.441690E-05  0.388E-02    0.73       1.0  T
   3    -98.0943420  0.188063E-05  0.920E-03    0.73       1.4  T
   4    -98.0943454 -0.342317E-05  0.261E-03    0.73       5.0  T
   5    -98.0943455 -0.642169E-07  0.139E-03    0.73       9.4  T
   6    -98.0943455 -0.279299E-07  0.485E-04    0.73      27.1  T
   7    -98.0943455 -0.885989E-08  0.179E-04    0.73      73.4  T
     SCC iter.                  ...        0 min,  0.026 sec
     gradient                   ...        0 min,  0.011 sec
 * total energy  :   -96.8435035 Eh     change       -0.9121944E-04 Eh
   gradient norm :     0.0038196 Eh/α   predicted     0.0000000E+00 (-100.00%)
   displ. norm   :     0.0381385 α      lambda       -0.3318538E-04
   maximum displ.:     0.0158615 α      in ANC's #7, #12, #8, ...

........................................................................
.............................. CYCLE   22 ..............................
........................................................................

 iter      E             dE          RMSdq      gap      omega  full diag
   1    -98.0953381 -0.980953E+02  0.118E-02    0.74       0.0  T
   2    -98.0953385 -0.349203E-06  0.695E-03    0.74       1.9  T
   3    -98.0953383  0.190294E-06  0.299E-03    0.74       4.4  T
   4    -98.0953386 -0.296466E-06  0.519E-04    0.74      25.3  T
   5    -98.0953386 -0.757817E-08  0.254E-04    0.74      51.6  T
     SCC iter.                  ...        0 min,  0.016 sec
     gradient                   ...        0 min,  0.011 sec
 * total energy  :   -96.8435340 Eh     change       -0.3042691E-04 Eh
   gradient norm :     0.0020904 Eh/α   predicted    -0.2093608E-04 ( -31.19%)
   displ. norm   :     0.1146726 α      lambda       -0.7618254E-04
   maximum displ.:     0.0498466 α      in ANC's #7, #8, #12, ...

........................................................................
.............................. CYCLE   23 ..............................
........................................................................

 iter      E             dE          RMSdq      gap      omega  full diag
   1    -98.0969846 -0.980970E+02  0.298E-02    0.75       0.0  T
   2    -98.0969865 -0.184866E-05  0.174E-02    0.75       1.0  T
   3    -98.0969852  0.129440E-05  0.689E-03    0.75       1.9  T
   4    -98.0969871 -0.186121E-05  0.123E-03    0.75      10.7  T
   5    -98.0969871 -0.369635E-07  0.621E-04    0.75      21.2  T
   6    -98.0969871 -0.521995E-08  0.273E-04    0.75      48.2  T
     SCC iter.                  ...        0 min,  0.021 sec
     gradient                   ...        0 min,  0.011 sec
 * total energy  :   -96.8435721 Eh     change       -0.3816522E-04 Eh
   gradient norm :     0.0034194 Eh/α   predicted    -0.3859959E-04 (   1.14%)
   displ. norm   :     0.0805219 α      lambda       -0.3579253E-04
   maximum displ.:     0.0346123 α      in ANC's #7, #8, #4, ...

........................................................................
.............................. CYCLE   24 ..............................
........................................................................

 iter      E             dE          RMSdq      gap      omega  full diag
   1    -98.0964948 -0.980965E+02  0.194E-02    0.75       0.0  T
   2    -98.0964950 -0.215365E-06  0.112E-02    0.75       1.2  T
   3    -98.0964950  0.318285E-07  0.166E-03    0.75       7.9  T
   4    -98.0964951 -0.107515E-06  0.591E-04    0.75      22.2  T
   5    -98.0964951 -0.139050E-08  0.275E-04    0.75      47.7  T
     SCC iter.                  ...        0 min,  0.020 sec
     gradient                   ...        0 min,  0.011 sec
 * total energy  :   -96.8436014 Eh     change       -0.2924903E-04 Eh
   gradient norm :     0.0032176 Eh/α   predicted    -0.1802113E-04 ( -38.39%)
   displ. norm   :     0.2128809 α      lambda       -0.7813980E-04
   maximum displ.:     0.0900442 α      in ANC's #7, #4, #8, ...

........................................................................
.............................. CYCLE   25 ..............................
........................................................................

 iter      E             dE          RMSdq      gap      omega  full diag
   1    -98.0948307 -0.980948E+02  0.492E-02    0.74       0.0  T
   2    -98.0948323 -0.156267E-05  0.285E-02    0.74       1.0  T
   3    -98.0948319  0.403172E-06  0.494E-03    0.74       2.7  T
   4    -98.0948329 -0.971202E-06  0.156E-03    0.74       8.4  T
   5    -98.0948329 -0.771841E-08  0.784E-04    0.74      16.8  T
   6    -98.0948329 -0.162163E-07  0.226E-04    0.74      58.2  T
     SCC iter.                  ...        0 min,  0.020 sec
     gradient                   ...        0 min,  0.012 sec
 * total energy  :   -96.8436600 Eh     change       -0.5864596E-04 Eh
   gradient norm :     0.0031587 Eh/α   predicted    -0.4084210E-04 ( -30.36%)
   displ. norm   :     0.2560725 α      lambda       -0.6936266E-04
   maximum displ.:     0.1060337 α      in ANC's #7, #4, #2, ...

........................................................................
.............................. CYCLE   26 ..............................
........................................................................

 iter      E             dE          RMSdq      gap      omega  full diag
   1    -98.0934301 -0.980934E+02  0.574E-02    0.73       0.0  T
   2    -98.0934322 -0.201528E-05  0.332E-02    0.73       1.0  T
   3    -98.0934317  0.439176E-06  0.544E-03    0.73       2.4  T
   4    -98.0934329 -0.119411E-05  0.185E-03    0.73       7.1  T
   5    -98.0934329 -0.175669E-07  0.900E-04    0.73      14.6  T
   6    -98.0934329 -0.187973E-07  0.259E-04    0.73      50.6  T
     SCC iter.                  ...        0 min,  0.021 sec
     gradient                   ...        0 min,  0.013 sec
 * total energy  :   -96.8437119 Eh     change       -0.5190367E-04 Eh
   gradient norm :     0.0038038 Eh/α   predicted    -0.3695614E-04 ( -28.80%)
   displ. norm   :     0.2460817 α      lambda       -0.6479542E-04
   maximum displ.:     0.1000117 α      in ANC's #4, #7, #2, ...

........................................................................
.............................. CYCLE   27 ..............................
........................................................................

 iter      E             dE          RMSdq      gap      omega  full diag
   1    -98.0932277 -0.980932E+02  0.530E-02    0.73       0.0  T
   2    -98.0932292 -0.150162E-05  0.307E-02    0.73       1.0  T
   3    -98.0932292 -0.767990E-07  0.379E-03    0.73       3.5  T
   4    -98.0932297 -0.489757E-06  0.167E-03    0.73       7.9  T
   5    -98.0932297 -0.200307E-07  0.703E-04    0.73      18.7  T
   6    -98.0932298 -0.104169E-07  0.225E-04    0.73      58.3  T
     SCC iter.                  ...        0 min,  0.024 sec
     gradient                   ...        0 min,  0.012 sec
 * total energy  :   -96.8437630 Eh     change       -0.5102740E-04 Eh
   gradient norm :     0.0037923 Eh/α   predicted    -0.3436084E-04 ( -32.66%)
   displ. norm   :     0.2612727 α      lambda       -0.7613438E-04
   maximum displ.:     0.1125806 α      in ANC's #4, #2, #7, ...

........................................................................
.............................. CYCLE   28 ..............................
........................................................................

 iter      E             dE          RMSdq      gap      omega  full diag
   1    -98.0943694 -0.980944E+02  0.542E-02    0.73       0.0  T
   2    -98.0943711 -0.163743E-05  0.314E-02    0.73       1.0  T
   3    -98.0943711 -0.286759E-07  0.414E-03    0.73       3.2  T
   4    -98.0943717 -0.577698E-06  0.170E-03    0.73       7.7  T
   5    -98.0943717 -0.110371E-07  0.809E-04    0.73      16.2  T
   6    -98.0943717 -0.215837E-07  0.222E-04    0.73      59.0  T
     SCC iter.                  ...        0 min,  0.019 sec
     gradient                   ...        0 min,  0.012 sec
 * total energy  :   -96.8438207 Eh     change       -0.5772078E-04 Eh
   gradient norm :     0.0030798 Eh/α   predicted    -0.4067632E-04 ( -29.53%)
   displ. norm   :     0.2584078 α      lambda       -0.6004300E-04
   maximum displ.:     0.1182695 α      in ANC's #4, #2, #3, ...

........................................................................
.............................. CYCLE   29 ..............................
........................................................................

 iter      E             dE          RMSdq      gap      omega  full diag
   1    -98.0953989 -0.980954E+02  0.521E-02    0.73       0.0  T
   2    -98.0954010 -0.206700E-05  0.302E-02    0.73       1.0  T
   3    -98.0954001  0.842847E-06  0.628E-03    0.73       2.1  T
   4    -98.0954017 -0.159593E-05  0.175E-03    0.73       7.5  T
   5    -98.0954018 -0.148356E-07  0.985E-04    0.73      13.3  T
   6    -98.0954018 -0.280304E-07  0.209E-04    0.73      62.9  T
     SCC iter.                  ...        0 min,  0.024 sec
     gradient                   ...        0 min,  0.013 sec
 * total energy  :   -96.8438674 Eh     change       -0.4668996E-04 Eh
   gradient norm :     0.0025492 Eh/α   predicted    -0.3202919E-04 ( -31.40%)
   displ. norm   :     0.2603997 α      lambda       -0.5327500E-04
   maximum displ.:     0.1260083 α      in ANC's #4, #2, #3, ...

........................................................................
.............................. CYCLE   30 ..............................
........................................................................

 iter      E             dE          RMSdq      gap      omega  full diag
   1    -98.0960656 -0.980961E+02  0.503E-02    0.73       0.0  T
   2    -98.0960680 -0.235017E-05  0.291E-02    0.73       1.0  T
   3    -98.0960668  0.116719E-05  0.710E-03    0.73       1.9  T
   4    -98.0960688 -0.201136E-05  0.180E-03    0.73       7.3  T
   5    -98.0960688 -0.237668E-07  0.104E-03    0.73      12.6  T
   6    -98.0960689 -0.273500E-07  0.205E-04    0.73      64.1  T
   7    -98.0960689 -0.537213E-09  0.108E-04    0.73     122.0  T
     SCC iter.                  ...        0 min,  0.023 sec
     gradient                   ...        0 min,  0.012 sec
 * total energy  :   -96.8439122 Eh     change       -0.4483209E-04 Eh
   gradient norm :     0.0022386 Eh/α   predicted    -0.2844424E-04 ( -36.55%)
   displ. norm   :     0.3025753 α      lambda       -0.6563849E-04
   maximum displ.:     0.1523579 α      in ANC's #4, #2, #3, ...

........................................................................
.............................. CYCLE   31 ..............................
........................................................................

 iter      E             dE          RMSdq      gap      omega  full diag
   1    -98.0964161 -0.980964E+02  0.560E-02    0.72       0.0  T
   2    -98.0964194 -0.328192E-05  0.323E-02    0.72       1.0  T
   3    -98.0964178  0.152720E-05  0.833E-03    0.72       1.6  T
   4    -98.0964205 -0.267302E-05  0.210E-03    0.72       6.3  T
   5    -98.0964206 -0.368898E-07  0.122E-03    0.72      10.8  T
   6    -98.0964206 -0.345302E-07  0.241E-04    0.72      54.5  T
   7    -98.0964206 -0.881698E-09  0.125E-04    0.72     105.2  T
     SCC iter.                  ...        0 min,  0.023 sec
     gradient                   ...        0 min,  0.013 sec
 * total energy  :   -96.8439701 Eh     change       -0.5793781E-04 Eh
   gradient norm :     0.0022136 Eh/α   predicted    -0.3582427E-04 ( -38.17%)
   displ. norm   :     0.3897976 α      lambda       -0.9152051E-04
   maximum displ.:     0.2016525 α      in ANC's #2, #4, #1, ...

........................................................................
.............................. CYCLE   32 ..............................
........................................................................

 iter      E             dE          RMSdq      gap      omega  full diag
   1    -98.0962181 -0.980962E+02  0.695E-02    0.71       0.0  T
   2    -98.0962235 -0.541468E-05  0.399E-02    0.71       1.0  T
   3    -98.0962214  0.203118E-05  0.103E-02    0.71       1.3  T
   4    -98.0962253 -0.383510E-05  0.266E-03    0.71       4.9  T
   5    -98.0962253 -0.539220E-07  0.155E-03    0.71       8.5  T
   6    -98.0962254 -0.570013E-07  0.321E-04    0.71      40.9  T
   7    -98.0962254 -0.186809E-08  0.163E-04    0.71      80.4  T
     SCC iter.                  ...        0 min,  0.032 sec
     gradient                   ...        0 min,  0.012 sec
 * total energy  :   -96.8440514 Eh     change       -0.8124913E-04 Eh
   gradient norm :     0.0030033 Eh/α   predicted    -0.5271423E-04 ( -35.12%)
   displ. norm   :     0.4945066 α      lambda       -0.1236063E-03
   maximum displ.:     0.2629655 α      in ANC's #2, #4, #1, ...

........................................................................
.............................. CYCLE   33 ..............................
........................................................................

 iter      E             dE          RMSdq      gap      omega  full diag
   1    -98.0957115 -0.980957E+02  0.848E-02    0.69       0.0  T
   2    -98.0957204 -0.888855E-05  0.485E-02    0.70       1.0  T
   3    -98.0957173  0.307382E-05  0.131E-02    0.70       1.0  T
   4    -98.0957232 -0.591667E-05  0.332E-03    0.70       4.0  T
   5    -98.0957233 -0.918792E-07  0.193E-03    0.70       6.8  T
   6    -98.0957234 -0.840142E-07  0.422E-04    0.70      31.1  T
   7    -98.0957234 -0.339899E-08  0.208E-04    0.70      63.0  T
     SCC iter.                  ...        0 min,  0.024 sec
     gradient                   ...        0 min,  0.011 sec
 * total energy  :   -96.8441564 Eh     change       -0.1050384E-03 Eh
   gradient norm :     0.0046198 Eh/α   predicted    -0.7691666E-04 ( -26.77%)
   displ. norm   :     0.5166437 α      lambda       -0.1353067E-03
   maximum displ.:     0.2818637 α      in ANC's #2, #4, #1, ...

........................................................................
.............................. CYCLE   34 ..............................
........................................................................

 iter      E             dE          RMSdq      gap      omega  full diag
   1    -98.0951692 -0.980952E+02  0.852E-02    0.68       0.0  T
   2    -98.0951782 -0.900459E-05  0.487E-02    0.69       1.0  T
   3    -98.0951753  0.289048E-05  0.130E-02    0.69       1.0  T
   4    -98.0951810 -0.569419E-05  0.332E-03    0.69       4.0  T
   5    -98.0951811 -0.940887E-07  0.190E-03    0.69       6.9  T
   6    -98.0951812 -0.792759E-07  0.442E-04    0.69      29.7  T
   7    -98.0951812 -0.351483E-08  0.213E-04    0.69      61.8  T
     SCC iter.                  ...        0 min,  0.027 sec
     gradient                   ...        0 min,  0.014 sec
 * total energy  :   -96.8442671 Eh     change       -0.1106894E-03 Eh
   gradient norm :     0.0057495 Eh/α   predicted    -0.8571968E-04 ( -22.56%)
   displ. norm   :     0.4747453 α      lambda       -0.1394306E-03
   maximum displ.:     0.2659606 α      in ANC's #2, #4, #1, ...

........................................................................
.............................. CYCLE   35 ..............................
........................................................................

 iter      E             dE          RMSdq      gap      omega  full diag
   1    -98.0950557 -0.980951E+02  0.759E-02    0.68       0.0  T
   2    -98.0950616 -0.589779E-05  0.434E-02    0.68       1.0  T
   3    -98.0950605  0.110185E-05  0.925E-03    0.69       1.4  T
   4    -98.0950634 -0.286320E-05  0.281E-03    0.69       4.7  T
   5    -98.0950634 -0.645344E-07  0.149E-03    0.69       8.8  T
   6    -98.0950635 -0.465119E-07  0.405E-04    0.69      32.4  T
   7    -98.0950635 -0.276465E-08  0.180E-04    0.69      73.1  T
     SCC iter.                  ...        0 min,  0.026 sec
     gradient                   ...        0 min,  0.013 sec
 * total energy  :   -96.8443806 Eh     change       -0.1135046E-03 Eh
   gradient norm :     0.0052579 Eh/α   predicted    -0.8542999E-04 ( -24.73%)
   displ. norm   :     0.5251241 α      lambda       -0.1481167E-03
   maximum displ.:     0.2990238 α      in ANC's #2, #4, #1, ...

........................................................................
.............................. CYCLE   36 ..............................
........................................................................

 iter      E             dE          RMSdq      gap      omega  full diag
   1    -98.0929586 -0.980930E+02  0.868E-02    0.67       0.0  T
   2    -98.0929659 -0.724978E-05  0.497E-02    0.67       1.0  T
   3    -98.0929646  0.129020E-05  0.999E-03    0.67       1.3  T
   4    -98.0929681 -0.350979E-05  0.331E-03    0.68       4.0  T
   5    -98.0929682 -0.108622E-06  0.152E-03    0.68       8.7  T
   6    -98.0929682 -0.214827E-07  0.478E-04    0.68      27.4  T
   7    -98.0929682 -0.519182E-08  0.195E-04    0.68      67.2  T
     SCC iter.                  ...        0 min,  0.025 sec
     gradient                   ...        0 min,  0.014 sec
 * total energy  :   -96.8444930 Eh     change       -0.1124023E-03 Eh
   gradient norm :     0.0064404 Eh/α   predicted    -0.9448184E-04 ( -15.94%)
   displ. norm   :     0.4728053 α      lambda       -0.2475635E-03
   maximum displ.:     0.2613802 α      in ANC's #2, #1, #4, ...

........................................................................
.............................. CYCLE   37 ..............................
........................................................................

 iter      E             dE          RMSdq      gap      omega  full diag
   1    -98.1001380 -0.981001E+02  0.782E-02    0.72       0.0  T
   2    -98.1001503 -0.123022E-04  0.450E-02    0.72       1.0  T
   3    -98.1001480  0.239675E-05  0.112E-02    0.72       1.2  T
   4    -98.1001513 -0.337049E-05  0.418E-03    0.72       3.1  T
   5    -98.1001522 -0.896190E-06  0.142E-03    0.72       9.3  T
   6    -98.1001522 -0.960674E-08  0.648E-04    0.72      20.3  T
   7    -98.1001522 -0.777948E-08  0.170E-04    0.72      77.0  T
     SCC iter.                  ...        0 min,  0.029 sec
     gradient                   ...        0 min,  0.011 sec
 * total energy  :   -96.8444995 Eh     change       -0.6433523E-05 Eh
   gradient norm :     0.0094315 Eh/α   predicted    -0.1514534E-03 (2254.13%)
   displ. norm   :     0.3569273 α      lambda       -0.2612246E-03
   maximum displ.:     0.1861199 α      in ANC's #2, #4, #1, ...

........................................................................
.............................. CYCLE   38 ..............................
........................................................................

 iter      E             dE          RMSdq      gap      omega  full diag
   1    -98.0940619 -0.980941E+02  0.707E-02    0.67       0.0  T
   2    -98.0940744 -0.124893E-04  0.403E-02    0.68       1.0  T
   3    -98.0940728  0.158988E-05  0.124E-02    0.67       1.1  T
   4    -98.0940763 -0.345095E-05  0.364E-03    0.68       3.6  T
   5    -98.0940766 -0.328947E-06  0.152E-03    0.68       8.7  T
   6    -98.0940766 -0.129932E-07  0.740E-04    0.68      17.7  T
   7    -98.0940766 -0.718762E-08  0.183E-04    0.68      71.8  T
     SCC iter.                  ...        0 min,  0.024 sec
     gradient                   ...        0 min,  0.012 sec
 * total energy  :   -96.8446470 Eh     change       -0.1474957E-03 Eh
   gradient norm :     0.0053359 Eh/α   predicted    -0.1472537E-03 (  -0.16%)
   displ. norm   :     0.1695966 α      lambda       -0.5292830E-04
   maximum displ.:     0.0966139 α      in ANC's #2, #1, #3, ...

........................................................................
.............................. CYCLE   39 ..............................
........................................................................

 iter      E             dE          RMSdq      gap      omega  full diag
   1    -98.0936521 -0.980937E+02  0.289E-02    0.67       0.0  T
   2    -98.0936529 -0.800067E-06  0.166E-02    0.67       1.0  T
   3    -98.0936526  0.289361E-06  0.355E-03    0.67       3.7  T
   4    -98.0936531 -0.531595E-06  0.105E-03    0.67      12.4  T
   5    -98.0936531 -0.165657E-07  0.544E-04    0.67      24.1  T
   6    -98.0936531 -0.458741E-08  0.176E-04    0.67      74.8  T
     SCC iter.                  ...        0 min,  0.020 sec
     gradient                   ...        0 min,  0.012 sec
 * total energy  :   -96.8446933 Eh     change       -0.4635217E-04 Eh
   gradient norm :     0.0050305 Eh/α   predicted    -0.2722634E-04 ( -41.26%)
   displ. norm   :     0.4120435 α      lambda       -0.1854925E-03
   maximum displ.:     0.2201966 α      in ANC's #2, #1, #3, ...

........................................................................
.............................. CYCLE   40 ..............................
........................................................................

 iter      E             dE          RMSdq      gap      omega  full diag
   1    -98.0960541 -0.980961E+02  0.704E-02    0.68       0.0  T
   2    -98.0960589 -0.473179E-05  0.408E-02    0.67       1.0  T
   3    -98.0960555  0.337372E-05  0.104E-02    0.67       1.3  T
   4    -98.0960605 -0.504437E-05  0.249E-03    0.67       5.3  T
   5    -98.0960606 -0.922492E-07  0.135E-03    0.67       9.7  T
   6    -98.0960606 -0.216143E-07  0.393E-04    0.67      33.4  T
   7    -98.0960606 -0.307196E-08  0.156E-04    0.67      83.9  T
     SCC iter.                  ...        0 min,  0.028 sec
     gradient                   ...        0 min,  0.012 sec
 * total energy  :   -96.8448181 Eh     change       -0.1247991E-03 Eh
   gradient norm :     0.0044501 Eh/α   predicted    -0.1084936E-03 ( -13.07%)
   displ. norm   :     0.6510990 α      lambda       -0.1280140E-03
   maximum displ.:     0.3920283 α      in ANC's #2, #1, #3, ...

........................................................................
.............................. CYCLE   41 ..............................
........................................................................

 iter      E             dE          RMSdq      gap      omega  full diag
   1    -98.0921592 -0.980922E+02  0.101E-01    0.65       0.0  T
   2    -98.0921667 -0.751042E-05  0.580E-02    0.66       1.0  T
   3    -98.0921654  0.128438E-05  0.985E-03    0.66       1.3  T
   4    -98.0921694 -0.393112E-05  0.350E-03    0.66       3.8  T
   5    -98.0921695 -0.974377E-07  0.157E-03    0.66       8.4  T
   6    -98.0921695 -0.437273E-07  0.502E-04    0.66      26.2  T
   7    -98.0921695 -0.601644E-08  0.224E-04    0.66      58.5  T
     SCC iter.                  ...        0 min,  0.024 sec
     gradient                   ...        0 min,  0.011 sec
 * total energy  :   -96.8449046 Eh     change       -0.8651933E-04 Eh
   gradient norm :     0.0063585 Eh/α   predicted    -0.9114299E-04 (   5.34%)
   displ. norm   :     0.3812304 α      lambda       -0.1497590E-03
   maximum displ.:     0.2209593 α      in ANC's #2, #1, #3, ...

........................................................................
.............................. CYCLE   42 ..............................
........................................................................

 iter      E             dE          RMSdq      gap      omega  full diag
   1    -98.0937000 -0.980937E+02  0.595E-02    0.67       0.0  T
   2    -98.0937047 -0.469097E-05  0.344E-02    0.67       1.0  T
   3    -98.0937009  0.379861E-05  0.110E-02    0.67       1.2  T
   4    -98.0937062 -0.527817E-05  0.229E-03    0.67       5.7  T
   5    -98.0937063 -0.109020E-06  0.112E-03    0.67      11.7  T
   6    -98.0937063 -0.937096E-08  0.507E-04    0.67      25.9  T
   7    -98.0937063 -0.388773E-08  0.144E-04    0.67      91.1  T
     SCC iter.                  ...        0 min,  0.029 sec
     gradient                   ...        0 min,  0.013 sec
 * total energy  :   -96.8450002 Eh     change       -0.9553297E-04 Eh
   gradient norm :     0.0043871 Eh/α   predicted    -0.8576413E-04 ( -10.23%)
   displ. norm   :     0.4984959 α      lambda       -0.1158023E-03
   maximum displ.:     0.3112503 α      in ANC's #2, #1, #3, ...
 * RMSD in coord.:     0.8830464 α      energy gain  -0.1587835E-02 Eh

generating ANC from exact Hessian ...
Using Lindh-Hessian (1995)
 Shifting diagonal of input Hessian by    9.8902674702867396E-003
 Lowest  eigenvalues of input Hessian
    0.000000    0.000000    0.000000    0.000000    0.000000    0.000000
    0.010000    0.010092    0.010219    0.010370    0.010808    0.011019
    0.011156    0.011281    0.011589    0.012492    0.013981    0.014834
 Highest eigenvalues
    2.041666    2.111552    2.122645    2.285987    2.371156    2.670322


........................................................................
.............................. CYCLE   43 ..............................
........................................................................

 iter      E             dE          RMSdq      gap      omega  full diag
   1    -98.0939560 -0.980940E+02  0.711E-02    0.66       0.0  T
   2    -98.0939600 -0.403846E-05  0.411E-02    0.66       1.0  T
   3    -98.0939592  0.776616E-06  0.740E-03    0.66       1.8  T
   4    -98.0939613 -0.208023E-05  0.251E-03    0.66       5.2  T
   5    -98.0939614 -0.707498E-07  0.118E-03    0.66      11.2  T
   6    -98.0939614 -0.125107E-07  0.351E-04    0.66      37.4  T
   7    -98.0939614 -0.284729E-08  0.171E-04    0.66      76.8  T
     SCC iter.                  ...        0 min,  0.023 sec
     gradient                   ...        0 min,  0.012 sec
 * total energy  :   -96.8450871 Eh     change       -0.8697311E-04 Eh
   gradient norm :     0.0039736 Eh/α   predicted     0.0000000E+00 (-100.00%)
   displ. norm   :     0.0402934 α      lambda       -0.5326180E-04
   maximum displ.:     0.0180956 α      in ANC's #2, #11, #3, ...

........................................................................
.............................. CYCLE   44 ..............................
........................................................................

 iter      E             dE          RMSdq      gap      omega  full diag
   1    -98.0962281 -0.980962E+02  0.983E-03    0.67       0.0  T
   2    -98.0962284 -0.339632E-06  0.572E-03    0.67       2.3  T
   3    -98.0962283  0.900937E-07  0.226E-03    0.67       5.8  T
   4    -98.0962285 -0.144428E-06  0.646E-04    0.67      20.3  T
   5    -98.0962285 -0.168309E-07  0.259E-04    0.67      50.7  T
     SCC iter.                  ...        0 min,  0.021 sec
     gradient                   ...        0 min,  0.012 sec
 * total energy  :   -96.8451286 Eh     change       -0.4146062E-04 Eh
   gradient norm :     0.0017243 Eh/α   predicted    -0.2681383E-04 ( -35.33%)
   displ. norm   :     0.1407247 α      lambda       -0.6339886E-04
   maximum displ.:     0.0690857 α      in ANC's #2, #11, #3, ...

........................................................................
.............................. CYCLE   45 ..............................
........................................................................

 iter      E             dE          RMSdq      gap      omega  full diag
   1    -98.0995604 -0.980996E+02  0.280E-02    0.67       0.0  T
   2    -98.0995623 -0.183649E-05  0.163E-02    0.67       1.0  T
   3    -98.0995616  0.698687E-06  0.556E-03    0.67       2.4  T
   4    -98.0995627 -0.111068E-05  0.152E-03    0.67       8.7  T
   5    -98.0995628 -0.700552E-07  0.731E-04    0.67      18.0  T
   6    -98.0995628 -0.717958E-08  0.316E-04    0.67      41.5  T
     SCC iter.                  ...        0 min,  0.020 sec
     gradient                   ...        0 min,  0.011 sec
 * total energy  :   -96.8451751 Eh     change       -0.4655772E-04 Eh
   gradient norm :     0.0033570 Eh/α   predicted    -0.3197877E-04 ( -31.31%)
   displ. norm   :     0.0498803 α      lambda       -0.2560513E-04
   maximum displ.:     0.0286573 α      in ANC's #2, #3, #11, ...

........................................................................
.............................. CYCLE   46 ..............................
........................................................................

 iter      E             dE          RMSdq      gap      omega  full diag
   1    -98.0988678 -0.980989E+02  0.899E-03    0.67       0.0  T
   2    -98.0988680 -0.158547E-06  0.522E-03    0.67       2.5  T
   3    -98.0988679  0.576971E-07  0.174E-03    0.67       7.5  T
   4    -98.0988680 -0.962624E-07  0.401E-04    0.67      32.7  T
   5    -98.0988680 -0.412312E-08  0.211E-04    0.67      62.2  T
     SCC iter.                  ...        0 min,  0.019 sec
     gradient                   ...        0 min,  0.012 sec
 * total energy  :   -96.8451923 Eh     change       -0.1711432E-04 Eh
   gradient norm :     0.0025963 Eh/α   predicted    -0.1283500E-04 ( -25.00%)
   displ. norm   :     0.0490832 α      lambda        0.1223878E-05
   maximum displ.:     0.0281872 α      in ANC's #2, #3, #11, ...

........................................................................
.............................. CYCLE   47 ..............................
........................................................................

 iter      E             dE          RMSdq      gap      omega  full diag
   1    -98.0981351 -0.980981E+02  0.888E-03    0.66       0.0  T
   2    -98.0981353 -0.166141E-06  0.515E-03    0.66       2.5  T
   3    -98.0981353  0.459874E-07  0.174E-03    0.66       7.5  T
   4    -98.0981353 -0.847703E-07  0.384E-04    0.66      34.2  T
   5    -98.0981353 -0.294500E-08  0.202E-04    0.66      65.0  T
     SCC iter.                  ...        0 min,  0.020 sec
     gradient                   ...        0 min,  0.011 sec
 * total energy  :   -96.8451923 Eh     change        0.7174094E-08 Eh
   gradient norm :     0.0033084 Eh/α   predicted     0.6120836E-06 (8431.86%)
   displ. norm   :     0.0567250 α      lambda       -0.4219986E-04
   maximum displ.:     0.0329605 α      in ANC's #2, #3, #11, ...

........................................................................
.............................. CYCLE   48 ..............................
........................................................................

 iter      E             dE          RMSdq      gap      omega  full diag
   1    -98.0966901 -0.980967E+02  0.114E-02    0.65       0.0  T
   2    -98.0966903 -0.224093E-06  0.665E-03    0.66       2.0  T
   3    -98.0966902  0.747122E-07  0.209E-03    0.66       6.3  T
   4    -98.0966904 -0.138161E-06  0.488E-04    0.66      26.9  T
   5    -98.0966904 -0.261221E-08  0.256E-04    0.66      51.3  T
     SCC iter.                  ...        0 min,  0.017 sec
     gradient                   ...        0 min,  0.012 sec
 * total energy  :   -96.8452190 Eh     change       -0.2676479E-04 Eh
   gradient norm :     0.0014030 Eh/α   predicted    -0.2116801E-04 ( -20.91%)
   displ. norm   :     0.0925394 α      lambda       -0.1646121E-04
   maximum displ.:     0.0569472 α      in ANC's #2, #3, #11, ...

........................................................................
.............................. CYCLE   49 ..............................
........................................................................

 iter      E             dE          RMSdq      gap      omega  full diag
   1    -98.0963028 -0.980963E+02  0.148E-02    0.65       0.0  T
   2    -98.0963030 -0.220242E-06  0.859E-03    0.65       1.5  T
   3    -98.0963029  0.736112E-07  0.193E-03    0.65       6.8  T
   4    -98.0963031 -0.142399E-06  0.545E-04    0.65      24.1  T
   5    -98.0963031 -0.249865E-08  0.297E-04    0.65      44.2  T
     SCC iter.                  ...        0 min,  0.018 sec
     gradient                   ...        0 min,  0.012 sec
 * total energy  :   -96.8452380 Eh     change       -0.1897997E-04 Eh
   gradient norm :     0.0016149 Eh/α   predicted    -0.8262231E-05 ( -56.47%)
   displ. norm   :     0.1431140 α      lambda       -0.2355983E-04
   maximum displ.:     0.0867578 α      in ANC's #2, #3, #6, ...

........................................................................
.............................. CYCLE   50 ..............................
........................................................................

 iter      E             dE          RMSdq      gap      omega  full diag
   1    -98.0966905 -0.980967E+02  0.234E-02    0.65       0.0  T
   2    -98.0966909 -0.405627E-06  0.135E-02    0.65       1.0  T
   3    -98.0966908  0.879047E-07  0.231E-03    0.65       5.7  T
   4    -98.0966910 -0.226118E-06  0.826E-04    0.65      15.9  T
   5    -98.0966910 -0.745342E-08  0.393E-04    0.65      33.4  T
     SCC iter.                  ...        0 min,  0.023 sec
     gradient                   ...        0 min,  0.012 sec
 * total energy  :   -96.8452682 Eh     change       -0.3017224E-04 Eh
   gradient norm :     0.0016240 Eh/α   predicted    -0.1189251E-04 ( -60.58%)
   displ. norm   :     0.2796560 α      lambda       -0.3954295E-04
   maximum displ.:     0.1674211 α      in ANC's #2, #3, #6, ...

........................................................................
.............................. CYCLE   51 ..............................
........................................................................

 iter      E             dE          RMSdq      gap      omega  full diag
   1    -98.0966349 -0.980966E+02  0.450E-02    0.64       0.0  T
   2    -98.0966364 -0.145873E-05  0.259E-02    0.65       1.0  T
   3    -98.0966359  0.460003E-06  0.467E-03    0.65       2.8  T
   4    -98.0966369 -0.100777E-05  0.159E-03    0.65       8.2  T
   5    -98.0966370 -0.197526E-07  0.714E-04    0.65      18.4  T
   6    -98.0966370 -0.129263E-07  0.184E-04    0.65      71.3  T
     SCC iter.                  ...        0 min,  0.020 sec
     gradient                   ...        0 min,  0.012 sec
 * total energy  :   -96.8453194 Eh     change       -0.5118856E-04 Eh
   gradient norm :     0.0019575 Eh/α   predicted    -0.2046369E-04 ( -60.02%)
   displ. norm   :     0.4418102 α      lambda       -0.5878734E-04
   maximum displ.:     0.2630867 α      in ANC's #2, #3, #6, ...

........................................................................
.............................. CYCLE   52 ..............................
........................................................................

 iter      E             dE          RMSdq      gap      omega  full diag
   1    -98.0961223 -0.980961E+02  0.704E-02    0.64       0.0  T
   2    -98.0961262 -0.397287E-05  0.404E-02    0.64       1.0  T
   3    -98.0961249  0.129490E-05  0.774E-03    0.64       1.7  T
   4    -98.0961277 -0.273980E-05  0.257E-03    0.64       5.1  T
   5    -98.0961277 -0.580320E-07  0.119E-03    0.64      11.0  T
   6    -98.0961278 -0.309266E-07  0.321E-04    0.64      40.9  T
   7    -98.0961278 -0.200137E-08  0.148E-04    0.64      88.5  T
     SCC iter.                  ...        0 min,  0.026 sec
     gradient                   ...        0 min,  0.013 sec
 * total energy  :   -96.8453931 Eh     change       -0.7373719E-04 Eh
   gradient norm :     0.0030372 Eh/α   predicted    -0.3194715E-04 ( -56.67%)
   displ. norm   :     0.3675154 α      lambda       -0.7763632E-04
   maximum displ.:     0.2208219 α      in ANC's #2, #3, #6, ...

........................................................................
.............................. CYCLE   53 ..............................
........................................................................

 iter      E             dE          RMSdq      gap      omega  full diag
   1    -98.0959489 -0.980959E+02  0.572E-02    0.63       0.0  T
   2    -98.0959517 -0.286154E-05  0.329E-02    0.63       1.0  T
   3    -98.0959505  0.120092E-05  0.697E-03    0.63       1.9  T
   4    -98.0959528 -0.225610E-05  0.214E-03    0.63       6.1  T
   5    -98.0959528 -0.409607E-07  0.104E-03    0.63      12.6  T
   6    -98.0959529 -0.223888E-07  0.269E-04    0.63      48.7  T
   7    -98.0959529 -0.137742E-08  0.128E-04    0.63     102.3  T
     SCC iter.                  ...        0 min,  0.026 sec
     gradient                   ...        0 min,  0.012 sec
 * total energy  :   -96.8454616 Eh     change       -0.6847214E-04 Eh
   gradient norm :     0.0034926 Eh/α   predicted    -0.4406527E-04 ( -35.64%)
   displ. norm   :     0.4963414 α      lambda       -0.1232927E-03
   maximum displ.:     0.3019712 α      in ANC's #2, #3, #6, ...

........................................................................
.............................. CYCLE   54 ..............................
........................................................................

 iter      E             dE          RMSdq      gap      omega  full diag
   1    -98.0959499 -0.980959E+02  0.757E-02    0.62       0.0  T
   2    -98.0959555 -0.558916E-05  0.436E-02    0.62       1.0  T
   3    -98.0959527  0.279502E-05  0.102E-02    0.62       1.3  T
   4    -98.0959575 -0.485004E-05  0.293E-03    0.62       4.5  T
   5    -98.0959576 -0.886116E-07  0.148E-03    0.62       8.9  T
   6    -98.0959577 -0.392020E-07  0.380E-04    0.62      34.6  T
   7    -98.0959577 -0.308090E-08  0.180E-04    0.62      73.0  T
     SCC iter.                  ...        0 min,  0.023 sec
     gradient                   ...        0 min,  0.012 sec
 * total energy  :   -96.8455667 Eh     change       -0.1051064E-03 Eh
   gradient norm :     0.0035851 Eh/α   predicted    -0.7683893E-04 ( -26.89%)
   displ. norm   :     0.5294075 α      lambda       -0.1460295E-03
   maximum displ.:     0.3286621 α      in ANC's #2, #3, #6, ...

........................................................................
.............................. CYCLE   55 ..............................
........................................................................

 iter      E             dE          RMSdq      gap      omega  full diag
   1    -98.0965150 -0.980965E+02  0.780E-02    0.61       0.0  T
   2    -98.0965219 -0.685390E-05  0.449E-02    0.62       1.0  T
   3    -98.0965176  0.423524E-05  0.120E-02    0.62       1.1  T
   4    -98.0965244 -0.677319E-05  0.314E-03    0.62       4.2  T
   5    -98.0965245 -0.121688E-06  0.165E-03    0.62       8.0  T
   6    -98.0965246 -0.405001E-07  0.422E-04    0.62      31.1  T
   7    -98.0965246 -0.420418E-08  0.196E-04    0.62      66.9  T
     SCC iter.                  ...        0 min,  0.029 sec
     gradient                   ...        0 min,  0.012 sec
 * total energy  :   -96.8456853 Eh     change       -0.1186139E-03 Eh
   gradient norm :     0.0031313 Eh/α   predicted    -0.9347961E-04 ( -21.19%)
   displ. norm   :     0.5944531 α      lambda       -0.1253859E-03
   maximum displ.:     0.3733795 α      in ANC's #2, #3, #6, ...

........................................................................
.............................. CYCLE   56 ..............................
........................................................................

 iter      E             dE          RMSdq      gap      omega  full diag
   1    -98.0948051 -0.980948E+02  0.865E-02    0.60       0.0  T
   2    -98.0948137 -0.855356E-05  0.498E-02    0.60       1.0  T
   3    -98.0948099  0.382493E-05  0.126E-02    0.60       1.0  T
   4    -98.0948167 -0.682601E-05  0.350E-03    0.60       3.7  T
   5    -98.0948168 -0.134323E-06  0.181E-03    0.60       7.3  T
   6    -98.0948169 -0.549963E-07  0.527E-04    0.60      24.9  T
   7    -98.0948169 -0.685687E-08  0.232E-04    0.60      56.7  T
     SCC iter.                  ...        0 min,  0.023 sec
     gradient                   ...        0 min,  0.012 sec
 * total energy  :   -96.8457809 Eh     change       -0.9556515E-04 Eh
   gradient norm :     0.0048942 Eh/α   predicted    -0.8484901E-04 ( -11.21%)
   displ. norm   :     0.4678744 α      lambda       -0.1735059E-03
   maximum displ.:     0.3066733 α      in ANC's #2, #3, #1, ...

........................................................................
.............................. CYCLE   57 ..............................
........................................................................

 iter      E             dE          RMSdq      gap      omega  full diag
   1    -98.0995207 -0.980995E+02  0.644E-02    0.61       0.0  T
   2    -98.0995314 -0.106663E-04  0.371E-02    0.61       1.0  T
   3    -98.0995259  0.549140E-05  0.153E-02    0.61       1.0  T
   4    -98.0995346 -0.869799E-05  0.333E-03    0.61       3.9  T
   5    -98.0995349 -0.320601E-06  0.162E-03    0.61       8.1  T
   6    -98.0995349 -0.289283E-07  0.674E-04    0.61      19.5  T
   7    -98.0995349 -0.403199E-08  0.191E-04    0.61      68.9  T
     SCC iter.                  ...        0 min,  0.024 sec
     gradient                   ...        0 min,  0.012 sec
 * total energy  :   -96.8458384 Eh     change       -0.5752974E-04 Eh
   gradient norm :     0.0049136 Eh/α   predicted    -0.1057442E-03 (  83.81%)
   displ. norm   :     0.5073485 α      lambda       -0.1431219E-03
   maximum displ.:     0.3244975 α      in ANC's #2, #3, #1, ...

........................................................................
.............................. CYCLE   58 ..............................
........................................................................

 iter      E             dE          RMSdq      gap      omega  full diag
   1    -98.0946718 -0.980947E+02  0.763E-02    0.58       0.0  T
   2    -98.0946805 -0.872579E-05  0.438E-02    0.58       1.0  T
   3    -98.0946791  0.140685E-05  0.102E-02    0.58       1.3  T
   4    -98.0946825 -0.343242E-05  0.345E-03    0.59       3.8  T
   5    -98.0946827 -0.225777E-06  0.159E-03    0.59       8.3  T
   6    -98.0946827 -0.131167E-07  0.654E-04    0.59      20.1  T
   7    -98.0946828 -0.135297E-07  0.213E-04    0.59      61.6  T
     SCC iter.                  ...        0 min,  0.031 sec
     gradient                   ...        0 min,  0.012 sec
 * total energy  :   -96.8459206 Eh     change       -0.8218226E-04 Eh
   gradient norm :     0.0054240 Eh/α   predicted    -0.8998703E-04 (   9.50%)
   displ. norm   :     0.1150141 α      lambda       -0.5980585E-04
   maximum displ.:     0.0801693 α      in ANC's #2, #3, #1, ...

........................................................................
.............................. CYCLE   59 ..............................
........................................................................

 iter      E             dE          RMSdq      gap      omega  full diag
   1    -98.0953673 -0.980954E+02  0.163E-02    0.59       0.0  T
   2    -98.0953679 -0.601288E-06  0.939E-03    0.59       1.4  T
   3    -98.0953678  0.108096E-06  0.271E-03    0.59       4.8  T
   4    -98.0953680 -0.197313E-06  0.931E-04    0.59      14.1  T
   5    -98.0953680 -0.323867E-07  0.393E-04    0.59      33.4  T
     SCC iter.                  ...        0 min,  0.017 sec
     gradient                   ...        0 min,  0.010 sec
 * total energy  :   -96.8459722 Eh     change       -0.5162368E-04 Eh
   gradient norm :     0.0041340 Eh/α   predicted    -0.3029883E-04 ( -41.31%)
   displ. norm   :     0.4167847 α      lambda       -0.1913140E-03
   maximum displ.:     0.2916843 α      in ANC's #2, #3, #4, ...

........................................................................
.............................. CYCLE   60 ..............................
........................................................................

 iter      E             dE          RMSdq      gap      omega  full diag
   1    -98.0979148 -0.980979E+02  0.586E-02    0.58       0.0  T
   2    -98.0979190 -0.417681E-05  0.340E-02    0.58       1.0  T
   3    -98.0979167  0.221270E-05  0.947E-03    0.58       1.4  T
   4    -98.0979206 -0.389433E-05  0.261E-03    0.58       5.0  T
   5    -98.0979207 -0.443627E-07  0.126E-03    0.58      10.4  T
   6    -98.0979207 -0.217179E-07  0.477E-04    0.58      27.5  T
   7    -98.0979207 -0.876993E-08  0.178E-04    0.58      73.9  T
     SCC iter.                  ...        0 min,  0.024 sec
     gradient                   ...        0 min,  0.012 sec
 * total energy  :   -96.8460928 Eh     change       -0.1206387E-03 Eh
   gradient norm :     0.0034675 Eh/α   predicted    -0.1122732E-03 (  -6.93%)
   displ. norm   :     0.6280916 α      lambda       -0.1194968E-03
   maximum displ.:     0.4348146 α      in ANC's #2, #3, #1, ...

........................................................................
.............................. CYCLE   61 ..............................
........................................................................

 iter      E             dE          RMSdq      gap      omega  full diag
   1    -98.0949774 -0.980950E+02  0.844E-02    0.56       0.0  T
   2    -98.0949860 -0.860185E-05  0.489E-02    0.57       1.0  T
   3    -98.0949815  0.454129E-05  0.135E-02    0.57       1.0  T
   4    -98.0949894 -0.790327E-05  0.352E-03    0.57       3.7  T
   5    -98.0949895 -0.937933E-07  0.179E-03    0.57       7.3  T
   6    -98.0949896 -0.581030E-07  0.510E-04    0.57      25.7  T
   7    -98.0949896 -0.496307E-08  0.240E-04    0.57      54.7  T
     SCC iter.                  ...        0 min,  0.027 sec
     gradient                   ...        0 min,  0.012 sec
 * total energy  :   -96.8461678 Eh     change       -0.7493201E-04 Eh
   gradient norm :     0.0054745 Eh/α   predicted    -0.8332420E-04 (  11.20%)
   displ. norm   :     0.2973808 α      lambda       -0.1156116E-03
   maximum displ.:     0.2099433 α      in ANC's #2, #4, #1, ...

........................................................................
.............................. CYCLE   62 ..............................
........................................................................

 iter      E             dE          RMSdq      gap      omega  full diag
   1    -98.0977794 -0.980978E+02  0.408E-02    0.59       0.0  T
   2    -98.0977867 -0.728215E-05  0.237E-02    0.58       1.0  T
   3    -98.0977851  0.162404E-05  0.115E-02    0.58       1.1  T
   4    -98.0977887 -0.360750E-05  0.263E-03    0.58       5.0  T
   5    -98.0977889 -0.251311E-06  0.113E-03    0.58      11.6  T
   6    -98.0977890 -0.230216E-07  0.571E-04    0.58      23.0  T
   7    -98.0977890 -0.147810E-08  0.171E-04    0.58      76.8  T
     SCC iter.                  ...        0 min,  0.023 sec
     gradient                   ...        0 min,  0.012 sec
 * total energy  :   -96.8462269 Eh     change       -0.5916932E-04 Eh
   gradient norm :     0.0061817 Eh/α   predicted    -0.6291846E-04 (   6.34%)
   displ. norm   :     0.5152705 α      lambda       -0.1355326E-03
   maximum displ.:     0.3693790 α      in ANC's #2, #3, #4, ...

........................................................................
.............................. CYCLE   63 ..............................
........................................................................

 iter      E             dE          RMSdq      gap      omega  full diag
   1    -98.0962187 -0.980962E+02  0.682E-02    0.55       0.0  T
   2    -98.0962283 -0.959825E-05  0.394E-02    0.56       1.0  T
   3    -98.0962273  0.918597E-06  0.102E-02    0.56       1.3  T
   4    -98.0962304 -0.301792E-05  0.323E-03    0.56       4.1  T
   5    -98.0962305 -0.171147E-06  0.163E-03    0.56       8.1  T
   6    -98.0962306 -0.269501E-07  0.760E-04    0.56      17.3  T
   7    -98.0962306 -0.174318E-07  0.185E-04    0.56      70.9  T
     SCC iter.                  ...        0 min,  0.030 sec
     gradient                   ...        0 min,  0.014 sec
 * total energy  :   -96.8463195 Eh     change       -0.9258548E-04 Eh
   gradient norm :     0.0029870 Eh/α   predicted    -0.8576248E-04 (  -7.37%)
   displ. norm   :     0.4429115 α      lambda       -0.9246843E-04
   maximum displ.:     0.3220383 α      in ANC's #2, #4, #1, ...

........................................................................
.............................. CYCLE   64 ..............................
........................................................................

 iter      E             dE          RMSdq      gap      omega  full diag
   1    -98.0953499 -0.980953E+02  0.583E-02    0.55       0.0  T
   2    -98.0953534 -0.345201E-05  0.336E-02    0.55       1.0  T
   3    -98.0953532  0.138466E-06  0.590E-03    0.55       2.2  T
   4    -98.0953545 -0.123627E-05  0.234E-03    0.56       5.6  T
   5    -98.0953545 -0.669436E-07  0.108E-03    0.56      12.2  T
   6    -98.0953545 -0.153647E-07  0.345E-04    0.55      38.0  T
   7    -98.0953546 -0.370868E-08  0.146E-04    0.55      90.2  T
     SCC iter.                  ...        0 min,  0.024 sec
     gradient                   ...        0 min,  0.013 sec
 * total energy  :   -96.8463915 Eh     change       -0.7196925E-04 Eh
   gradient norm :     0.0045102 Eh/α   predicted    -0.5530658E-04 ( -23.15%)
   displ. norm   :     0.3857009 α      lambda       -0.1402786E-03
   maximum displ.:     0.2729471 α      in ANC's #2, #4, #1, ...

........................................................................
.............................. CYCLE   65 ..............................
........................................................................

 iter      E             dE          RMSdq      gap      omega  full diag
   1    -98.0988036 -0.980988E+02  0.526E-02    0.57       0.0  T
   2    -98.0988078 -0.427135E-05  0.303E-02    0.57       1.0  T
   3    -98.0988067  0.110869E-05  0.738E-03    0.57       1.8  T
   4    -98.0988087 -0.198762E-05  0.228E-03    0.57       5.8  T
   5    -98.0988088 -0.126033E-06  0.109E-03    0.57      12.0  T
   6    -98.0988088 -0.994996E-08  0.475E-04    0.57      27.6  T
   7    -98.0988088 -0.377295E-08  0.135E-04    0.57      97.3  T
     SCC iter.                  ...        0 min,  0.024 sec
     gradient                   ...        0 min,  0.012 sec
 * total energy  :   -96.8464517 Eh     change       -0.6017620E-04 Eh
   gradient norm :     0.0053482 Eh/α   predicted    -0.8057920E-04 (  33.91%)
   displ. norm   :     0.5891097 α      lambda       -0.1259982E-03
   maximum displ.:     0.4256023 α      in ANC's #2, #4, #1, ...

........................................................................
.............................. CYCLE   66 ..............................
........................................................................

 iter      E             dE          RMSdq      gap      omega  full diag
   1    -98.0930381 -0.980930E+02  0.782E-02    0.56       0.0  T
   2    -98.0930458 -0.773037E-05  0.456E-02    0.56       1.0  T
   3    -98.0930413  0.445644E-05  0.132E-02    0.55       1.0  T
   4    -98.0930487 -0.740073E-05  0.312E-03    0.55       4.2  T
   5    -98.0930488 -0.660613E-07  0.151E-03    0.56       8.7  T
   6    -98.0930488 -0.264646E-07  0.498E-04    0.56      26.4  T
   7    -98.0930488 -0.390384E-08  0.210E-04    0.56      62.5  T
     SCC iter.                  ...        0 min,  0.028 sec
     gradient                   ...        0 min,  0.012 sec
 * total energy  :   -96.8465050 Eh     change       -0.5338088E-04 Eh
   gradient norm :     0.0052969 Eh/α   predicted    -0.8486392E-04 (  58.98%)
   displ. norm   :     0.0584731 α      lambda       -0.6826183E-04
   maximum displ.:     0.0291799 α      in ANC's #6, #7, #3, ...
 * RMSD in coord.:     0.9442204 α      energy gain  -0.1504886E-02 Eh

generating ANC from exact Hessian ...
Using Lindh-Hessian (1995)
 Shifting diagonal of input Hessian by    9.8945707460597072E-003
 Lowest  eigenvalues of input Hessian
    0.000000    0.000000    0.000000    0.000000    0.000000    0.000000
    0.010000    0.010081    0.010214    0.010396    0.010806    0.011019
    0.011251    0.011326    0.011722    0.012492    0.014027    0.014859
 Highest eigenvalues
    2.035573    2.115218    2.123947    2.295509    2.370253    2.673862


........................................................................
.............................. CYCLE   67 ..............................
........................................................................

 iter      E             dE          RMSdq      gap      omega  full diag
   1    -98.0964348 -0.980964E+02  0.156E-02    0.57       0.0  T
   2    -98.0964372 -0.234317E-05  0.907E-03    0.57       1.4  T
   3    -98.0964372 -0.788965E-07  0.449E-03    0.57       2.9  T
   4    -98.0964374 -0.185373E-06  0.129E-03    0.57      10.2  T
   5    -98.0964375 -0.478033E-07  0.513E-04    0.57      25.6  T
   6    -98.0964375 -0.102576E-07  0.263E-04    0.57      50.0  T
     SCC iter.                  ...        0 min,  0.025 sec
     gradient                   ...        0 min,  0.014 sec
 * total energy  :   -96.8465329 Eh     change       -0.2784155E-04 Eh
   gradient norm :     0.0049436 Eh/α   predicted     0.0000000E+00 (-100.00%)
   displ. norm   :     0.0241575 α      lambda       -0.3375873E-04
   maximum displ.:     0.0096142 α      in ANC's #2, #7, #8, ...

........................................................................
.............................. CYCLE   68 ..............................
........................................................................

 iter      E             dE          RMSdq      gap      omega  full diag
   1    -98.0978115 -0.980978E+02  0.899E-03    0.56       0.0  T
   2    -98.0978121 -0.567779E-06  0.544E-03    0.56       2.4  T
   3    -98.0978121 -0.125822E-07  0.277E-03    0.56       4.7  T
   4    -98.0978122 -0.112256E-06  0.538E-04    0.56      24.4  T
   5    -98.0978122 -0.583245E-08  0.235E-04    0.56      55.8  T
     SCC iter.                  ...        0 min,  0.017 sec
     gradient                   ...        0 min,  0.011 sec
 * total energy  :   -96.8465550 Eh     change       -0.2209868E-04 Eh
   gradient norm :     0.0017767 Eh/α   predicted    -0.1888146E-04 ( -14.56%)
   displ. norm   :     0.0575981 α      lambda       -0.2444318E-04
   maximum displ.:     0.0256958 α      in ANC's #2, #7, #19, ...

........................................................................
.............................. CYCLE   69 ..............................
........................................................................

 iter      E             dE          RMSdq      gap      omega  full diag
   1    -98.0995564 -0.980996E+02  0.156E-02    0.56       0.0  T
   2    -98.0995577 -0.137332E-05  0.932E-03    0.56       1.4  T
   3    -98.0995577  0.799558E-07  0.457E-03    0.56       2.9  T
   4    -98.0995580 -0.391731E-06  0.834E-04    0.56      15.7  T
   5    -98.0995581 -0.141250E-07  0.362E-04    0.56      36.2  T
     SCC iter.                  ...        0 min,  0.017 sec
     gradient                   ...        0 min,  0.012 sec
 * total energy  :   -96.8465560 Eh     change       -0.1011552E-05 Eh
   gradient norm :     0.0041577 Eh/α   predicted    -0.1225139E-04 (1111.15%)
   displ. norm   :     0.0160828 α      lambda       -0.2051275E-04
   maximum displ.:     0.0075657 α      in ANC's #2, #7, #8, ...

........................................................................
.............................. CYCLE   70 ..............................
........................................................................

 iter      E             dE          RMSdq      gap      omega  full diag
   1    -98.0990171 -0.980990E+02  0.530E-03    0.56       0.0  T
   2    -98.0990172 -0.109063E-06  0.313E-03    0.56       4.2  T
   3    -98.0990172  0.218394E-07  0.132E-03    0.56       9.9  T
   4    -98.0990172 -0.445863E-07  0.239E-04    0.56      54.9  T
   5    -98.0990172 -0.107234E-08  0.105E-04    0.56     124.6  T
     SCC iter.                  ...        0 min,  0.020 sec
     gradient                   ...        0 min,  0.012 sec
 * total energy  :   -96.8465718 Eh     change       -0.1579034E-04 Eh
   gradient norm :     0.0023943 Eh/α   predicted    -0.1026111E-04 ( -35.02%)
   displ. norm   :     0.0497901 α      lambda       -0.2126140E-04
   maximum displ.:     0.0251087 α      in ANC's #2, #7, #8, ...

........................................................................
.............................. CYCLE   71 ..............................
........................................................................

 iter      E             dE          RMSdq      gap      omega  full diag
   1    -98.0982179 -0.980982E+02  0.116E-02    0.57       0.0  T
   2    -98.0982181 -0.278257E-06  0.686E-03    0.56       1.9  T
   3    -98.0982180  0.102932E-06  0.223E-03    0.56       5.9  T
   4    -98.0982182 -0.159374E-06  0.371E-04    0.56      35.4  T
   5    -98.0982182 -0.220132E-08  0.188E-04    0.56      69.8  T
     SCC iter.                  ...        0 min,  0.017 sec
     gradient                   ...        0 min,  0.011 sec
 * total energy  :   -96.8465861 Eh     change       -0.1429635E-04 Eh
   gradient norm :     0.0007974 Eh/α   predicted    -0.1066495E-04 ( -25.40%)
   displ. norm   :     0.1005474 α      lambda       -0.1266651E-04
   maximum displ.:     0.0511118 α      in ANC's #2, #7, #8, ...

........................................................................
.............................. CYCLE   72 ..............................
........................................................................

 iter      E             dE          RMSdq      gap      omega  full diag
   1    -98.0976262 -0.980976E+02  0.211E-02    0.57       0.0  T
   2    -98.0976265 -0.314311E-06  0.124E-02    0.57       1.1  T
   3    -98.0976263  0.177029E-06  0.243E-03    0.57       5.4  T
   4    -98.0976266 -0.258033E-06  0.500E-04    0.56      26.2  T
   5    -98.0976266 -0.280872E-08  0.300E-04    0.56      43.8  T
     SCC iter.                  ...        0 min,  0.016 sec
     gradient                   ...        0 min,  0.012 sec
 * total energy  :   -96.8466001 Eh     change       -0.1404248E-04 Eh
   gradient norm :     0.0019443 Eh/α   predicted    -0.6362148E-05 ( -54.69%)
   displ. norm   :     0.1540386 α      lambda       -0.1765785E-04
   maximum displ.:     0.0789814 α      in ANC's #2, #7, #8, ...

........................................................................
.............................. CYCLE   73 ..............................
........................................................................

 iter      E             dE          RMSdq      gap      omega  full diag
   1    -98.0974989 -0.980975E+02  0.315E-02    0.57       0.0  T
   2    -98.0974993 -0.394743E-06  0.185E-02    0.57       1.0  T
   3    -98.0974989  0.340427E-06  0.297E-03    0.57       4.4  T
   4    -98.0974994 -0.478544E-06  0.713E-04    0.57      18.4  T
   5    -98.0974994 -0.869804E-08  0.410E-04    0.57      32.0  T
     SCC iter.                  ...        0 min,  0.021 sec
     gradient                   ...        0 min,  0.013 sec
 * total energy  :   -96.8466212 Eh     change       -0.2103911E-04 Eh
   gradient norm :     0.0017955 Eh/α   predicted    -0.8930886E-05 ( -57.55%)
   displ. norm   :     0.1889526 α      lambda       -0.1754402E-04
   maximum displ.:     0.1017240 α      in ANC's #2, #7, #4, ...

........................................................................
.............................. CYCLE   74 ..............................
........................................................................

 iter      E             dE          RMSdq      gap      omega  full diag
   1    -98.0978568 -0.980979E+02  0.381E-02    0.57       0.0  T
   2    -98.0978573 -0.469597E-06  0.223E-02    0.57       1.0  T
   3    -98.0978569  0.396519E-06  0.320E-03    0.57       4.1  T
   4    -98.0978574 -0.567123E-06  0.800E-04    0.57      16.4  T
   5    -98.0978574 -0.103722E-07  0.443E-04    0.57      29.7  T
     SCC iter.                  ...        0 min,  0.018 sec
     gradient                   ...        0 min,  0.011 sec
 * total energy  :   -96.8466395 Eh     change       -0.1832456E-04 Eh
   gradient norm :     0.0007789 Eh/α   predicted    -0.8914751E-05 ( -51.35%)
   displ. norm   :     0.1078921 α      lambda       -0.6988397E-05
   maximum displ.:     0.0645639 α      in ANC's #2, #7, #4, ...

........................................................................
.............................. CYCLE   75 ..............................
........................................................................

 iter      E             dE          RMSdq      gap      omega  full diag
   1    -98.0982920 -0.980983E+02  0.209E-02    0.57       0.0  T
   2    -98.0982921 -0.102599E-06  0.122E-02    0.57       1.1  T
   3    -98.0982921  0.342873E-07  0.120E-03    0.57      11.0  T
   4    -98.0982922 -0.693056E-07  0.362E-04    0.57      36.3  T
   5    -98.0982922 -0.103000E-08  0.192E-04    0.57      68.5  T
     SCC iter.                  ...        0 min,  0.016 sec
     gradient                   ...        0 min,  0.011 sec
 * total energy  :   -96.8466477 Eh     change       -0.8220589E-05 Eh
   gradient norm :     0.0005255 Eh/α   predicted    -0.3513392E-05 ( -57.26%)
   displ. norm   :     0.0796712 α      lambda       -0.5760412E-05
   maximum displ.:     0.0519616 α      in ANC's #2, #1, #4, ...

........................................................................
.............................. CYCLE   76 ..............................
........................................................................

 iter      E             dE          RMSdq      gap      omega  full diag
   1    -98.0985874 -0.980986E+02  0.144E-02    0.57       0.0  T
   2    -98.0985874 -0.525906E-07  0.842E-03    0.57       1.6  T
   3    -98.0985874  0.268121E-07  0.926E-04    0.57      14.2  T
   4    -98.0985874 -0.447385E-07  0.272E-04    0.57      48.3  T
     SCC iter.                  ...        0 min,  0.015 sec
     gradient                   ...        0 min,  0.012 sec
 * total energy  :   -96.8466552 Eh     change       -0.7505830E-05 Eh
   gradient norm :     0.0006561 Eh/α   predicted    -0.2889352E-05 ( -61.51%)
   displ. norm   :     0.0979189 α      lambda       -0.8154871E-05
   maximum displ.:     0.0648294 α      in ANC's #2, #1, #4, ...

........................................................................
.............................. CYCLE   77 ..............................
........................................................................

 iter      E             dE          RMSdq      gap      omega  full diag
   1    -98.0986686 -0.980987E+02  0.165E-02    0.58       0.0  T
   2    -98.0986687 -0.115875E-06  0.963E-03    0.58       1.4  T
   3    -98.0986686  0.127326E-06  0.173E-03    0.58       7.6  T
   4    -98.0986688 -0.175490E-06  0.425E-04    0.58      30.9  T
   5    -98.0986688 -0.203075E-08  0.211E-04    0.58      62.2  T
     SCC iter.                  ...        0 min,  0.022 sec
     gradient                   ...        0 min,  0.011 sec
 * total energy  :   -96.8466660 Eh     change       -0.1073725E-04 Eh
   gradient norm :     0.0007609 Eh/α   predicted    -0.4096198E-05 ( -61.85%)
   displ. norm   :     0.1465481 α      lambda       -0.1168994E-04
   maximum displ.:     0.0961442 α      in ANC's #2, #1, #4, ...

........................................................................
.............................. CYCLE   78 ..............................
........................................................................

 iter      E             dE          RMSdq      gap      omega  full diag
   1    -98.0985080 -0.980985E+02  0.233E-02    0.58       0.0  T
   2    -98.0985083 -0.299138E-06  0.136E-02    0.58       1.0  T
   3    -98.0985080  0.333015E-06  0.280E-03    0.58       4.7  T
   4    -98.0985084 -0.460362E-06  0.702E-04    0.58      18.7  T
   5    -98.0985084 -0.559793E-08  0.352E-04    0.58      37.3  T
     SCC iter.                  ...        0 min,  0.017 sec
     gradient                   ...        0 min,  0.012 sec
 * total energy  :   -96.8466811 Eh     change       -0.1512823E-04 Eh
   gradient norm :     0.0008518 Eh/α   predicted    -0.5903709E-05 ( -60.98%)
   displ. norm   :     0.1893124 α      lambda       -0.1368124E-04
   maximum displ.:     0.1240782 α      in ANC's #2, #1, #4, ...

........................................................................
.............................. CYCLE   79 ..............................
........................................................................

 iter      E             dE          RMSdq      gap      omega  full diag
   1    -98.0982145 -0.980982E+02  0.288E-02    0.58       0.0  T
   2    -98.0982150 -0.501295E-06  0.168E-02    0.58       1.0  T
   3    -98.0982146  0.478536E-06  0.346E-03    0.58       3.8  T
   4    -98.0982152 -0.688304E-06  0.942E-04    0.58      13.9  T
   5    -98.0982153 -0.110613E-07  0.474E-04    0.58      27.7  T
     SCC iter.                  ...        0 min,  0.018 sec
     gradient                   ...        0 min,  0.012 sec
 * total energy  :   -96.8466986 Eh     change       -0.1752537E-04 Eh
   gradient norm :     0.0008705 Eh/α   predicted    -0.6952211E-05 ( -60.33%)
   displ. norm   :     0.2092480 α      lambda       -0.1392547E-04
   maximum displ.:     0.1380856 α      in ANC's #2, #1, #4, ...

........................................................................
.............................. CYCLE   80 ..............................
........................................................................

 iter      E             dE          RMSdq      gap      omega  full diag
   1    -98.0979994 -0.980980E+02  0.300E-02    0.57       0.0  T
   2    -98.0979999 -0.545998E-06  0.176E-02    0.58       1.0  T
   3    -98.0979994  0.521519E-06  0.363E-03    0.58       3.6  T
   4    -98.0980002 -0.756962E-06  0.101E-03    0.58      13.0  T
   5    -98.0980002 -0.118086E-07  0.503E-04    0.58      26.1  T
   6    -98.0980002 -0.246699E-08  0.154E-04    0.58      85.1  T
     SCC iter.                  ...        0 min,  0.024 sec
     gradient                   ...        0 min,  0.011 sec
 * total energy  :   -96.8467161 Eh     change       -0.1751974E-04 Eh
   gradient norm :     0.0009046 Eh/α   predicted    -0.7102868E-05 ( -59.46%)
   displ. norm   :     0.1998659 α      lambda       -0.1274898E-04
   maximum displ.:     0.1342588 α      in ANC's #2, #1, #4, ...

........................................................................
.............................. CYCLE   81 ..............................
........................................................................

 iter      E             dE          RMSdq      gap      omega  full diag
   1    -98.0979834 -0.980980E+02  0.273E-02    0.58       0.0  T
   2    -98.0979839 -0.473950E-06  0.160E-02    0.58       1.0  T
   3    -98.0979834  0.431661E-06  0.331E-03    0.58       4.0  T
   4    -98.0979841 -0.634169E-06  0.948E-04    0.58      13.8  T
   5    -98.0979841 -0.118380E-07  0.474E-04    0.58      27.7  T
     SCC iter.                  ...        0 min,  0.017 sec
     gradient                   ...        0 min,  0.011 sec
 * total energy  :   -96.8467318 Eh     change       -0.1570962E-04 Eh
   gradient norm :     0.0007058 Eh/α   predicted    -0.6491352E-05 ( -58.68%)
   displ. norm   :     0.1912132 α      lambda       -0.1114718E-04
   maximum displ.:     0.1298968 α      in ANC's #2, #1, #4, ...

........................................................................
.............................. CYCLE   82 ..............................
........................................................................

 iter      E             dE          RMSdq      gap      omega  full diag
   1    -98.0978834 -0.980979E+02  0.250E-02    0.58       0.0  T
   2    -98.0978837 -0.332300E-06  0.147E-02    0.58       1.0  T
   3    -98.0978834  0.325407E-06  0.288E-03    0.58       4.6  T
   4    -98.0978839 -0.474249E-06  0.791E-04    0.58      16.6  T
   5    -98.0978839 -0.600308E-08  0.403E-04    0.58      32.6  T
     SCC iter.                  ...        0 min,  0.017 sec
     gradient                   ...        0 min,  0.013 sec
 * total energy  :   -96.8467457 Eh     change       -0.1385874E-04 Eh
   gradient norm :     0.0007901 Eh/α   predicted    -0.5665227E-05 ( -59.12%)
   displ. norm   :     0.1857692 α      lambda       -0.1130769E-04
   maximum displ.:     0.1293478 α      in ANC's #2, #1, #4, ...

........................................................................
.............................. CYCLE   83 ..............................
........................................................................

 iter      E             dE          RMSdq      gap      omega  full diag
   1    -98.0982706 -0.980983E+02  0.231E-02    0.58       0.0  T
   2    -98.0982709 -0.277759E-06  0.135E-02    0.58       1.0  T
   3    -98.0982707  0.201450E-06  0.244E-03    0.58       5.4  T
   4    -98.0982710 -0.324967E-06  0.731E-04    0.58      18.0  T
   5    -98.0982711 -0.373105E-08  0.368E-04    0.58      35.6  T
     SCC iter.                  ...        0 min,  0.027 sec
     gradient                   ...        0 min,  0.012 sec
 * total energy  :   -96.8467597 Eh     change       -0.1400307E-04 Eh
   gradient norm :     0.0006016 Eh/α   predicted    -0.5742268E-05 ( -58.99%)
   displ. norm   :     0.2379625 α      lambda       -0.1266474E-04
   maximum displ.:     0.1633073 α      in ANC's #2, #1, #4, ...

........................................................................
.............................. CYCLE   84 ..............................
........................................................................

 iter      E             dE          RMSdq      gap      omega  full diag
   1    -98.0977322 -0.980977E+02  0.304E-02    0.58       0.0  T
   2    -98.0977327 -0.487211E-06  0.178E-02    0.58       1.0  T
   3    -98.0977324  0.262006E-06  0.290E-03    0.58       4.5  T
   4    -98.0977329 -0.433290E-06  0.897E-04    0.58      14.6  T
   5    -98.0977329 -0.108100E-07  0.469E-04    0.58      28.0  T
     SCC iter.                  ...        0 min,  0.018 sec
     gradient                   ...        0 min,  0.012 sec
 * total energy  :   -96.8467749 Eh     change       -0.1515769E-04 Eh
   gradient norm :     0.0013693 Eh/α   predicted    -0.6495618E-05 ( -57.15%)
   displ. norm   :     0.2533017 α      lambda       -0.1582336E-04
   maximum displ.:     0.1778952 α      in ANC's #2, #1, #3, ...

........................................................................
.............................. CYCLE   85 ..............................
........................................................................

 iter      E             dE          RMSdq      gap      omega  full diag
   1    -98.0980691 -0.980981E+02  0.298E-02    0.58       0.0  T
   2    -98.0980695 -0.411375E-06  0.174E-02    0.57       1.0  T
   3    -98.0980693  0.158554E-06  0.261E-03    0.57       5.0  T
   4    -98.0980696 -0.322889E-06  0.829E-04    0.57      15.8  T
   5    -98.0980697 -0.215776E-08  0.423E-04    0.57      31.0  T
     SCC iter.                  ...        0 min,  0.019 sec
     gradient                   ...        0 min,  0.013 sec
 * total energy  :   -96.8467944 Eh     change       -0.1958876E-04 Eh
   gradient norm :     0.0010818 Eh/α   predicted    -0.8138111E-05 ( -58.46%)
   displ. norm   :     0.3207891 α      lambda       -0.1780683E-04
   maximum displ.:     0.2253486 α      in ANC's #2, #1, #3, ...

........................................................................
.............................. CYCLE   86 ..............................
........................................................................

 iter      E             dE          RMSdq      gap      omega  full diag
   1    -98.0979580 -0.980980E+02  0.375E-02    0.57       0.0  T
   2    -98.0979587 -0.686355E-06  0.220E-02    0.57       1.0  T
   3    -98.0979584  0.287971E-06  0.325E-03    0.57       4.0  T
   4    -98.0979590 -0.545839E-06  0.107E-03    0.57      12.3  T
   5    -98.0979590 -0.106496E-07  0.526E-04    0.57      25.0  T
   6    -98.0979590 -0.486769E-08  0.148E-04    0.57      88.9  T
     SCC iter.                  ...        0 min,  0.026 sec
     gradient                   ...        0 min,  0.012 sec
 * total energy  :   -96.8468165 Eh     change       -0.2208299E-04 Eh
   gradient norm :     0.0010624 Eh/α   predicted    -0.9312874E-05 ( -57.83%)
   displ. norm   :     0.3422934 α      lambda       -0.1929609E-04
   maximum displ.:     0.2427041 α      in ANC's #2, #1, #3, ...

........................................................................
.............................. CYCLE   87 ..............................
........................................................................

 iter      E             dE          RMSdq      gap      omega  full diag
   1    -98.0982844 -0.980983E+02  0.380E-02    0.57       0.0  T
   2    -98.0982851 -0.771042E-06  0.222E-02    0.57       1.0  T
   3    -98.0982847  0.410913E-06  0.364E-03    0.57       3.6  T
   4    -98.0982854 -0.706837E-06  0.112E-03    0.57      11.7  T
   5    -98.0982854 -0.113669E-07  0.565E-04    0.57      23.3  T
   6    -98.0982854 -0.621813E-08  0.157E-04    0.57      83.7  T
     SCC iter.                  ...        0 min,  0.022 sec
     gradient                   ...        0 min,  0.012 sec
 * total energy  :   -96.8468388 Eh     change       -0.2222536E-04 Eh
   gradient norm :     0.0007181 Eh/α   predicted    -0.1015229E-04 ( -54.32%)
   displ. norm   :     0.3408254 α      lambda       -0.1336761E-04
   maximum displ.:     0.2421057 α      in ANC's #2, #1, #3, ...

........................................................................
.............................. CYCLE   88 ..............................
........................................................................

 iter      E             dE          RMSdq      gap      omega  full diag
   1    -98.0977157 -0.980977E+02  0.379E-02    0.57       0.0  T
   2    -98.0977166 -0.851135E-06  0.221E-02    0.57       1.0  T
   3    -98.0977161  0.516539E-06  0.382E-03    0.57       3.4  T
   4    -98.0977169 -0.830970E-06  0.119E-03    0.57      11.0  T
   5    -98.0977169 -0.185916E-07  0.578E-04    0.57      22.7  T
   6    -98.0977169 -0.408974E-08  0.181E-04    0.57      72.6  T
     SCC iter.                  ...        0 min,  0.029 sec
     gradient                   ...        0 min,  0.012 sec
 * total energy  :   -96.8468531 Eh     change       -0.1438559E-04 Eh
   gradient norm :     0.0011953 Eh/α   predicted    -0.7030593E-05 ( -51.13%)
   displ. norm   :     0.2482331 α      lambda       -0.1240545E-04
   maximum displ.:     0.1777196 α      in ANC's #2, #1, #3, ...

........................................................................
.............................. CYCLE   89 ..............................
........................................................................

 iter      E             dE          RMSdq      gap      omega  full diag
   1    -98.0987556 -0.980988E+02  0.261E-02    0.57       0.0  T
   2    -98.0987561 -0.518489E-06  0.152E-02    0.57       1.0  T
   3    -98.0987558  0.290815E-06  0.294E-03    0.57       4.5  T
   4    -98.0987563 -0.472418E-06  0.924E-04    0.57      14.2  T
   5    -98.0987563 -0.139584E-07  0.463E-04    0.57      28.4  T
     SCC iter.                  ...        0 min,  0.017 sec
     gradient                   ...        0 min,  0.012 sec
 * total energy  :   -96.8468641 Eh     change       -0.1096181E-04 Eh
   gradient norm :     0.0010821 Eh/α   predicted    -0.6375456E-05 ( -41.84%)
   displ. norm   :     0.2888127 α      lambda       -0.9129883E-05
   maximum displ.:     0.2058424 α      in ANC's #2, #1, #3, ...

........................................................................
.............................. CYCLE   90 ..............................
........................................................................

 iter      E             dE          RMSdq      gap      omega  full diag
   1    -98.0980444 -0.980980E+02  0.318E-02    0.56       0.0  T
   2    -98.0980452 -0.747580E-06  0.185E-02    0.56       1.0  T
   3    -98.0980448  0.351961E-06  0.356E-03    0.56       3.7  T
   4    -98.0980454 -0.617353E-06  0.110E-03    0.56      12.0  T
   5    -98.0980455 -0.142138E-07  0.527E-04    0.56      24.9  T
   6    -98.0980455 -0.251605E-08  0.181E-04    0.56      72.7  T
     SCC iter.                  ...        0 min,  0.020 sec
     gradient                   ...        0 min,  0.013 sec
 * total energy  :   -96.8468731 Eh     change       -0.9020711E-05 Eh
   gradient norm :     0.0011258 Eh/α   predicted    -0.4735326E-05 ( -47.51%)
   displ. norm   :     0.1583808 α      lambda       -0.6758085E-05
   maximum displ.:     0.1132568 α      in ANC's #2, #1, #3, ...

........................................................................
.............................. CYCLE   91 ..............................
........................................................................

 iter      E             dE          RMSdq      gap      omega  full diag
   1    -98.0980638 -0.980981E+02  0.175E-02    0.56       0.0  T
   2    -98.0980640 -0.195825E-06  0.102E-02    0.56       1.3  T
   3    -98.0980638  0.156934E-06  0.205E-03    0.56       6.4  T
   4    -98.0980641 -0.241818E-06  0.605E-04    0.56      21.7  T
   5    -98.0980641 -0.382988E-08  0.277E-04    0.56      47.4  T
     SCC iter.                  ...        0 min,  0.022 sec
     gradient                   ...        0 min,  0.012 sec
 * total energy  :   -96.8468815 Eh     change       -0.8390204E-05 Eh
   gradient norm :     0.0008569 Eh/α   predicted    -0.3418690E-05 ( -59.25%)
   displ. norm   :     0.2544022 α      lambda       -0.1106547E-04
   maximum displ.:     0.1803387 α      in ANC's #2, #1, #3, ...

........................................................................
.............................. CYCLE   92 ..............................
........................................................................

 iter      E             dE          RMSdq      gap      omega  full diag
   1    -98.0985072 -0.980985E+02  0.287E-02    0.56       0.0  T
   2    -98.0985077 -0.566778E-06  0.168E-02    0.56       1.0  T
   3    -98.0985074  0.325468E-06  0.320E-03    0.56       4.1  T
   4    -98.0985080 -0.551941E-06  0.104E-03    0.56      12.6  T
   5    -98.0985080 -0.138922E-07  0.505E-04    0.56      26.0  T
   6    -98.0985080 -0.306376E-08  0.162E-04    0.56      80.8  T
     SCC iter.                  ...        0 min,  0.020 sec
     gradient                   ...        0 min,  0.011 sec
 * total energy  :   -96.8468920 Eh     change       -0.1053409E-04 Eh
   gradient norm :     0.0004158 Eh/α   predicted    -0.5693874E-05 ( -45.95%)
   displ. norm   :     0.1515555 α      lambda       -0.2787943E-05
   maximum displ.:     0.1094793 α      in ANC's #2, #1, #3, ...
 * RMSD in coord.:     0.5479774 α      energy gain  -0.3870003E-03 Eh

generating ANC from exact Hessian ...
Using Lindh-Hessian (1995)
 Shifting diagonal of input Hessian by    9.8935157909257054E-003
 Lowest  eigenvalues of input Hessian
    0.000000    0.000000    0.000000    0.000000    0.000000    0.000000
    0.010000    0.010071    0.010200    0.010393    0.010831    0.011007
    0.011257    0.011337    0.011718    0.012525    0.013901    0.014815
 Highest eigenvalues
    2.040401    2.116571    2.123968    2.295962    2.372744    2.670948


........................................................................
.............................. CYCLE   93 ..............................
........................................................................

 iter      E             dE          RMSdq      gap      omega  full diag
   1    -98.0982964 -0.980983E+02  0.179E-02    0.56       0.0  T
   2    -98.0982966 -0.183020E-06  0.105E-02    0.56       1.2  T
   3    -98.0982964  0.155920E-06  0.201E-03    0.56       6.5  T
   4    -98.0982966 -0.226187E-06  0.553E-04    0.56      23.7  T
   5    -98.0982966 -0.486681E-08  0.288E-04    0.56      45.5  T
     SCC iter.                  ...        0 min,  0.020 sec
     gradient                   ...        0 min,  0.012 sec
 * total energy  :   -96.8468948 Eh     change       -0.2779568E-05 Eh
   gradient norm :     0.0005709 Eh/α   predicted     0.0000000E+00 (-100.00%)
   displ. norm   :     0.0099913 α      lambda       -0.1194936E-05
   maximum displ.:     0.0051883 α      in ANC's #7, #11, #2, ...

   *** GEOMETRY OPTIMIZATION CONVERGED AFTER 93 ITERATIONS ***

------------------------------------------------------------------------
 total energy gain   :        -0.0279507 Eh      -17.5393 kcal/mol
 total RMSD          :         2.5534593 a0        1.3512 Å
 total power (kW/mol):        -0.7890819 (step)  -17.8382 (real)
------------------------------------------------------------------------

 ANCopt (total)                0 d,  0 h,  0 min,  4.114 sec
 optimizer setup                ...        0 min,  0.000 sec (  0.011%)
 model hessian                  ...        0 min,  0.193 sec (  4.698%)
 ANC generation                 ...        0 min,  0.014 sec (  0.331%)
 coordinate transformation      ...        0 min,  0.003 sec (  0.077%)
 single point calculation       ...        0 min,  3.827 sec ( 93.036%)
 optimization log               ...        0 min,  0.040 sec (  0.970%)
 hessian update                 ...        0 min,  0.011 sec (  0.265%)
 rational function              ...        0 min,  0.017 sec (  0.406%)

================
 final structure:
================
58
 xtb: 6.7.1 (edcfbbe)
C            7.13851364816552       -1.80921450512997       -0.65559960365316
C            6.14683863786893       -0.86865139409055       -1.20746428048049
O            6.02371337936949       -0.72252288386237       -2.51931465555233
N            5.06959737093583        0.20929871939056       -2.80575568273789
C            4.57697615024419        0.63519988055323       -1.68167822982315
C            3.64847542061114        1.81163693154858       -1.56224439656966
O            4.12414348311525        2.92897611418497       -1.57714578738767
N            2.35076050438734        1.52288600852287       -1.43088826722553
C            1.83889788967169        0.17340569392030       -1.30058646775724
C            0.31956557191435        0.20408392059329       -1.48315905556491
N           -0.36262518524983        1.02078785944422       -0.49236711886448
C           -0.86266235722531        0.26266331382202        0.64952741119646
C           -1.63792355710144        1.16000294441022        1.58965855576350
C           -1.47250115347122        1.05628483021741        2.96423651368118
C           -2.21398005934234        1.83391348594689        3.83165604486897
C           -3.14065163358280        2.74081376477018        3.33039998865727
O           -3.85364149247062        3.49429882334445        4.21306335528565
C           -3.31073960625700        2.85282348769212        1.95536907510636
C           -2.56914272929098        2.06417610160847        1.09734136268513
C           -1.80899738347431       -0.83696596799633        0.22300527467570
C           -1.86621532456837       -2.02636254637644        0.93913318344905
C           -2.76751430130701       -3.01346976121643        0.60321332988782
C           -3.64699989642705       -2.84845248523356       -0.47108773481949
N           -4.48864198599069       -3.88263200302327       -0.81737159660763
C           -5.61540598961799       -3.69455559847980       -1.69717484801882
C           -3.58755119467149       -1.65230145560585       -1.18939795322425
C           -2.68549050373610       -0.66743396396896       -0.84035730082656
C            0.45818060172048        2.14835781294965       -0.05881665273934
C            1.40343882572188        2.58877239081388       -1.16556376671717
C            5.23082351217229       -0.02849230585598       -0.59574768712230
N            4.94984511752663        0.09216524819839        0.78174644543990
O            3.92246060090933        0.66030792501873        1.09281246851208
O            5.73384453381360       -0.41240869091169        1.55980640689018
H            7.40049983478864       -2.55407052747864       -1.40194594412238
H            6.74836229529118       -2.27806485559906        0.24527472652502
H            8.03798555735989       -1.26178516845574       -0.37152584870389
H            2.07987919808153       -0.22305007559290       -0.30525011397250
H            2.29338916930133       -0.47029733480682       -2.05923724502047
H           -0.07200224895928       -0.81344805263313       -1.43893717764466
H            0.09555756589824        0.60390568051500       -2.47855062701517
H           -0.02739426022459       -0.18950187749884        1.21922035003306
H           -0.75197071481046        0.35917113622175        3.36709659533854
H           -2.08768326259871        1.75640518062915        4.89984450617482
H           -4.45196872412176        4.07864467588430        3.73218428569756
H           -4.02943071364846        3.55907964877987        1.55903471948126
H           -2.70550036453184        2.15488040867259        0.03148258360119
H           -1.19954039666049       -2.18035817358595        1.77603750886611
H           -2.79914535990690       -3.93150093851454        1.17382133927125
H           -4.62738681120959       -4.56444363244564       -0.08689532776147
H           -5.26421896903177       -3.40303803507902       -2.68831080039886
H           -6.14844258983220       -4.63845223598509       -1.79015069984488
H           -6.31440703494445       -2.92941383271403       -1.33516686213803
H           -4.25085137110565       -1.48592552448373       -2.02310235661515
H           -2.64941563828060        0.24781896622641       -1.40999732652721
H            1.06032435942480        1.89026609308737        0.82779375544837
H           -0.20132825997776        2.97620940073588        0.21403093910036
H            0.84467663126256        2.83166578202062       -2.07496785243241
H            1.97462121410755        3.46791159686428       -0.86102645755071

 Bond Distances (Angstroems)
 ---------------------------
C1-C2=1.4740         C1-H34=1.0865        C1-H35=1.0879        C1-H36=1.0906        C2-C1=1.4740         C2-O3=1.3257         
C2-C30=1.3853        O3-C2=1.3257         O3-N4=1.3641         N4-O3=1.3641         N4-C5=1.2991         C5-N4=1.2991         
C5-C6=1.5035         C5-C30=1.4308        C6-C5=1.5035         C6-O7=1.2145         C6-N8=1.3359         O7-C6=1.2145         
N8-C6=1.3359         N8-C9=1.4492         N8-C29=1.4505        C9-N8=1.4492         C9-C10=1.5306        C9-H37=1.0982        
C9-H38=1.0938        C10-C9=1.5306        C10-N11=1.4540       C10-H39=1.0912       C10-H40=1.0958       N11-C10=1.4540       
N11-C12=1.4590       N11-C28=1.4605       C12-N11=1.4590       C12-C13=1.5133       C12-C20=1.5122       C12-H41=1.1076       
C13-C12=1.5133       C13-C14=1.3884       C13-C19=1.3882       C14-C13=1.3884       C14-C15=1.3809       C14-H42=1.0805       
C15-C14=1.3809       C15-C16=1.3901       C15-H43=1.0784       C16-C15=1.3901       C16-O17=1.3621       C16-C18=1.3900       
O17-C16=1.3621       O17-H44=0.9647       C18-C16=1.3900       C18-C19=1.3814       C18-H45=1.0828       C19-C13=1.3882       
C19-C18=1.3814       C19-H46=1.0784       C20-C12=1.5122       C20-C21=1.3895       C20-C27=1.3884       C21-C20=1.3895       
C21-C22=1.3782       C21-H47=1.0810       C22-C21=1.3782       C22-C23=1.3982       C22-H48=1.0814       C23-C22=1.3982       
C23-N24=1.3776       C23-C26=1.3965       N24-C23=1.3776       N24-C25=1.4419       N24-H49=1.0088       C25-N24=1.4419       
C25-H50=1.0912       C25-H51=1.0880       C25-H52=1.0978       C26-C23=1.3965       C26-C27=1.3804       C26-H53=1.0783       
C27-C20=1.3884       C27-C26=1.3804       C27-H54=1.0786       C28-N11=1.4605       C28-C29=1.5206       C28-H55=1.1024       
C28-H56=1.0930       C29-N8=1.4505        C29-C28=1.5206       C29-H57=1.0946       C29-H58=1.0917       C30-C2=1.3853        
C30-C5=1.4308        C30-N31=1.4110       N31-C30=1.4110       N31-O32=1.2145       N31-O33=1.2143       O32-N31=1.2145       
O33-N31=1.2143       H34-C1=1.0865        H35-C1=1.0879        H36-C1=1.0906        H37-C9=1.0982        H38-C9=1.0938        
H39-C10=1.0912       H40-C10=1.0958       H41-C12=1.1076       H42-C14=1.0805       H43-C15=1.0784       H44-O17=0.9647       
H45-C18=1.0828       H46-C19=1.0784       H47-C21=1.0810       H48-C22=1.0814       H49-N24=1.0088       H50-C25=1.0912       
H51-C25=1.0880       H52-C25=1.0978       H53-C26=1.0783       H54-C27=1.0786       H55-C28=1.1024       H56-C28=1.0930       
H57-C29=1.0946       H58-C29=1.0917       
 C  H  Rav=1.0891 sigma=0.0081  Rmin=1.0783  Rmax=1.1076    23
 C  C  Rav=1.4260 sigma=0.0562  Rmin=1.3782  Rmax=1.5306    20
 N  H  Rav=1.0088 sigma=0.0000  Rmin=1.0088  Rmax=1.0088     1
 N  C  Rav=1.4139 sigma=0.0546  Rmin=1.2991  Rmax=1.4605    10
 O  H  Rav=0.9647 sigma=0.0000  Rmin=0.9647  Rmax=0.9647     1
 O  C  Rav=1.3007 sigma=0.0628  Rmin=1.2145  Rmax=1.3621     3
 O  N  Rav=1.2643 sigma=0.0705  Rmin=1.2143  Rmax=1.3641     3

 selected bond angles (degree)
 --------------------
H34-C1-C2=110.03               H35-C1-C2=110.11               H35-C1-H34=111.09              H36-C1-C2=109.40               
H36-C1-H34=108.92              H36-C1-H35=107.24              O3-C2-C1=120.22                C30-C2-C1=131.80               
C30-C2-O3=107.98               N4-O3-C2=110.37                C5-N4-O3=107.91                C6-C5-N4=124.02                
C30-C5-N4=109.35               C30-C5-C6=125.79               O7-C6-C5=118.49                N8-C6-C5=116.01                
N8-C6-O7=125.49                C9-N8-C6=123.59                C29-N8-C6=119.58               C29-N8-C9=115.92               
C10-C9-N8=108.74               H37-C9-N8=109.89               H37-C9-C10=109.46              H38-C9-N8=109.81               
H38-C9-C10=109.97              H38-C9-H37=108.97              N11-C10-C9=113.31              H39-C10-C9=109.43              
H39-C10-N11=109.14             H40-C10-C9=108.58              H40-C10-N11=108.55             H40-C10-H39=107.68             

 selected dihedral angles (degree)
 ---------------------------------
O3-C2-C1-H34=338.28           O3-C2-C1-H35=215.50           O3-C2-C1-H36= 97.89           C30-C2-C1-H34=158.19          
C30-C2-C1-H35= 35.41          C30-C2-C1-H36=277.80          N4-O3-C2-C1=181.07            N4-O3-C2-C30=  1.14           
C5-N4-O3-C2=359.02            C6-C5-N4-O3=170.46            C30-C5-N4-O3=  0.41           O7-C6-C5-N4=279.83            
O7-C6-C5-C30= 88.24           N8-C6-C5-N4=100.61            N8-C6-C5-C30=269.02           C9-N8-C6-C5=  4.78            
C9-N8-C6-O7=185.63            C29-N8-C6-C5=173.39           C29-N8-C6-O7=354.24           C10-C9-N8-C6=192.40           
C10-C9-N8-C29= 23.40          H37-C9-N8-C6= 72.60           H37-C9-N8-C29=263.61          H38-C9-N8-C6=312.76           
H38-C9-N8-C29=143.77          N11-C10-C9-N8=299.12          N11-C10-C9-H37= 59.17         N11-C10-C9-H38=178.85         
H39-C10-C9-N8=177.08          H39-C10-C9-H37=297.13         H39-C10-C9-H38= 56.81         H40-C10-C9-N8= 59.80          
H40-C10-C9-H37=179.85         H40-C10-C9-H38=299.53         
           -------------------------------------------------
          |                Final Singlepoint                |
           -------------------------------------------------

          ...................................................
          :                      SETUP                      :
          :.................................................:
          :  # basis functions                 157          :
          :  # atomic orbitals                 157          :
          :  # shells                           91          :
          :  # electrons                       172          :
          :  max. iterations                   250          :
          :  Hamiltonian                  GFN2-xTB          :
          :  restarted?                      false          :
          :  GBSA solvation                  false          :
          :  PC potential                    false          :
          :  electronic temp.          300.0000000     K    :
          :  accuracy                    1.0000000          :
          :  -> integral cutoff          0.2500000E+02      :
          :  -> integral neglect         0.1000000E-07      :
          :  -> SCF convergence          0.1000000E-05 Eh   :
          :  -> wf. convergence          0.1000000E-03 e    :
          :  Broyden damping             0.4000000          :
          :  net charge                          0          :
          :  unpaired electrons                  0          :
          ...................................................

 iter      E             dE          RMSdq      gap      omega  full diag
   1    -98.0982966 -0.980983E+02  0.107E-04    0.56       0.0  T
   2    -98.0982966 -0.144297E-09  0.701E-05    0.56     187.4  T
   3    -98.0982966 -0.136041E-09  0.444E-05    0.56     295.4  T

   *** convergence criteria satisfied after 3 iterations ***

         #    Occupation            Energy/Eh            Energy/eV
      -------------------------------------------------------------
         1        2.0000           -0.8004514             -21.7814
       ...           ...                  ...                  ...
        80        2.0000           -0.4097303             -11.1493
        81        2.0000           -0.4028155             -10.9612
        82        2.0000           -0.3975861             -10.8189
        83        2.0000           -0.3972051             -10.8085
        84        2.0000           -0.3768206             -10.2538
        85        2.0000           -0.3537097              -9.6249
        86        2.0000           -0.3495425              -9.5115 (HOMO)
        87        0.0000           -0.3290039              -8.9527 (LUMO)
        88                         -0.2785282              -7.5791
        89                         -0.2213604              -6.0235
        90                         -0.2206947              -6.0054
        91                         -0.2171789              -5.9097
       ...                                ...                  ...
       157                          0.6672252              18.1561
      -------------------------------------------------------------
                  HL-Gap            0.0205386 Eh            0.5589 eV
             Fermi-level           -0.3392673 Eh           -9.2319 eV

 SCC (total)                   0 d,  0 h,  0 min,  0.027 sec
 SCC setup                      ...        0 min,  0.000 sec (  1.331%)
 Dispersion                     ...        0 min,  0.002 sec (  5.499%)
 classical contributions        ...        0 min,  0.000 sec (  0.570%)
 integral evaluation            ...        0 min,  0.003 sec ( 11.988%)
 iterations                     ...        0 min,  0.010 sec ( 37.635%)
 molecular gradient             ...        0 min,  0.011 sec ( 41.352%)
 printout                       ...        0 min,  0.000 sec (  1.548%)

         :::::::::::::::::::::::::::::::::::::::::::::::::::::
         ::                     SUMMARY                     ::
         :::::::::::::::::::::::::::::::::::::::::::::::::::::
         :: total energy             -96.846894824375 Eh    ::
         :: gradient norm              0.000568655022 Eh/a0 ::
         :: HOMO-LUMO gap              0.558884769630 eV    ::
         ::.................................................::
         :: SCC energy               -98.097465730989 Eh    ::
         :: -> isotropic ES            0.125632223962 Eh    ::
         :: -> anisotropic ES          0.020906286593 Eh    ::
         :: -> anisotropic XC          0.036238375308 Eh    ::
         :: -> dispersion             -0.068654322226 Eh    ::
         :: repulsion energy           1.250570906614 Eh    ::
         :: add. restraining           0.000000000000 Eh    ::
         :: total charge               0.000000000006 e     ::
         :::::::::::::::::::::::::::::::::::::::::::::::::::::

           -------------------------------------------------
          |                Property Printout                |
           -------------------------------------------------

    * Orbital Energies and Occupations

         #    Occupation            Energy/Eh            Energy/eV
      -------------------------------------------------------------
         1        2.0000           -0.8004514             -21.7814
       ...           ...                  ...                  ...
        74        2.0000           -0.4404537             -11.9854
        75        2.0000           -0.4394254             -11.9574
        76        2.0000           -0.4243937             -11.5483
        77        2.0000           -0.4189558             -11.4004
        78        2.0000           -0.4175331             -11.3617
        79        2.0000           -0.4145189             -11.2796
        80        2.0000           -0.4097303             -11.1493
        81        2.0000           -0.4028155             -10.9612
        82        2.0000           -0.3975861             -10.8189
        83        2.0000           -0.3972051             -10.8085
        84        2.0000           -0.3768206             -10.2538
        85        2.0000           -0.3537097              -9.6249
        86        2.0000           -0.3495425              -9.5115 (HOMO)
        87        0.0000           -0.3290039              -8.9527 (LUMO)
        88                         -0.2785282              -7.5791
        89                         -0.2213604              -6.0235
        90                         -0.2206947              -6.0054
        91                         -0.2171789              -5.9097
        92                         -0.2142668              -5.8305
        93                         -0.2036565              -5.5418
        94                         -0.1974094              -5.3718
        95                         -0.0916102              -2.4928
        96                         -0.0782968              -2.1306
        97                         -0.0663753              -1.8062
       ...                                ...                  ...
       157                          0.6672252              18.1561
      -------------------------------------------------------------
                  HL-Gap            0.0205386 Eh            0.5589 eV
             Fermi-level           -0.3392673 Eh           -9.2319 eV

     #   Z          covCN         q      C6AA      α(0)
     1   6 C        3.753    -0.130    23.062     6.848
     2   6 C        2.998     0.160    24.534     8.125
     3   8 O        1.820    -0.093    15.711     5.353
     4   7 N        1.956    -0.114    24.230     7.299
     5   6 C        3.018     0.067    26.482     8.441
     6   6 C        2.767     0.272    22.408     7.753
     7   8 O        0.859    -0.417    22.013     6.291
     8   7 N        2.741    -0.076    22.718     7.079
     9   6 C        3.746    -0.003    20.701     6.490
    10   6 C        3.758     0.002    20.593     6.470
    11   7 N        2.730    -0.179    24.866     7.406
    12   6 C        3.817     0.040    19.897     6.348
    13   6 C        2.981    -0.001    28.058     8.689
    14   6 C        2.925    -0.037    28.927     8.820
    15   6 C        2.918    -0.055    29.357     8.885
    16   6 C        2.847     0.142    24.892     8.177
    17   8 O        1.659    -0.394    20.725     6.146
    18   6 C        2.918    -0.072    29.784     8.949
    19   6 C        2.925    -0.037    28.909     8.817
    20   6 C        2.980    -0.011    28.296     8.726
    21   6 C        2.923    -0.039    28.979     8.828
    22   6 C        2.925    -0.064    29.597     8.922
    23   6 C        2.904     0.067    26.490     8.439
    24   7 N        2.688    -0.185    25.013     7.428
    25   6 C        3.687    -0.034    21.385     6.620
    26   6 C        2.922    -0.062    29.543     8.913
    27   6 C        2.923    -0.038    28.957     8.825
    28   6 C        3.762     0.004    20.550     6.462
    29   6 C        3.756    -0.002    20.674     6.483
    30   6 C        2.961    -0.044    29.088     8.846
    31   7 N        2.756     0.548    13.506     5.458
    32   8 O        0.933    -0.390    21.453     6.212
    33   8 O        0.932    -0.391    21.457     6.212
    34   1 H        0.925     0.087     1.908     2.160
    35   1 H        0.925     0.101     1.773     2.082
    36   1 H        0.924     0.103     1.754     2.071
    37   1 H        0.923     0.053     2.281     2.362
    38   1 H        0.924     0.042     2.428     2.437
    39   1 H        0.924     0.051     2.311     2.377
    40   1 H        0.924     0.045     2.381     2.413
    41   1 H        0.922     0.010     2.888     2.658
    42   1 H        0.926     0.036     2.502     2.473
    43   1 H        0.926     0.051     2.304     2.373
    44   1 H        0.805     0.298     0.727     1.339
    45   1 H        0.925     0.026     2.642     2.542
    46   1 H        0.926     0.047     2.360     2.403
    47   1 H        0.926     0.025     2.661     2.551
    48   1 H        0.925     0.021     2.723     2.581
    49   1 H        0.860     0.150     1.402     1.855
    50   1 H        0.924     0.051     2.302     2.373
    51   1 H        0.925     0.045     2.381     2.413
    52   1 H        0.924     0.033     2.540     2.492
    53   1 H        0.926     0.030     2.590     2.517
    54   1 H        0.926     0.039     2.461     2.453
    55   1 H        0.923     0.035     2.518     2.481
    56   1 H        0.924     0.048     2.346     2.395
    57   1 H        0.924     0.057     2.230     2.335
    58   1 H        0.924     0.081     1.969     2.194

 Mol. C6AA /au·bohr⁶  :      39592.709017
 Mol. C8AA /au·bohr⁸  :     928782.300681
 Mol. α(0) /au        :        307.091398


Wiberg/Mayer (AO) data.
largest (>0.10) Wiberg bond orders for each atom

 ---------------------------------------------------------------------------
     #   Z sym  total        # sym  WBO       # sym  WBO       # sym  WBO
 ---------------------------------------------------------------------------
     1   6 C    3.980 --     2 C    1.047    34 H    0.973    35 H    0.959
                            36 H    0.939
     2   6 C    3.928 --    30 C    1.430     3 O    1.214     1 C    1.047
                             4 N    0.132
     3   8 O    2.491 --     2 C    1.214     4 N    1.066
     4   7 N    2.954 --     5 C    1.617     3 O    1.066     2 C    0.132
     5   6 C    3.966 --     4 N    1.617    30 C    1.207     6 C    0.931
     6   6 C    3.965 --     7 O    1.655     8 N    1.290     5 C    0.931
     7   8 O    2.033 --     6 C    1.655     8 N    0.217
     8   7 N    3.530 --     6 C    1.290     9 C    0.982    29 C    0.975
                             7 O    0.217
     9   6 C    3.971 --    10 C    0.992     8 N    0.982    38 H    0.968
                            37 H    0.960
    10   6 C    3.987 --    11 N    1.009     9 C    0.992    40 H    0.969
                            39 H    0.966
    11   7 N    3.120 --    10 C    1.009    28 C    0.997    12 C    0.982
    12   6 C    3.982 --    11 N    0.982    20 C    0.977    13 C    0.977
                            41 H    0.949
    13   6 C    3.985 --    14 C    1.407    19 C    1.404    12 C    0.977
    14   6 C    3.989 --    15 C    1.456    13 C    1.407    42 H    0.968
                            18 C    0.103
    15   6 C    3.987 --    14 C    1.456    16 C    1.367    43 H    0.968
                            19 C    0.109
    16   6 C    3.935 --    18 C    1.370    15 C    1.367    17 O    1.068
    17   8 O    2.115 --    16 C    1.068    44 H    0.890
    18   6 C    3.987 --    19 C    1.454    16 C    1.370    45 H    0.966
                            14 C    0.103
    19   6 C    3.991 --    18 C    1.454    13 C    1.404    46 H    0.966
                            15 C    0.109
    20   6 C    3.984 --    27 C    1.398    21 C    1.393    12 C    0.977
    21   6 C    3.990 --    22 C    1.472    20 C    1.393    47 H    0.969
    22   6 C    3.986 --    21 C    1.472    23 C    1.336    48 H    0.968
                            27 C    0.102
    23   6 C    3.971 --    26 C    1.342    22 C    1.336    24 N    1.154
    24   7 N    3.315 --    23 C    1.154    25 C    1.018    49 H    0.949
    25   6 C    3.980 --    24 N    1.018    51 H    0.985    50 H    0.978
                            52 H    0.975
    26   6 C    3.987 --    27 C    1.462    23 C    1.342    53 H    0.967
    27   6 C    3.990 --    26 C    1.462    20 C    1.398    54 H    0.967
                            22 C    0.102
    28   6 C    3.986 --    29 C    1.003    11 N    0.997    56 H    0.967
                            55 H    0.964
    29   6 C    3.963 --    28 C    1.003     8 N    0.975    58 H    0.964
                            57 H    0.963
    30   6 C    3.942 --     2 C    1.430     5 C    1.207    31 N    1.012
    31   7 N    3.917 --    32 O    1.434    33 O    1.434    30 C    1.012
    32   8 O    1.926 --    31 N    1.434    33 O    0.352
    33   8 O    1.923 --    31 N    1.434    32 O    0.352
    34   1 H    0.992 --     1 C    0.973
    35   1 H    0.990 --     1 C    0.959
    36   1 H    0.989 --     1 C    0.939
    37   1 H    0.997 --     9 C    0.960
    38   1 H    0.998 --     9 C    0.968
    39   1 H    0.997 --    10 C    0.966
    40   1 H    0.997 --    10 C    0.969
    41   1 H    0.999 --    12 C    0.949
    42   1 H    0.999 --    14 C    0.968
    43   1 H    0.997 --    15 C    0.968
    44   1 H    0.911 --    17 O    0.890
    45   1 H    0.999 --    18 C    0.966
    46   1 H    0.998 --    19 C    0.966
    47   1 H    0.999 --    21 C    0.969
    48   1 H    0.999 --    22 C    0.968
    49   1 H    0.977 --    24 N    0.949
    50   1 H    0.997 --    25 C    0.978
    51   1 H    0.998 --    25 C    0.985
    52   1 H    0.999 --    25 C    0.975
    53   1 H    0.999 --    26 C    0.967
    54   1 H    0.998 --    27 C    0.967
    55   1 H    0.999 --    28 C    0.964
    56   1 H    0.997 --    28 C    0.967
    57   1 H    0.996 --    29 C    0.963
    58   1 H    0.993 --    29 C    0.964
 ---------------------------------------------------------------------------

Topologies differ in total number of bonds
Writing topology from bond orders to xtbtopo.mol

molecular dipole:
                 x           y           z       tot (Debye)
 q only:       -1.615      -1.925      -1.185
   full:       -1.484      -2.153      -0.777       6.933
molecular quadrupole (traceless):
                xx          xy          yy          xz          yz          zz
 q only:       17.341     -24.229       3.834       0.272       5.698     -21.175
  q+dip:       22.500     -26.427       4.362       5.438       2.957     -26.863
   full:       23.982     -24.576       5.079       3.789       4.132     -29.061

           -------------------------------------------------
          |                Geometry Summary                 |
           -------------------------------------------------

      molecular mass/u    :      451.4759851
   center of mass at/Å    :        0.5895682       0.2184995       0.0345772
  moments of inertia/u·Å² :        0.2951152E+04   0.7494195E+04   0.8939694E+04
rotational constants/cm⁻¹ :        0.5712220E-02   0.2249425E-02   0.1885706E-02

 * 58 selected distances

     #   Z          #   Z                                           value/Å
     1   6 C        2   6 C                                       1.4739855
     2   6 C        3   8 O                                       1.3256942
     3   8 O        4   7 N                                       1.3640666
     4   7 N        5   6 C                                       1.2990835
     6   6 C        7   8 O                                       1.2144667
     6   6 C        8   7 N                                       1.3359251
     8   7 N        9   6 C                                       1.4491651
     9   6 C       10   6 C                                       1.5305702 (max)
    10   6 C       11   7 N                                       1.4539803
    11   7 N       12   6 C                                       1.4590111
    13   6 C       14   6 C                                       1.3883756
    14   6 C       15   6 C                                       1.3809107
    15   6 C       16   6 C                                       1.3901246
    16   6 C       17   8 O                                       1.3620533
    16   6 C       18   6 C                                       1.3900311
    13   6 C       19   6 C                                       1.3881912
    18   6 C       19   6 C                                       1.3813553
    20   6 C       21   6 C                                       1.3895243
    21   6 C       22   6 C                                       1.3782463
    22   6 C       23   6 C                                       1.3981591
    23   6 C       24   7 N                                       1.3776072
    24   7 N       25   6 C                                       1.4418821
    23   6 C       26   6 C                                       1.3965247
    20   6 C       27   6 C                                       1.3884241
    26   6 C       27   6 C                                       1.3804011
    11   7 N       28   6 C                                       1.4605145
     8   7 N       29   6 C                                       1.4504929
    28   6 C       29   6 C                                       1.5206471
     2   6 C       30   6 C                                       1.3853334
     5   6 C       30   6 C                                       1.4308212
    30   6 C       31   7 N                                       1.4110271
    31   7 N       32   8 O                                       1.2145235
    31   7 N       33   8 O                                       1.2143424
     1   6 C       34   1 H                                       1.0864991
     1   6 C       35   1 H                                       1.0879400
     1   6 C       36   1 H                                       1.0906084
     9   6 C       37   1 H                                       1.0981547
     9   6 C       38   1 H                                       1.0938314
    10   6 C       39   1 H                                       1.0911702
    10   6 C       40   1 H                                       1.0958292
    12   6 C       41   1 H                                       1.1075543
    14   6 C       42   1 H                                       1.0804759
    15   6 C       43   1 H                                       1.0784179
    17   8 O       44   1 H                                       0.9647282 (min)
    18   6 C       45   1 H                                       1.0827723
    19   6 C       46   1 H                                       1.0783672
    21   6 C       47   1 H                                       1.0810084
    22   6 C       48   1 H                                       1.0813767
    24   7 N       49   1 H                                       1.0088176
    25   6 C       50   1 H                                       1.0911762
    25   6 C       51   1 H                                       1.0879860
    25   6 C       52   1 H                                       1.0977679
    26   6 C       53   1 H                                       1.0782909
    27   6 C       54   1 H                                       1.0786470
    28   6 C       55   1 H                                       1.1023913
    28   6 C       56   1 H                                       1.0930399
    29   6 C       57   1 H                                       1.0946362
    29   6 C       58   1 H                                       1.0917318

 * 7 distinct bonds (by element types)

   Z      Z             #   av. dist./Å        max./Å        min./Å
   1 H    6 C          23     1.0891162     1.1075543     1.0782909
   6 C    6 C          17     1.4112721     1.5305702     1.3782463
   1 H    7 N           1     1.0088176     1.0088176     1.0088176
   6 C    7 N          10     1.4138689     1.4605145     1.2990835
   1 H    8 O           1     0.9647282     0.9647282     0.9647282
   6 C    8 O           3     1.3007381     1.3620533     1.2144667
   7 N    8 O           3     1.2643108     1.3640666     1.2143424


optimized geometry written to: xtbopt.xyz


           -------------------------------------------------
          | TOTAL ENERGY              -96.846894824375 Eh   |
          | GRADIENT NORM               0.000568655022 Eh/α |
          | HOMO-LUMO GAP               0.558884769630 eV   |
           -------------------------------------------------
########################################################################
[WARNING] Runtime exception occurred
-2- restart_readRestart: Dimension missmatch in restart file.
-1- restart_readRestart: Number of electron missmatch in restart file.
########################################################################

------------------------------------------------------------------------
 * finished run on 2026/08/28 at 15:40:10.910     
------------------------------------------------------------------------
 total:
 * wall-time:     0 d,  0 h,  0 min,  4.256 sec
 *  cpu-time:     0 d,  0 h,  0 min, 30.000 sec
 * ratio c/w:     7.049 speedup
 SCF:
 * wall-time:     0 d,  0 h,  0 min,  0.060 sec
 *  cpu-time:     0 d,  0 h,  0 min,  0.484 sec
 * ratio c/w:     8.137 speedup
 ANC optimizer:
 * wall-time:     0 d,  0 h,  0 min,  4.146 sec
 *  cpu-time:     0 d,  0 h,  0 min, 29.422 sec
 * ratio c/w:     7.096 speedup

