58

C      7.718333   -1.622919   -2.234774
C      6.441510   -0.921921   -1.995373
O      5.347153   -1.415652   -2.637193
N      4.235380   -0.656377   -2.315857
C      4.665257    0.293493   -1.464374
C      3.803309    1.370627   -0.985122
O      4.179708    2.536768   -1.102901
N      2.579489    1.052739   -0.397067
C      2.144009   -0.278945    0.020284
C      0.616297   -0.472180   -0.107541
N     -0.237850    0.664270    0.327842
C     -1.372947    0.218966    1.188169
C     -2.269106    1.373587    1.656056
C     -2.550420    1.533466    3.024797
C     -3.370335    2.574715    3.465524
C     -3.918904    3.458079    2.543930
O     -4.716550    4.457294    3.017834
C     -3.660332    3.321363    1.184279
C     -2.838765    2.280876    0.743126
C     -2.243992   -0.873296    0.550923
C     -2.724938   -1.929505    1.337636
C     -3.537051   -2.923931    0.779606
C     -3.926437   -2.883069   -0.566741
N     -4.686208   -3.944310   -1.073168
C     -5.388406   -3.777218   -2.333260
C     -3.416789   -1.846877   -1.354983
C     -2.605303   -0.846112   -0.803914
C      0.576303    1.719047    0.964425
C      1.748843    2.160764    0.069321
C      6.051465    0.155134   -1.236012
N      6.876383    0.927764   -0.379156
O      6.359963    1.342667    0.664663
O      8.057651    1.070304   -0.715769
H      7.574148   -2.521174   -2.845314
H      8.169092   -1.931980   -1.286812
H      8.421680   -0.968571   -2.757914
H      2.442447   -0.385689    1.071362
H      2.653769   -1.072829   -0.525333
H      0.372995   -1.400396    0.426655
H      0.388212   -0.648660   -1.167090
H     -0.913488   -0.223441    2.085578
H     -2.134096    0.846920    3.758792
H     -3.583197    2.693662    4.524666
H     -5.063072    4.955838    2.259645
H     -4.082521    4.007741    0.457577
H     -2.633540    2.180445   -0.321108
H     -2.469338   -1.992412    2.393210
H     -3.870487   -3.740351    1.415461
H     -5.274662   -4.353704   -0.351944
H     -4.690714   -3.681597   -3.171171
H     -6.000616   -4.665055   -2.522627
H     -6.056470   -2.909979   -2.306127
H     -3.639113   -1.789604   -2.416643
H     -2.242782   -0.048458   -1.449290
H      0.966522    1.365671    1.928311
H     -0.020174    2.614560    1.167122
H      1.371849    2.677963   -0.822018
H      2.376836    2.871489    0.619807
