58
 energy: -96.846894824375 gnorm: 0.000568655022 xtb: 6.7.1 (edcfbbe)
C            7.13851364816552       -1.80921450512997       -0.65559960365316
C            6.14683863786893       -0.86865139409055       -1.20746428048049
O            6.02371337936949       -0.72252288386237       -2.51931465555233
N            5.06959737093583        0.20929871939056       -2.80575568273789
C            4.57697615024419        0.63519988055323       -1.68167822982315
C            3.64847542061114        1.81163693154858       -1.56224439656966
O            4.12414348311525        2.92897611418497       -1.57714578738767
N            2.35076050438734        1.52288600852287       -1.43088826722553
C            1.83889788967169        0.17340569392030       -1.30058646775724
C            0.31956557191435        0.20408392059329       -1.48315905556491
N           -0.36262518524983        1.02078785944422       -0.49236711886448
C           -0.86266235722531        0.26266331382202        0.64952741119646
C           -1.63792355710144        1.16000294441022        1.58965855576350
C           -1.47250115347122        1.05628483021741        2.96423651368118
C           -2.21398005934234        1.83391348594689        3.83165604486897
C           -3.14065163358280        2.74081376477018        3.33039998865727
O           -3.85364149247062        3.49429882334445        4.21306335528565
C           -3.31073960625700        2.85282348769212        1.95536907510636
C           -2.56914272929098        2.06417610160847        1.09734136268513
C           -1.80899738347431       -0.83696596799633        0.22300527467570
C           -1.86621532456837       -2.02636254637644        0.93913318344905
C           -2.76751430130701       -3.01346976121643        0.60321332988782
C           -3.64699989642705       -2.84845248523356       -0.47108773481949
N           -4.48864198599069       -3.88263200302327       -0.81737159660763
C           -5.61540598961799       -3.69455559847980       -1.69717484801882
C           -3.58755119467149       -1.65230145560585       -1.18939795322425
C           -2.68549050373610       -0.66743396396896       -0.84035730082656
C            0.45818060172048        2.14835781294965       -0.05881665273934
C            1.40343882572188        2.58877239081388       -1.16556376671717
C            5.23082351217229       -0.02849230585598       -0.59574768712230
N            4.94984511752663        0.09216524819839        0.78174644543990
O            3.92246060090933        0.66030792501873        1.09281246851208
O            5.73384453381360       -0.41240869091169        1.55980640689018
H            7.40049983478864       -2.55407052747864       -1.40194594412238
H            6.74836229529118       -2.27806485559906        0.24527472652502
H            8.03798555735989       -1.26178516845574       -0.37152584870389
H            2.07987919808153       -0.22305007559290       -0.30525011397250
H            2.29338916930133       -0.47029733480682       -2.05923724502047
H           -0.07200224895928       -0.81344805263313       -1.43893717764466
H            0.09555756589824        0.60390568051500       -2.47855062701517
H           -0.02739426022459       -0.18950187749884        1.21922035003306
H           -0.75197071481046        0.35917113622175        3.36709659533854
H           -2.08768326259871        1.75640518062915        4.89984450617482
H           -4.45196872412176        4.07864467588430        3.73218428569756
H           -4.02943071364846        3.55907964877987        1.55903471948126
H           -2.70550036453184        2.15488040867259        0.03148258360119
H           -1.19954039666049       -2.18035817358595        1.77603750886611
H           -2.79914535990690       -3.93150093851454        1.17382133927125
H           -4.62738681120959       -4.56444363244564       -0.08689532776147
H           -5.26421896903177       -3.40303803507902       -2.68831080039886
H           -6.14844258983220       -4.63845223598509       -1.79015069984488
H           -6.31440703494445       -2.92941383271403       -1.33516686213803
H           -4.25085137110565       -1.48592552448373       -2.02310235661515
H           -2.64941563828060        0.24781896622641       -1.40999732652721
H            1.06032435942480        1.89026609308737        0.82779375544837
H           -0.20132825997776        2.97620940073588        0.21403093910036
H            0.84467663126256        2.83166578202062       -2.07496785243241
H            1.97462121410755        3.46791159686428       -0.86102645755071
