19
complex S  attackC=6 nu=16
C      -1.587560    -1.220595    -0.025199
N      -0.404409    -0.407740     0.151124
C      -0.585389     0.924629     0.705960
C       0.755671    -0.755132    -0.548038
O       0.879081    -1.812062    -1.162667
C       1.847487     0.199979    -0.549912
N       2.870540     1.251689    -0.490499
O       3.835898     2.294737    -0.413986
H      -2.140755    -1.261783     0.917505
H      -1.335109    -2.240410    -0.328091
H      -2.213425    -0.766359    -0.799167
H      -1.300198     0.877929     1.532902
H      -0.974047     1.580630    -0.078590
H       0.352217     1.334488     1.088659
C       5.197333    -3.260736    -3.049590
S       4.069831    -2.095917    -2.208240
H       6.175592    -2.818813    -3.271447
H       5.399887    -4.159204    -2.455255
H       4.802226    -3.615901    -4.008367
