      -----------------------------------------------------------      
     |                   =====================                   |     
     |                           x T B                           |     
     |                   =====================                   |     
     |                         S. Grimme                         |     
     |          Mulliken Center for Theoretical Chemistry        |     
     |                    University of Bonn                     |     
      -----------------------------------------------------------      

   * xtb version 6.7.1 (edcfbbe) compiled by 'VssAdministrator@runnervm171ch' on 2026-06-10

   xtb is free software: you can redistribute it and/or modify it under
   the terms of the GNU Lesser General Public License as published by
   the Free Software Foundation, either version 3 of the License, or
   (at your option) any later version.
   
   xtb is distributed in the hope that it will be useful,
   but WITHOUT ANY WARRANTY; without even the implied warranty of
   MERCHANTABILITY or FITNESS FOR A PARTICULAR PURPOSE.  See the
   GNU Lesser General Public License for more details.
   
   Cite this work as:
   * C. Bannwarth, E. Caldeweyher, S. Ehlert, A. Hansen, P. Pracht,
     J. Seibert, S. Spicher, S. Grimme, WIREs Comput. Mol. Sci., 2020, 11,
     e01493. DOI: 10.1002/wcms.1493
   
   for GFN2-xTB:
   * C. Bannwarth, S. Ehlert and S. Grimme., J. Chem. Theory Comput., 2019,
     15, 1652-1671. DOI: 10.1021/acs.jctc.8b01176
   for GFN1-xTB:
   * S. Grimme, C. Bannwarth, P. Shushkov, J. Chem. Theory Comput., 2017,
     13, 1989-2009. DOI: 10.1021/acs.jctc.7b00118
   for GFN0-xTB:
   * P. Pracht, E. Caldeweyher, S. Ehlert, S. Grimme, ChemRxiv, 2019, preprint.
     DOI: 10.26434/chemrxiv.8326202.v1
   for GFN-FF:
   * S. Spicher and S. Grimme, Angew. Chem. Int. Ed., 2020, 59, 15665-15673.
     DOI: 10.1002/anie.202004239
   
   for ALPB and GBSA implicit solvation:
   * S. Ehlert, M. Stahn, S. Spicher, S. Grimme, J. Chem. Theory Comput.,
     2021, 17, 4250-4261. DOI: 10.1021/acs.jctc.1c00471
   
   for ddCOSMO and CPCM-X implicit solvation:
   * M. Stahn, S. Ehlert, S. Grimme, J. Phys. Chem. A,
     2023, XX, XXXX-XXXX. DOI: 10.1021/acs.jpca.3c04382
   
   for DFT-D4:
   * E. Caldeweyher, C. Bannwarth and S. Grimme, J. Chem. Phys., 2017,
     147, 034112. DOI: 10.1063/1.4993215
   * E. Caldeweyher, S. Ehlert, A. Hansen, H. Neugebauer, S. Spicher,
     C. Bannwarth and S. Grimme, J. Chem. Phys., 2019, 150, 154122.
     DOI: 10.1063/1.5090222
   * E. Caldeweyher, J.-M. Mewes, S. Ehlert and S. Grimme, Phys. Chem. Chem. Phys.
     2020, 22, 8499-8512. DOI: 10.1039/D0CP00502A
   
   for sTDA-xTB:
   * S. Grimme and C. Bannwarth, J. Chem. Phys., 2016, 145, 054103.
     DOI: 10.1063/1.4959605
   
   in the mass-spec context:
   * V. Asgeirsson, C. Bauer and S. Grimme, Chem. Sci., 2017, 8, 4879.
     DOI: 10.1039/c7sc00601b
   * J. Koopman and S. Grimme, ACS Omega 2019, 4, 12, 15120-15133.
     DOI: 10.1021/acsomega.9b02011
   
   for metadynamics refer to:
   * S. Grimme, J. Chem. Theory Comput., 2019, 155, 2847-2862
     DOI: 10.1021/acs.jctc.9b00143
   
   for SPH calculations refer to:
   * S. Spicher and S. Grimme, J. Chem. Theory Comput., 2021, 17, 1701-1714
     DOI: 10.1021/acs.jctc.0c01306
   
   for ONIOM refer to:
   * C. Plett, A. Katbashev, S. Ehlert, S. Grimme, M. Bursch,
     Phys. Chem. Chem. Phys., 2023, 25, 17860-17868. DOI: 10.1039/D3CP02178E
   
   for DIPRO refer to:
   * J. Kohn, N. Gildemeister, S. Grimme, D. Fazzi, A. Hansen,
     J. Chem. Phys., 2023, just accepted.
   
   for PTB refer to:
   * S. Grimme, M. Mueller, A. Hansen, J. Chem. Phys., 2023, 158, 124111.
     DOI: 10.1063/5.0137838
   
   with help from (in alphabetical order)
   P. Atkinson, C. Bannwarth, F. Bohle, G. Brandenburg, E. Caldeweyher
   M. Checinski, S. Dohm, S. Ehlert, S. Ehrlich, I. Gerasimov, C. Hölzer
   A. Katbashev, J. Kohn, J. Koopman, C. Lavigne, S. Lehtola, F. März, M. Müller,
   F. Musil, H. Neugebauer, J. Pisarek, C. Plett, P. Pracht, F. Pultar,
   J. Seibert, P. Shushkov, S. Spicher, M. Stahn, M. Steiner, T. Strunk,
   J. Stückrath, T. Rose, and J. Unsleber
   
 * started run on 2026/08/28 at 23:25:54.532     
   ID    Z sym.   atoms
    1    6 C      1, 3, 4, 6, 15
    2    7 N      2, 7
    3    8 O      5, 8
    4    1 H      9-14, 17-19
    5   16 S      16
constraining bond 6 16 to    3.6000008 Å, actual value:    3.6000008 Å

           -------------------------------------------------
          |                Calculation Setup                |
           -------------------------------------------------

          program call               : C:\Users\Christian\Miniconda3\Library\bin\xtb.exe cx_S.xyz --gfn 2 --alpb water --chrg -1 --input scan_S.inp --opt tight
          coordinate file            : cx_S.xyz
          omp threads                :                    12


molecular fragmentation (1/2 indicates fragments):
1111111111111122222
# atoms in fragment 1/2:    14     5
 fragment masses (1/2) :      114.10       47.10
CMA distance (Bohr)    :   9.200
constraining FC (au)   :  0.7500

           -------------------------------------------------
          |                 G F N 2 - x T B                 |
           -------------------------------------------------

        Reference                      10.1021/acs.jctc.8b01176
      * Hamiltonian:
        H0-scaling (s, p, d)           1.850000    2.230000    2.230000
        zeta-weighting                 0.500000
      * Dispersion:
        s8                             2.700000
        a1                             0.520000
        a2                             5.000000
        s9                             5.000000
      * Repulsion:
        kExp                           1.500000    1.000000
        rExp                           1.000000
      * Coulomb:
        alpha                          2.000000
        third order                    shell-resolved
        anisotropic                    true
        a3                             3.000000
        a5                             4.000000
        cn-shift                       1.200000
        cn-exp                         4.000000
        max-rad                        5.000000

      * Solvation model:               ALPB
        Solvent                        water
        Parameter file                 internal GFN2-xTB/ALPB
        Dielectric constant                8.0200E+01
        Reference state                gsolv [1 M gas/solution]
        Free energy shift                  1.0808E-03 Eh       6.7819E-01 kcal/mol
        Temperature                        2.9815E+02 K
        Density                            1.0000E+00 kg/L
        Solvent mass                       1.8000E+01 g/mol
        Interaction kernel             P16
        Born radius scaling (c1)           1.4744E+00
        Born radii integrator          GBOBC
        Born offset                        0.0000E+00 a0       0.0000E+00 AA
        H-bond correction              true
        Ion screening                  false
        Surface tension                    1.0000E-05 Eh       1.5569E+01 dyn/cm
        Grid points                               230 per atom
q/qsh data taken from xtbrestart
CAMM data taken from xtbrestart

          ...................................................
          :                      SETUP                      :
          :.................................................:
          :  # basis functions                  55          :
          :  # atomic orbitals                  54          :
          :  # shells                           30          :
          :  # electrons                        58          :
          :  max. iterations                   250          :
          :  Hamiltonian                  GFN2-xTB          :
          :  restarted?                       true          :
          :  GBSA solvation                   true          :
          :  PC potential                    false          :
          :  electronic temp.          300.0000000     K    :
          :  accuracy                    1.0000000          :
          :  -> integral cutoff          0.2500000E+02      :
          :  -> integral neglect         0.1000000E-07      :
          :  -> SCF convergence          0.1000000E-05 Eh   :
          :  -> wf. convergence          0.1000000E-03 e    :
          :  Broyden damping             0.4000000          :
          :  net charge                         -1          :
          :  unpaired electrons                  0          :
          ...................................................

 iter      E             dE          RMSdq      gap      omega  full diag
   1    -32.6811033 -0.326811E+02  0.629E+00    1.64       0.0  T
   2    -32.2195407  0.461563E+00  0.607E+00    0.71       1.0  T
   3    -32.3266858 -0.107145E+00  0.822E+00    0.12       1.0  T
   4    -32.7611322 -0.434446E+00  0.311E+00    0.75       1.0  T
   5    -32.5395926  0.221540E+00  0.781E+00    0.19       1.0  T
   6    -32.7505168 -0.210924E+00  0.470E+00    0.02       1.0  T
   7    -32.8367892 -0.862724E-01  0.223E+00    0.04       1.0  T
   8    -32.8426625 -0.587334E-02  0.148E+00    0.06       1.0  T
   9    -32.8456059 -0.294339E-02  0.463E-01    0.09       1.0  T
  10    -32.8452321  0.373777E-03  0.272E-01    0.08       1.0  T
  11    -32.8391510  0.608113E-02  0.790E-01    0.15       1.0  T
  12    -32.8428839 -0.373287E-02  0.527E-01    0.13       1.0  T
  13    -32.8457000 -0.281613E-02  0.181E-01    0.10       1.0  T
  14    -32.8460522 -0.352237E-03  0.759E-02    0.09       1.0  T
  15    -32.8458890  0.163267E-03  0.128E-01    0.10       1.0  T
  16    -32.8460793 -0.190360E-03  0.844E-03    0.09       2.7  T
  17    -32.8460694  0.991151E-05  0.297E-02    0.09       1.0  T
  18    -32.8460793 -0.986842E-05  0.491E-03    0.09       4.7  T
  19    -32.8460795 -0.258194E-06  0.146E-03    0.09      15.7  T
  20    -32.8460796 -0.248914E-07  0.180E-04    0.09     127.3  T
  21    -32.8460796  0.866748E-09  0.284E-04    0.09      80.7  T

   *** convergence criteria satisfied after 21 iterations ***

         #    Occupation            Energy/Eh            Energy/eV
      -------------------------------------------------------------
         1        2.0000           -0.7087123             -19.2850
       ...           ...                  ...                  ...
        23        2.0000           -0.4357241             -11.8567
        24        2.0000           -0.4202895             -11.4367
        25        2.0000           -0.4033727             -10.9763
        26        2.0000           -0.3933765             -10.7043
        27        2.0000           -0.3882820             -10.5657
        28        1.8318           -0.3229508              -8.7879
        29        1.7889           -0.3227124              -8.7815 (HOMO)
        30        0.3792           -0.3193020              -8.6887 (LUMO)
        31                         -0.2989477              -8.1348
        32                         -0.2367021              -6.4410
        33                         -0.1836859              -4.9983
        34                         -0.1445388              -3.9331
       ...                                ...                  ...
        54                          0.5659598              15.4006
      -------------------------------------------------------------
                  HL-Gap            0.0034104 Eh            0.0928 eV
             Fermi-level           -0.3206820 Eh           -8.7262 eV

 SCC (total)                   0 d,  0 h,  0 min,  0.038 sec
 SCC setup                      ...        0 min,  0.001 sec (  1.756%)
 Dispersion                     ...        0 min,  0.000 sec (  0.990%)
 classical contributions        ...        0 min,  0.000 sec (  0.304%)
 integral evaluation            ...        0 min,  0.012 sec ( 31.900%)
 iterations                     ...        0 min,  0.021 sec ( 55.109%)
 molecular gradient             ...        0 min,  0.004 sec (  9.356%)
 printout                       ...        0 min,  0.000 sec (  0.523%)

         :::::::::::::::::::::::::::::::::::::::::::::::::::::
         ::                     SUMMARY                     ::
         :::::::::::::::::::::::::::::::::::::::::::::::::::::
         :: total energy             -32.586427384292 Eh    ::
         :: total w/o Gsasa/hb       -32.587813160678 Eh    ::
         :: gradient norm              0.288724980349 Eh/a0 ::
         :: HOMO-LUMO gap              0.092800486958 eV    ::
         ::.................................................::
         :: SCC energy               -32.846107404732 Eh    ::
         :: -> isotropic ES            0.214784921850 Eh    ::
         :: -> anisotropic ES          0.006347997368 Eh    ::
         :: -> anisotropic XC          0.023919763988 Eh    ::
         :: -> dispersion             -0.012651145092 Eh    ::
         :: -> Gsolv                  -0.115128719542 Eh    ::
         ::    -> Gelec               -0.116514495928 Eh    ::
         ::    -> Gsasa                0.003508713139 Eh    ::
         ::    -> Ghb                 -0.003203696451 Eh    ::
         ::    -> Gshift               0.001080759698 Eh    ::
         :: repulsion energy           0.259680020440 Eh    ::
         :: add. restraining           0.000000000000 Eh    ::
         :: total charge              -0.999999999997 e     ::
         :::::::::::::::::::::::::::::::::::::::::::::::::::::

      ----------------------------------------------------------- 
     |                   =====================                   |
     |                        A N C O P T                        |
     |                   =====================                   |
     |               Approximate Normal Coordinate               |
     |                Rational Function Optimizer                |
      ----------------------------------------------------------- 
      ----------------------------------------------------------- 
     |                   =====================                   |
     |                        A N C O P T                        |
     |                   =====================                   |
     |               Approximate Normal Coordinate               |
     |                Rational Function Optimizer                |
      ----------------------------------------------------------- 

          ...................................................
          :                      SETUP                      :
          :.................................................:
          :   optimization level             tight          :
          :   max. optcycles                   200          :
          :   ANC micro-cycles                  20          :
          :   degrees of freedom                51          :
          :.................................................:
          :   RF solver                   davidson          :
          :   write xtbopt.log                true          :
          :   linear?                        false          :
          :   energy convergence         0.1000000E-05 Eh   :
          :   grad. convergence          0.8000000E-03 Eh/α :
          :   maxmium RF displ.          1.0000000          :
          :   Hlow (freq-cutoff)         0.1000000E-01      :
          :   Hmax (freq-cutoff)         5.0000000          :
          :   S6 in model hess.         20.0000000          :
          ...................................................

generating ANC from exact Hessian ...
Using Lindh-Hessian (1995)
 Shifting diagonal of input Hessian by    1.0166420431540044E-002
 Lowest  eigenvalues of input Hessian
    0.010000    0.000000    0.000000    0.000000    0.000000    0.000000
    0.000000    0.010320    0.010427    0.010543    0.010852    0.011054
    0.011627    0.014097    0.018364    0.020043    0.021375    0.023362
 Highest eigenvalues
    1.185318    1.478156    1.584237    1.862083    2.217024    3.335683


........................................................................
.............................. CYCLE    1 ..............................
........................................................................

 iter      E             dE          RMSdq      gap      omega  full diag
   1    -32.8460796 -0.328461E+02  0.192E-04    0.09       0.0  T
   2    -32.8460795  0.936606E-07  0.283E-03    0.09       8.1  T
   3    -32.8460796 -0.940350E-07  0.645E-05    0.09     355.9  T
   4    -32.8460796 -0.344542E-10  0.100E-05    0.09    2282.9  T
     SCC iter.                  ...        0 min,  0.004 sec
     gradient                   ...        0 min,  0.003 sec
 * total energy  :   -32.5864274 Eh     change       -0.9552608E-09 Eh
   gradient norm :     0.2887322 Eh/α   predicted     0.0000000E+00 (-100.00%)
   displ. norm   :     0.5096400 α      lambda       -0.1189516E+00
   maximum displ.:     0.2449986 α      in ANC's #30, #31, #36, ...

........................................................................
.............................. CYCLE    2 ..............................
........................................................................

 iter      E             dE          RMSdq      gap      omega  full diag
   1    -32.9696166 -0.329696E+02  0.149E+00    1.17       0.0  T
   2    -32.9721027 -0.248615E-02  0.989E-01    0.24       1.0  T
   3    -32.6342805  0.337822E+00  0.577E+00    0.02       1.0  T
   4    -32.9829196 -0.348639E+00  0.790E-01    0.48       1.0  T
   5    -32.9828750  0.446068E-04  0.704E-01    0.34       1.0  T
   6    -32.9850860 -0.221099E-02  0.551E-01    0.23       1.0  T
   7    -32.9874935 -0.240748E-02  0.261E-01    0.16       1.0  T
   8    -32.9875974 -0.103945E-03  0.239E-01    0.11       1.0  T
   9    -32.9877941 -0.196662E-03  0.187E-01    0.12       1.0  T
  10    -32.9879650 -0.170934E-03  0.134E-01    0.15       1.0  T
  11    -32.9881691 -0.204070E-03  0.568E-03    0.13       4.0  T
  12    -32.9881398  0.292601E-04  0.519E-02    0.14       1.0  T
  13    -32.9881690 -0.292306E-04  0.435E-03    0.13       5.3  T
  14    -32.9881690  0.790377E-07  0.406E-03    0.13       5.6  T
  15    -32.9881691 -0.189807E-06  0.305E-04    0.13      75.2  T
  16    -32.9881691  0.430583E-08  0.708E-04    0.13      32.4  T
     SCC iter.                  ...        0 min,  0.013 sec
     gradient                   ...        0 min,  0.003 sec
 * total energy  :   -32.6940730 Eh     change       -0.1076456E+00 Eh
   gradient norm :     0.1967666 Eh/α   predicted    -0.7493145E-01 ( -30.39%)
   displ. norm   :     0.6791675 α      lambda       -0.1167220E+00
   maximum displ.:     0.3366868 α      in ANC's #30, #36, #38, ...

........................................................................
.............................. CYCLE    3 ..............................
........................................................................

 iter      E             dE          RMSdq      gap      omega  full diag
   1    -33.1698394 -0.331698E+02  0.146E+00    1.63       0.0  T
   2    -33.1798702 -0.100308E-01  0.664E-01    1.31       1.0  T
   3    -33.1814605 -0.159032E-02  0.427E-01    1.04       1.0  T
   4    -33.1820543 -0.593805E-03  0.204E-01    0.88       1.0  T
   5    -33.1821501 -0.957632E-04  0.102E-01    0.81       1.0  T
   6    -33.1821590 -0.889932E-05  0.335E-02    0.86       1.0  T
   7    -33.1821618 -0.284944E-05  0.158E-02    0.87       1.5  T
   8    -33.1821621 -0.322767E-06  0.443E-03    0.87       5.2  T
   9    -33.1821622 -0.666649E-07  0.160E-03    0.87      14.4  T
  10    -33.1821622 -0.706643E-08  0.537E-04    0.87      42.7  T
  11    -33.1821622 -0.743377E-09  0.197E-04    0.87     116.6  T
     SCC iter.                  ...        0 min,  0.010 sec
     gradient                   ...        0 min,  0.003 sec
 * total energy  :   -32.6649822 Eh     change        0.2909083E-01 Eh
   gradient norm :     0.8224973 Eh/α   predicted    -0.8528334E-01 (-393.16%)
   displ. norm   :     0.2942434 α      lambda       -0.2079112E+00
   maximum displ.:     0.1244754 α      in ANC's #36, #38, #30, ...

........................................................................
.............................. CYCLE    4 ..............................
........................................................................

 iter      E             dE          RMSdq      gap      omega  full diag
   1    -33.0769675 -0.330770E+02  0.900E-01    0.28       0.0  T
   2    -33.0802044 -0.323689E-02  0.694E-01    0.41       1.0  T
   3    -33.0861615 -0.595710E-02  0.287E-01    0.37       1.0  T
   4    -33.0865388 -0.377277E-03  0.155E-01    0.38       1.0  T
   5    -33.0865734 -0.346732E-04  0.242E-02    0.37       1.0  T
   6    -33.0865761 -0.269370E-05  0.141E-02    0.37       1.6  T
   7    -33.0865765 -0.394081E-06  0.242E-03    0.37       9.5  T
   8    -33.0865765 -0.950080E-08  0.140E-03    0.37      16.4  T
   9    -33.0865765 -0.451273E-08  0.442E-04    0.37      51.9  T
  10    -33.0865765 -0.286214E-09  0.175E-04    0.37     130.8  T
     SCC iter.                  ...        0 min,  0.009 sec
     gradient                   ...        0 min,  0.003 sec
 * total energy  :   -32.7345434 Eh     change       -0.6956126E-01 Eh
   gradient norm :     0.1346786 Eh/α   predicted    -0.1129560E+00 (  62.38%)
   displ. norm   :     0.2912338 α      lambda       -0.9442040E-02
   maximum displ.:     0.2086048 α      in ANC's #15, #12, #6, ...

........................................................................
.............................. CYCLE    5 ..............................
........................................................................

 iter      E             dE          RMSdq      gap      omega  full diag
   1    -33.0956697 -0.330957E+02  0.527E-01    0.28       0.0  T
   2    -33.0955362  0.133451E-03  0.551E-01    0.23       1.0  T
   3    -33.1002057 -0.466948E-02  0.116E-01    0.29       1.0  T
   4    -33.1002005  0.522596E-05  0.521E-02    0.28       1.0  T
   5    -33.1002150 -0.145053E-04  0.182E-02    0.29       1.3  T
   6    -33.1002161 -0.113645E-05  0.750E-03    0.29       3.1  T
   7    -33.1002164 -0.226562E-06  0.327E-03    0.29       7.0  T
   8    -33.1002164 -0.250963E-07  0.123E-03    0.29      18.7  T
   9    -33.1002164 -0.276236E-08  0.420E-04    0.29      54.6  T
  10    -33.1002164 -0.548134E-09  0.172E-04    0.29     133.3  T
     SCC iter.                  ...        0 min,  0.011 sec
     gradient                   ...        0 min,  0.003 sec
 * total energy  :   -32.7398708 Eh     change       -0.5327360E-02 Eh
   gradient norm :     0.0476994 Eh/α   predicted    -0.5121747E-02 (  -3.86%)
   displ. norm   :     0.2963669 α      lambda       -0.4264307E-02
   maximum displ.:     0.1844389 α      in ANC's #15, #6, #2, ...

........................................................................
.............................. CYCLE    6 ..............................
........................................................................

 iter      E             dE          RMSdq      gap      omega  full diag
   1    -33.1203228 -0.331203E+02  0.341E-01    0.49       0.0  T
   2    -33.1204872 -0.164416E-03  0.228E-01    0.49       1.0  T
   3    -33.1210345 -0.547300E-03  0.113E-01    0.46       1.0  T
   4    -33.1210994 -0.648709E-04  0.265E-02    0.45       1.0  T
   5    -33.1211015 -0.212482E-05  0.114E-02    0.45       2.0  T
   6    -33.1211017 -0.165252E-06  0.427E-03    0.45       5.4  T
   7    -33.1211017 -0.233595E-07  0.203E-03    0.45      11.3  T
   8    -33.1211017 -0.457498E-08  0.532E-04    0.45      43.1  T
   9    -33.1211017 -0.466827E-09  0.286E-04    0.45      80.1  T
     SCC iter.                  ...        0 min,  0.009 sec
     gradient                   ...        0 min,  0.003 sec
 * total energy  :   -32.7421845 Eh     change       -0.2313722E-02 Eh
   gradient norm :     0.0107192 Eh/α   predicted    -0.2319400E-02 (   0.25%)
   displ. norm   :     0.2534162 α      lambda       -0.8855835E-03
   maximum displ.:     0.1529139 α      in ANC's #6, #2, #1, ...

........................................................................
.............................. CYCLE    7 ..............................
........................................................................

 iter      E             dE          RMSdq      gap      omega  full diag
   1    -33.1231891 -0.331232E+02  0.234E-01    0.48       0.0  T
   2    -33.1232060 -0.168796E-04  0.115E-01    0.49       1.0  T
   3    -33.1231517  0.542621E-04  0.775E-02    0.48       1.0  T
   4    -33.1232375 -0.857624E-04  0.140E-02    0.48       1.6  T
   5    -33.1232376 -0.127865E-06  0.240E-03    0.48       9.5  T
   6    -33.1232377 -0.254185E-07  0.134E-03    0.48      17.2  T
   7    -33.1232377 -0.135076E-08  0.459E-04    0.48      49.9  T
   8    -33.1232377 -0.548845E-09  0.203E-04    0.48     113.0  T
     SCC iter.                  ...        0 min,  0.007 sec
     gradient                   ...        0 min,  0.003 sec
 * total energy  :   -32.7428661 Eh     change       -0.6816073E-03 Eh
   gradient norm :     0.0136299 Eh/α   predicted    -0.4712300E-03 ( -30.86%)
   displ. norm   :     0.5523924 α      lambda       -0.1836012E-02
   maximum displ.:     0.3314591 α      in ANC's #6, #2, #12, ...

........................................................................
.............................. CYCLE    8 ..............................
........................................................................

 iter      E             dE          RMSdq      gap      omega  full diag
   1    -33.1173570 -0.331174E+02  0.530E-01    0.47       0.0  T
   2    -33.1174463 -0.893446E-04  0.267E-01    0.48       1.0  T
   3    -33.1171191  0.327202E-03  0.188E-01    0.46       1.0  T
   4    -33.1176283 -0.509236E-03  0.321E-02    0.48       1.0  T
   5    -33.1176292 -0.847371E-06  0.723E-03    0.48       3.2  T
   6    -33.1176293 -0.129065E-06  0.347E-03    0.48       6.6  T
   7    -33.1176293 -0.135872E-07  0.162E-03    0.48      14.2  T
   8    -33.1176293 -0.365727E-08  0.508E-04    0.48      45.1  T
   9    -33.1176293 -0.413237E-09  0.295E-04    0.48      77.8  T
     SCC iter.                  ...        0 min,  0.008 sec
     gradient                   ...        0 min,  0.003 sec
 * total energy  :   -32.7439294 Eh     change       -0.1063303E-02 Eh
   gradient norm :     0.0455687 Eh/α   predicted    -0.1198120E-02 (  12.68%)
   displ. norm   :     0.2982360 α      lambda       -0.1209916E-02
   maximum displ.:     0.1546354 α      in ANC's #2, #12, #8, ...

........................................................................
.............................. CYCLE    9 ..............................
........................................................................

 iter      E             dE          RMSdq      gap      omega  full diag
   1    -33.1177210 -0.331177E+02  0.267E-01    0.49       0.0  T
   2    -33.1177377 -0.166613E-04  0.144E-01    0.49       1.0  T
   3    -33.1177196  0.180347E-04  0.434E-02    0.49       1.0  T
   4    -33.1177452 -0.256211E-04  0.144E-02    0.50       1.6  T
   5    -33.1177463 -0.103316E-05  0.509E-03    0.50       4.5  T
   6    -33.1177463 -0.551571E-07  0.209E-03    0.50      11.0  T
   7    -33.1177463 -0.163578E-08  0.596E-04    0.50      38.5  T
   8    -33.1177463 -0.113257E-08  0.314E-04    0.50      73.0  T
     SCC iter.                  ...        0 min,  0.007 sec
     gradient                   ...        0 min,  0.003 sec
 * total energy  :   -32.7447244 Eh     change       -0.7950075E-03 Eh
   gradient norm :     0.0297165 Eh/α   predicted    -0.6587660E-03 ( -17.14%)
   displ. norm   :     0.3847208 α      lambda       -0.1244919E-02
   maximum displ.:     0.1946566 α      in ANC's #6, #2, #12, ...

........................................................................
.............................. CYCLE   10 ..............................
........................................................................

 iter      E             dE          RMSdq      gap      omega  full diag
   1    -33.1176845 -0.331177E+02  0.337E-01    0.52       0.0  T
   2    -33.1177176 -0.330894E-04  0.171E-01    0.53       1.0  T
   3    -33.1176134  0.104161E-03  0.971E-02    0.52       1.0  T
   4    -33.1177534 -0.139948E-03  0.216E-02    0.52       1.1  T
   5    -33.1177543 -0.916861E-06  0.588E-03    0.52       3.9  T
   6    -33.1177544 -0.959398E-07  0.205E-03    0.52      11.2  T
   7    -33.1177544 -0.167019E-08  0.907E-04    0.52      25.3  T
   8    -33.1177544 -0.221158E-08  0.237E-04    0.52      97.0  T
     SCC iter.                  ...        0 min,  0.007 sec
     gradient                   ...        0 min,  0.003 sec
 * total energy  :   -32.7455652 Eh     change       -0.8407525E-03 Eh
   gradient norm :     0.0188104 Eh/α   predicted    -0.7145898E-03 ( -15.01%)
   displ. norm   :     0.3960033 α      lambda       -0.1044547E-02
   maximum displ.:     0.2272234 α      in ANC's #6, #2, #12, ...

........................................................................
.............................. CYCLE   11 ..............................
........................................................................

 iter      E             dE          RMSdq      gap      omega  full diag
   1    -33.1218537 -0.331219E+02  0.365E-01    0.57       0.0  T
   2    -33.1218948 -0.411074E-04  0.176E-01    0.57       1.0  T
   3    -33.1218292  0.655450E-04  0.804E-02    0.56       1.0  T
   4    -33.1219204 -0.911722E-04  0.219E-02    0.57       1.0  T
   5    -33.1219217 -0.123782E-05  0.574E-03    0.57       4.0  T
   6    -33.1219217 -0.755541E-07  0.204E-03    0.57      11.3  T
   7    -33.1219217 -0.158462E-08  0.702E-04    0.57      32.7  T
   8    -33.1219217 -0.110398E-08  0.206E-04    0.57     111.5  T
     SCC iter.                  ...        0 min,  0.008 sec
     gradient                   ...        0 min,  0.003 sec
 * total energy  :   -32.7460800 Eh     change       -0.5148088E-03 Eh
   gradient norm :     0.0240990 Eh/α   predicted    -0.6041768E-03 (  17.36%)
   displ. norm   :     0.2729363 α      lambda       -0.9594133E-03
   maximum displ.:     0.1241748 α      in ANC's #8, #2, #12, ...

........................................................................
.............................. CYCLE   12 ..............................
........................................................................

 iter      E             dE          RMSdq      gap      omega  full diag
   1    -33.1274669 -0.331275E+02  0.193E-01    0.60       0.0  T
   2    -33.1274867 -0.197420E-04  0.118E-01    0.61       1.0  T
   3    -33.1274572  0.294747E-04  0.809E-02    0.60       1.0  T
   4    -33.1275288 -0.716245E-04  0.991E-03    0.61       2.3  T
   5    -33.1275291 -0.302354E-06  0.552E-03    0.61       4.2  T
   6    -33.1275291 -0.139573E-07  0.143E-03    0.61      16.0  T
   7    -33.1275291 -0.104887E-08  0.629E-04    0.61      36.5  T
   8    -33.1275291 -0.788788E-09  0.299E-04    0.61      76.6  T
     SCC iter.                  ...        0 min,  0.007 sec
     gradient                   ...        0 min,  0.003 sec
 * total energy  :   -32.7461978 Eh     change       -0.1177621E-03 Eh
   gradient norm :     0.0329126 Eh/α   predicted    -0.5154437E-03 ( 337.70%)
   displ. norm   :     0.4075358 α      lambda       -0.1136698E-02
   maximum displ.:     0.2152355 α      in ANC's #6, #2, #8, ...

........................................................................
.............................. CYCLE   13 ..............................
........................................................................

 iter      E             dE          RMSdq      gap      omega  full diag
   1    -33.1095191 -0.331095E+02  0.351E-01    0.54       0.0  T
   2    -33.1096079 -0.887779E-04  0.193E-01    0.56       1.0  T
   3    -33.1095114  0.964824E-04  0.143E-01    0.55       1.0  T
   4    -33.1097734 -0.262014E-03  0.252E-02    0.56       1.0  T
   5    -33.1097746 -0.117694E-05  0.924E-03    0.56       2.5  T
   6    -33.1097747 -0.608106E-07  0.316E-03    0.56       7.3  T
   7    -33.1097747 -0.310998E-07  0.155E-03    0.56      14.8  T
   8    -33.1097747 -0.215124E-08  0.372E-04    0.56      61.7  T
   9    -33.1097747 -0.571752E-09  0.189E-04    0.56     121.5  T
     SCC iter.                  ...        0 min,  0.008 sec
     gradient                   ...        0 min,  0.003 sec
 * total energy  :   -32.7460216 Eh     change        0.1761513E-03 Eh
   gradient norm :     0.0522710 Eh/α   predicted    -0.6627430E-03 (-476.24%)
   displ. norm   :     0.2380932 α      lambda       -0.1888913E-02
   maximum displ.:     0.1353681 α      in ANC's #8, #2, #12, ...

........................................................................
.............................. CYCLE   14 ..............................
........................................................................

 iter      E             dE          RMSdq      gap      omega  full diag
   1    -33.1232331 -0.331232E+02  0.204E-01    0.66       0.0  T
   2    -33.1233030 -0.698842E-04  0.120E-01    0.64       1.0  T
   3    -33.1232690  0.339592E-04  0.761E-02    0.64       1.0  T
   4    -33.1233327 -0.637192E-04  0.186E-02    0.63       1.2  T
   5    -33.1233348 -0.202824E-05  0.563E-03    0.63       4.1  T
   6    -33.1233348 -0.160283E-07  0.251E-03    0.63       9.2  T
   7    -33.1233348 -0.826024E-08  0.605E-04    0.63      37.9  T
   8    -33.1233348 -0.397350E-09  0.214E-04    0.63     107.0  T
     SCC iter.                  ...        0 min,  0.008 sec
     gradient                   ...        0 min,  0.003 sec
 * total energy  :   -32.7465242 Eh     change       -0.5025942E-03 Eh
   gradient norm :     0.0220266 Eh/α   predicted    -0.9979981E-03 (  98.57%)
   displ. norm   :     0.1367622 α      lambda       -0.7672688E-03
   maximum displ.:     0.0640558 α      in ANC's #6, #8, #12, ...

........................................................................
.............................. CYCLE   15 ..............................
........................................................................

 iter      E             dE          RMSdq      gap      omega  full diag
   1    -33.1263496 -0.331263E+02  0.134E-01    0.61       0.0  T
   2    -33.1263601 -0.105056E-04  0.736E-02    0.61       1.0  T
   3    -33.1263446  0.155159E-04  0.424E-02    0.61       1.0  T
   4    -33.1263671 -0.224687E-04  0.110E-02    0.61       2.1  T
   5    -33.1263679 -0.800389E-06  0.428E-03    0.61       5.4  T
   6    -33.1263679 -0.144965E-07  0.999E-04    0.61      23.0  T
   7    -33.1263679 -0.515335E-09  0.405E-04    0.61      56.7  T
     SCC iter.                  ...        0 min,  0.007 sec
     gradient                   ...        0 min,  0.003 sec
 * total energy  :   -32.7467779 Eh     change       -0.2536691E-03 Eh
   gradient norm :     0.0158111 Eh/α   predicted    -0.3908120E-03 (  54.06%)
   displ. norm   :     0.1505422 α      lambda       -0.2409838E-03
   maximum displ.:     0.0913696 α      in ANC's #6, #8, #12, ...

........................................................................
.............................. CYCLE   16 ..............................
........................................................................

 iter      E             dE          RMSdq      gap      omega  full diag
   1    -33.1228492 -0.331228E+02  0.145E-01    0.62       0.0  T
   2    -33.1228639 -0.146171E-04  0.875E-02    0.63       1.0  T
   3    -33.1229037 -0.398262E-04  0.511E-02    0.62       1.0  T
   4    -33.1229284 -0.246972E-04  0.862E-03    0.63       2.7  T
   5    -33.1229285 -0.815789E-07  0.306E-03    0.63       7.5  T
   6    -33.1229285 -0.101049E-07  0.116E-03    0.63      19.8  T
   7    -33.1229285 -0.223657E-08  0.612E-04    0.63      37.5  T
   8    -33.1229285 -0.239929E-09  0.181E-04    0.63     126.8  T
     SCC iter.                  ...        0 min,  0.007 sec
     gradient                   ...        0 min,  0.003 sec
 * total energy  :   -32.7469331 Eh     change       -0.1552769E-03 Eh
   gradient norm :     0.0052707 Eh/α   predicted    -0.1232225E-03 ( -20.64%)
   displ. norm   :     0.1884317 α      lambda       -0.1364873E-03
   maximum displ.:     0.0990328 α      in ANC's #6, #8, #12, ...

........................................................................
.............................. CYCLE   17 ..............................
........................................................................

 iter      E             dE          RMSdq      gap      omega  full diag
   1    -33.1207767 -0.331208E+02  0.141E-01    0.62       0.0  T
   2    -33.1207847 -0.797677E-05  0.651E-02    0.62       1.0  T
   3    -33.1207836  0.111388E-05  0.187E-02    0.62       1.2  T
   4    -33.1207864 -0.282140E-05  0.906E-03    0.62       2.5  T
   5    -33.1207870 -0.539150E-06  0.287E-03    0.62       8.0  T
   6    -33.1207870 -0.219051E-07  0.918E-04    0.62      25.0  T
   7    -33.1207870 -0.692779E-09  0.414E-04    0.62      55.5  T
     SCC iter.                  ...        0 min,  0.006 sec
     gradient                   ...        0 min,  0.003 sec
 * total energy  :   -32.7470048 Eh     change       -0.7166272E-04 Eh
   gradient norm :     0.0091600 Eh/α   predicted    -0.7067129E-04 (  -1.38%)
   displ. norm   :     0.1118041 α      lambda       -0.9728470E-04
   maximum displ.:     0.0486955 α      in ANC's #11, #6, #8, ...

........................................................................
.............................. CYCLE   18 ..............................
........................................................................

 iter      E             dE          RMSdq      gap      omega  full diag
   1    -33.1218726 -0.331219E+02  0.883E-02    0.64       0.0  T
   2    -33.1218779 -0.534989E-05  0.567E-02    0.64       1.0  T
   3    -33.1219039 -0.260012E-04  0.303E-02    0.64       1.0  T
   4    -33.1219106 -0.664725E-05  0.583E-03    0.64       3.9  T
   5    -33.1219106 -0.335483E-07  0.158E-03    0.64      14.5  T
   6    -33.1219106 -0.526972E-08  0.798E-04    0.64      28.8  T
   7    -33.1219106 -0.723468E-09  0.352E-04    0.64      65.3  T
     SCC iter.                  ...        0 min,  0.006 sec
     gradient                   ...        0 min,  0.003 sec
 * total energy  :   -32.7470716 Eh     change       -0.6675061E-04 Eh
   gradient norm :     0.0066479 Eh/α   predicted    -0.4925508E-04 ( -26.21%)
   displ. norm   :     0.1140438 α      lambda       -0.8618505E-04
   maximum displ.:     0.0533348 α      in ANC's #8, #11, #12, ...

........................................................................
.............................. CYCLE   19 ..............................
........................................................................

 iter      E             dE          RMSdq      gap      omega  full diag
   1    -33.1236328 -0.331236E+02  0.649E-02    0.64       0.0  T
   2    -33.1236341 -0.122992E-05  0.320E-02    0.64       1.0  T
   3    -33.1236340  0.620991E-07  0.800E-03    0.64       2.9  T
   4    -33.1236343 -0.279701E-06  0.452E-03    0.64       5.1  T
   5    -33.1236344 -0.139335E-06  0.132E-03    0.64      17.4  T
   6    -33.1236344 -0.953272E-08  0.407E-04    0.64      56.4  T
   7    -33.1236344 -0.885407E-10  0.107E-04    0.64     214.6  T
     SCC iter.                  ...        0 min,  0.006 sec
     gradient                   ...        0 min,  0.003 sec
 * total energy  :   -32.7471209 Eh     change       -0.4938268E-04 Eh
   gradient norm :     0.0040007 Eh/α   predicted    -0.4365675E-04 ( -11.60%)
   displ. norm   :     0.1144294 α      lambda       -0.3110774E-04
   maximum displ.:     0.0501763 α      in ANC's #6, #12, #11, ...

........................................................................
.............................. CYCLE   20 ..............................
........................................................................

 iter      E             dE          RMSdq      gap      omega  full diag
   1    -33.1229772 -0.331230E+02  0.841E-02    0.65       0.0  T
   2    -33.1229802 -0.302802E-05  0.421E-02    0.65       1.0  T
   3    -33.1229749  0.535422E-05  0.307E-02    0.65       1.0  T
   4    -33.1229877 -0.128199E-04  0.482E-03    0.65       4.8  T
   5    -33.1229877 -0.123203E-07  0.119E-03    0.65      19.4  T
   6    -33.1229877 -0.126166E-08  0.410E-04    0.65      55.9  T
   7    -33.1229877 -0.109146E-09  0.179E-04    0.65     127.9  T
     SCC iter.                  ...        0 min,  0.006 sec
     gradient                   ...        0 min,  0.003 sec
 * total energy  :   -32.7471419 Eh     change       -0.2096689E-04 Eh
   gradient norm :     0.0027836 Eh/α   predicted    -0.1575875E-04 ( -24.84%)
   displ. norm   :     0.1412494 α      lambda       -0.4922754E-04
   maximum displ.:     0.0585981 α      in ANC's #12, #6, #2, ...
 * RMSD in coord.:     0.8339427 α      energy gain  -0.1607145E+00 Eh

generating ANC from exact Hessian ...
Using Lindh-Hessian (1995)
 Shifting diagonal of input Hessian by    9.7867234134136147E-003
 Lowest  eigenvalues of input Hessian
    0.000000    0.000000    0.000000    0.000000    0.000000    0.000000
    0.010000    0.010131    0.010537    0.010601    0.010821    0.011174
    0.012185    0.016276    0.019942    0.020977    0.022518    0.029225
 Highest eigenvalues
    1.323906    1.584573    1.937973    2.342091    2.790146    3.980712


........................................................................
.............................. CYCLE   21 ..............................
........................................................................

 iter      E             dE          RMSdq      gap      omega  full diag
   1    -33.1234883 -0.331235E+02  0.103E-01    0.66       0.0  T
   2    -33.1234922 -0.382480E-05  0.484E-02    0.66       1.0  T
   3    -33.1234822  0.999845E-05  0.341E-02    0.66       1.0  T
   4    -33.1234994 -0.172020E-04  0.530E-03    0.66       4.3  T
   5    -33.1234994 -0.145989E-07  0.104E-03    0.66      22.2  T
   6    -33.1234994 -0.955218E-09  0.383E-04    0.66      59.8  T
   7    -33.1234994 -0.765041E-10  0.161E-04    0.66     142.1  T
     SCC iter.                  ...        0 min,  0.006 sec
     gradient                   ...        0 min,  0.003 sec
 * total energy  :   -32.7471784 Eh     change       -0.3654379E-04 Eh
   gradient norm :     0.0026775 Eh/α   predicted     0.0000000E+00 (-100.00%)
   displ. norm   :     0.0547826 α      lambda       -0.5195528E-04
   maximum displ.:     0.0396976 α      in ANC's #1, #8, #7, ...

........................................................................
.............................. CYCLE   22 ..............................
........................................................................

 iter      E             dE          RMSdq      gap      omega  full diag
   1    -33.1231364 -0.331231E+02  0.367E-02    0.66       0.0  T
   2    -33.1231369 -0.527130E-06  0.213E-02    0.66       1.1  T
   3    -33.1231360  0.868491E-06  0.156E-02    0.66       1.5  T
   4    -33.1231386 -0.257069E-05  0.207E-03    0.66      11.1  T
   5    -33.1231386 -0.586243E-08  0.822E-04    0.66      27.9  T
   6    -33.1231386 -0.724334E-09  0.237E-04    0.66      96.9  T
     SCC iter.                  ...        0 min,  0.006 sec
     gradient                   ...        0 min,  0.003 sec
 * total energy  :   -32.7472043 Eh     change       -0.2586748E-04 Eh
   gradient norm :     0.0024381 Eh/α   predicted    -0.2626444E-04 (   1.53%)
   displ. norm   :     0.1380649 α      lambda       -0.1297374E-03
   maximum displ.:     0.0972922 α      in ANC's #1, #8, #2, ...

........................................................................
.............................. CYCLE   23 ..............................
........................................................................

 iter      E             dE          RMSdq      gap      omega  full diag
   1    -33.1220147 -0.331220E+02  0.997E-02    0.64       0.0  T
   2    -33.1220188 -0.410242E-05  0.582E-02    0.64       1.0  T
   3    -33.1220145  0.429298E-05  0.411E-02    0.64       1.0  T
   4    -33.1220333 -0.187691E-04  0.520E-03    0.64       4.4  T
   5    -33.1220333 -0.407429E-07  0.200E-03    0.64      11.5  T
   6    -33.1220333 -0.475423E-08  0.651E-04    0.64      35.2  T
   7    -33.1220333 -0.281581E-09  0.266E-04    0.64      86.4  T
     SCC iter.                  ...        0 min,  0.008 sec
     gradient                   ...        0 min,  0.004 sec
 * total energy  :   -32.7472257 Eh     change       -0.2134727E-04 Eh
   gradient norm :     0.0073428 Eh/α   predicted    -0.6610613E-04 ( 209.67%)
   displ. norm   :     0.0608092 α      lambda       -0.1170198E-03
   maximum displ.:     0.0394507 α      in ANC's #1, #4, #3, ...

........................................................................
.............................. CYCLE   24 ..............................
........................................................................

 iter      E             dE          RMSdq      gap      omega  full diag
   1    -33.1228259 -0.331228E+02  0.562E-02    0.65       0.0  T
   2    -33.1228270 -0.114094E-05  0.295E-02    0.65       1.0  T
   3    -33.1228272 -0.200137E-06  0.530E-03    0.65       4.3  T
   4    -33.1228272 -0.361040E-08  0.363E-03    0.65       6.3  T
   5    -33.1228274 -0.152491E-06  0.908E-04    0.65      25.3  T
   6    -33.1228274 -0.109305E-08  0.338E-04    0.65      67.9  T
     SCC iter.                  ...        0 min,  0.006 sec
     gradient                   ...        0 min,  0.003 sec
 * total energy  :   -32.7472910 Eh     change       -0.6532366E-04 Eh
   gradient norm :     0.0039668 Eh/α   predicted    -0.5872695E-04 ( -10.10%)
   displ. norm   :     0.0831607 α      lambda       -0.6663358E-04
   maximum displ.:     0.0558634 α      in ANC's #1, #3, #4, ...

........................................................................
.............................. CYCLE   25 ..............................
........................................................................

 iter      E             dE          RMSdq      gap      omega  full diag
   1    -33.1236886 -0.331237E+02  0.618E-02    0.66       0.0  T
   2    -33.1236901 -0.144123E-05  0.282E-02    0.66       1.0  T
   3    -33.1236899  0.169531E-06  0.737E-03    0.66       3.1  T
   4    -33.1236903 -0.430462E-06  0.406E-03    0.66       5.6  T
   5    -33.1236904 -0.104174E-06  0.972E-04    0.66      23.6  T
   6    -33.1236905 -0.266038E-08  0.315E-04    0.66      72.9  T
     SCC iter.                  ...        0 min,  0.005 sec
     gradient                   ...        0 min,  0.003 sec
 * total energy  :   -32.7473382 Eh     change       -0.4724456E-04 Eh
   gradient norm :     0.0025970 Eh/α   predicted    -0.3355165E-04 ( -28.98%)
   displ. norm   :     0.1657166 α      lambda       -0.6740771E-04
   maximum displ.:     0.1137554 α      in ANC's #1, #3, #4, ...

........................................................................
.............................. CYCLE   26 ..............................
........................................................................

 iter      E             dE          RMSdq      gap      omega  full diag
   1    -33.1235029 -0.331235E+02  0.109E-01    0.67       0.0  T
   2    -33.1235066 -0.363502E-05  0.498E-02    0.66       1.0  T
   3    -33.1235063  0.315373E-06  0.123E-02    0.67       1.9  T
   4    -33.1235075 -0.123516E-05  0.627E-03    0.66       3.7  T
   5    -33.1235077 -0.176550E-06  0.930E-04    0.66      24.7  T
   6    -33.1235077 -0.138109E-08  0.466E-04    0.66      49.2  T
     SCC iter.                  ...        0 min,  0.005 sec
     gradient                   ...        0 min,  0.003 sec
 * total energy  :   -32.7473953 Eh     change       -0.5701796E-04 Eh
   gradient norm :     0.0032272 Eh/α   predicted    -0.3463075E-04 ( -39.26%)
   displ. norm   :     0.2510542 α      lambda       -0.9203516E-04
   maximum displ.:     0.1681157 α      in ANC's #1, #3, #4, ...

........................................................................
.............................. CYCLE   27 ..............................
........................................................................

 iter      E             dE          RMSdq      gap      omega  full diag
   1    -33.1228053 -0.331228E+02  0.162E-01    0.66       0.0  T
   2    -33.1228134 -0.804101E-05  0.733E-02    0.66       1.0  T
   3    -33.1228100  0.334132E-05  0.228E-02    0.66       1.0  T
   4    -33.1228161 -0.609059E-05  0.911E-03    0.66       2.5  T
   5    -33.1228163 -0.200383E-06  0.150E-03    0.66      15.3  T
   6    -33.1228163 -0.738822E-08  0.702E-04    0.66      32.7  T
   7    -33.1228163 -0.198831E-09  0.235E-04    0.66      97.8  T
     SCC iter.                  ...        0 min,  0.006 sec
     gradient                   ...        0 min,  0.003 sec
 * total energy  :   -32.7474705 Eh     change       -0.7525707E-04 Eh
   gradient norm :     0.0039399 Eh/α   predicted    -0.4892728E-04 ( -34.99%)
   displ. norm   :     0.2748876 α      lambda       -0.9686351E-04
   maximum displ.:     0.1855296 α      in ANC's #1, #3, #4, ...

........................................................................
.............................. CYCLE   28 ..............................
........................................................................

 iter      E             dE          RMSdq      gap      omega  full diag
   1    -33.1222596 -0.331223E+02  0.172E-01    0.66       0.0  T
   2    -33.1222690 -0.939952E-05  0.775E-02    0.65       1.0  T
   3    -33.1222673  0.175649E-05  0.208E-02    0.65       1.1  T
   4    -33.1222716 -0.430889E-05  0.970E-03    0.65       2.4  T
   5    -33.1222719 -0.319164E-06  0.183E-03    0.65      12.6  T
   6    -33.1222719 -0.172119E-07  0.737E-04    0.65      31.1  T
   7    -33.1222719 -0.193701E-09  0.282E-04    0.65      81.4  T
     SCC iter.                  ...        0 min,  0.006 sec
     gradient                   ...        0 min,  0.003 sec
 * total energy  :   -32.7475472 Eh     change       -0.7669651E-04 Eh
   gradient norm :     0.0046367 Eh/α   predicted    -0.5209238E-04 ( -32.08%)
   displ. norm   :     0.2804722 α      lambda       -0.1189351E-03
   maximum displ.:     0.1950961 α      in ANC's #1, #3, #2, ...

........................................................................
.............................. CYCLE   29 ..............................
........................................................................

 iter      E             dE          RMSdq      gap      omega  full diag
   1    -33.1227326 -0.331227E+02  0.167E-01    0.65       0.0  T
   2    -33.1227416 -0.904840E-05  0.749E-02    0.65       1.0  T
   3    -33.1227431 -0.144835E-05  0.133E-02    0.65       1.7  T
   4    -33.1227430  0.784106E-07  0.866E-03    0.65       2.6  T
   5    -33.1227436 -0.590035E-06  0.216E-03    0.65      10.6  T
   6    -33.1227437 -0.511685E-07  0.677E-04    0.65      33.9  T
   7    -33.1227437 -0.295195E-09  0.302E-04    0.65      75.8  T
     SCC iter.                  ...        0 min,  0.006 sec
     gradient                   ...        0 min,  0.003 sec
 * total energy  :   -32.7476440 Eh     change       -0.9677984E-04 Eh
   gradient norm :     0.0042822 Eh/α   predicted    -0.6414767E-04 ( -33.72%)
   displ. norm   :     0.3769527 α      lambda       -0.1578083E-03
   maximum displ.:     0.2664998 α      in ANC's #1, #3, #2, ...

........................................................................
.............................. CYCLE   30 ..............................
........................................................................

 iter      E             dE          RMSdq      gap      omega  full diag
   1    -33.1232228 -0.331232E+02  0.212E-01    0.64       0.0  T
   2    -33.1232373 -0.144898E-04  0.957E-02    0.64       1.0  T
   3    -33.1232401 -0.284790E-05  0.159E-02    0.64       1.4  T
   4    -33.1232399  0.239721E-06  0.759E-03    0.64       3.0  T
   5    -33.1232403 -0.383847E-06  0.260E-03    0.64       8.8  T
   6    -33.1232404 -0.950258E-07  0.779E-04    0.64      29.5  T
   7    -33.1232404 -0.604651E-09  0.328E-04    0.64      69.9  T
     SCC iter.                  ...        0 min,  0.006 sec
     gradient                   ...        0 min,  0.003 sec
 * total energy  :   -32.7477734 Eh     change       -0.1294075E-03 Eh
   gradient norm :     0.0048520 Eh/α   predicted    -0.9011737E-04 ( -30.36%)
   displ. norm   :     0.5200147 α      lambda       -0.1914145E-03
   maximum displ.:     0.3674615 α      in ANC's #1, #3, #2, ...

........................................................................
.............................. CYCLE   31 ..............................
........................................................................

 iter      E             dE          RMSdq      gap      omega  full diag
   1    -33.1227162 -0.331227E+02  0.283E-01    0.63       0.0  T
   2    -33.1227428 -0.266476E-04  0.127E-01    0.63       1.0  T
   3    -33.1227479 -0.507495E-05  0.215E-02    0.63       1.1  T
   4    -33.1227466  0.127590E-05  0.125E-02    0.63       1.8  T
   5    -33.1227484 -0.178506E-05  0.253E-03    0.63       9.1  T
   6    -33.1227485 -0.727500E-07  0.958E-04    0.63      24.0  T
   7    -33.1227485 -0.499135E-09  0.324E-04    0.63      70.8  T
     SCC iter.                  ...        0 min,  0.006 sec
     gradient                   ...        0 min,  0.003 sec
 * total energy  :   -32.7479294 Eh     change       -0.1559821E-03 Eh
   gradient norm :     0.0062232 Eh/α   predicted    -0.1215915E-03 ( -22.05%)
   displ. norm   :     0.5015770 α      lambda       -0.2938374E-03
   maximum displ.:     0.3616972 α      in ANC's #1, #3, #2, ...

........................................................................
.............................. CYCLE   32 ..............................
........................................................................

 iter      E             dE          RMSdq      gap      omega  full diag
   1    -33.1278542 -0.331279E+02  0.248E-01    0.64       0.0  T
   2    -33.1278771 -0.228830E-04  0.116E-01    0.64       1.0  T
   3    -33.1278751  0.196827E-05  0.292E-02    0.64       1.0  T
   4    -33.1278812 -0.611166E-05  0.158E-02    0.64       1.4  T
   5    -33.1278825 -0.132811E-05  0.383E-03    0.64       6.0  T
   6    -33.1278826 -0.470625E-07  0.876E-04    0.64      26.2  T
   7    -33.1278826 -0.699330E-09  0.407E-04    0.64      56.3  T
     SCC iter.                  ...        0 min,  0.007 sec
     gradient                   ...        0 min,  0.004 sec
 * total energy  :   -32.7480435 Eh     change       -0.1141190E-03 Eh
   gradient norm :     0.0095424 Eh/α   predicted    -0.1838819E-03 (  61.13%)
   displ. norm   :     0.6528786 α      lambda       -0.3219775E-03
   maximum displ.:     0.4613284 α      in ANC's #1, #3, #2, ...

........................................................................
.............................. CYCLE   33 ..............................
........................................................................

 iter      E             dE          RMSdq      gap      omega  full diag
   1    -33.1204400 -0.331204E+02  0.341E-01    0.63       0.0  T
   2    -33.1204858 -0.458390E-04  0.155E-01    0.63       1.0  T
   3    -33.1204914 -0.555517E-05  0.310E-02    0.63       1.0  T
   4    -33.1204915 -0.173044E-06  0.204E-02    0.62       1.1  T
   5    -33.1204947 -0.318983E-05  0.612E-03    0.62       3.8  T
   6    -33.1204950 -0.304268E-06  0.132E-03    0.62      17.4  T
   7    -33.1204950 -0.134662E-08  0.730E-04    0.62      31.4  T
   8    -33.1204950 -0.645493E-09  0.257E-04    0.62      89.3  T
     SCC iter.                  ...        0 min,  0.009 sec
     gradient                   ...        0 min,  0.003 sec
 * total energy  :   -32.7481700 Eh     change       -0.1265035E-03 Eh
   gradient norm :     0.0098790 Eh/α   predicted    -0.2296117E-03 (  81.51%)
   displ. norm   :     0.1052833 α      lambda       -0.1773541E-03
   maximum displ.:     0.0650509 α      in ANC's #1, #3, #9, ...

........................................................................
.............................. CYCLE   34 ..............................
........................................................................

 iter      E             dE          RMSdq      gap      omega  full diag
   1    -33.1240490 -0.331240E+02  0.730E-02    0.63       0.0  T
   2    -33.1240533 -0.430053E-05  0.371E-02    0.63       1.0  T
   3    -33.1240506  0.272381E-05  0.182E-02    0.63       1.3  T
   4    -33.1240545 -0.394587E-05  0.699E-03    0.63       3.3  T
   5    -33.1240549 -0.355585E-06  0.275E-03    0.63       8.4  T
   6    -33.1240549 -0.123411E-07  0.606E-04    0.63      37.9  T
   7    -33.1240549 -0.101473E-08  0.322E-04    0.63      71.2  T
     SCC iter.                  ...        0 min,  0.006 sec
     gradient                   ...        0 min,  0.003 sec
 * total energy  :   -32.7482649 Eh     change       -0.9486397E-04 Eh
   gradient norm :     0.0047511 Eh/α   predicted    -0.8966407E-04 (  -5.48%)
   displ. norm   :     0.4107287 α      lambda       -0.1750764E-03
   maximum displ.:     0.2939188 α      in ANC's #1, #3, #2, ...

........................................................................
.............................. CYCLE   35 ..............................
........................................................................

 iter      E             dE          RMSdq      gap      omega  full diag
   1    -33.1256549 -0.331257E+02  0.210E-01    0.65       0.0  T
   2    -33.1256712 -0.163274E-04  0.937E-02    0.65       1.0  T
   3    -33.1256736 -0.236912E-05  0.169E-02    0.64       1.4  T
   4    -33.1256732  0.356214E-06  0.116E-02    0.65       2.0  T
   5    -33.1256745 -0.134714E-05  0.136E-03    0.64      16.9  T
   6    -33.1256746 -0.742752E-08  0.588E-04    0.64      39.0  T
   7    -33.1256746 -0.292722E-09  0.260E-04    0.64      88.2  T
     SCC iter.                  ...        0 min,  0.006 sec
     gradient                   ...        0 min,  0.003 sec
 * total energy  :   -32.7483965 Eh     change       -0.1316616E-03 Eh
   gradient norm :     0.0061038 Eh/α   predicted    -0.1023078E-03 ( -22.29%)
   displ. norm   :     0.7329949 α      lambda       -0.2902567E-03
   maximum displ.:     0.5299845 α      in ANC's #1, #3, #2, ...

........................................................................
.............................. CYCLE   36 ..............................
........................................................................

 iter      E             dE          RMSdq      gap      omega  full diag
   1    -33.1235196 -0.331235E+02  0.350E-01    0.65       0.0  T
   2    -33.1235618 -0.421717E-04  0.159E-01    0.65       1.0  T
   3    -33.1235699 -0.804564E-05  0.269E-02    0.65       1.0  T
   4    -33.1235692  0.609146E-06  0.929E-03    0.65       2.5  T
   5    -33.1235701 -0.863473E-06  0.307E-03    0.65       7.5  T
   6    -33.1235702 -0.127574E-06  0.119E-03    0.65      19.2  T
   7    -33.1235702 -0.457668E-08  0.526E-04    0.65      43.6  T
   8    -33.1235702 -0.253195E-09  0.135E-04    0.65     169.6  T
     SCC iter.                  ...        0 min,  0.007 sec
     gradient                   ...        0 min,  0.003 sec
 * total energy  :   -32.7486389 Eh     change       -0.2424209E-03 Eh
   gradient norm :     0.0098777 Eh/α   predicted    -0.2231073E-03 (  -7.97%)
   displ. norm   :     0.5267855 α      lambda       -0.3492313E-03
   maximum displ.:     0.3721619 α      in ANC's #1, #2, #3, ...

........................................................................
.............................. CYCLE   37 ..............................
........................................................................

 iter      E             dE          RMSdq      gap      omega  full diag
   1    -33.1234517 -0.331235E+02  0.264E-01    0.65       0.0  T
   2    -33.1234753 -0.235608E-04  0.120E-01    0.65       1.0  T
   3    -33.1234778 -0.254896E-05  0.237E-02    0.65       1.0  T
   4    -33.1234778  0.686131E-07  0.159E-02    0.66       1.4  T
   5    -33.1234798 -0.204888E-05  0.480E-03    0.66       4.8  T
   6    -33.1234800 -0.170257E-06  0.982E-04    0.66      23.4  T
   7    -33.1234800 -0.120212E-08  0.548E-04    0.66      41.8  T
     SCC iter.                  ...        0 min,  0.007 sec
     gradient                   ...        0 min,  0.003 sec
 * total energy  :   -32.7488949 Eh     change       -0.2559338E-03 Eh
   gradient norm :     0.0116737 Eh/α   predicted    -0.2230750E-03 ( -12.84%)
   displ. norm   :     0.5202279 α      lambda       -0.4248520E-03
   maximum displ.:     0.3485507 α      in ANC's #1, #3, #2, ...

........................................................................
.............................. CYCLE   38 ..............................
........................................................................

 iter      E             dE          RMSdq      gap      omega  full diag
   1    -33.1228450 -0.331228E+02  0.312E-01    0.67       0.0  T
   2    -33.1228756 -0.305699E-04  0.138E-01    0.67       1.0  T
   3    -33.1228777 -0.213068E-05  0.260E-02    0.67       1.0  T
   4    -33.1228801 -0.245596E-05  0.167E-02    0.67       1.4  T
   5    -33.1228821 -0.194067E-05  0.222E-03    0.67      10.3  T
   6    -33.1228821 -0.199383E-07  0.880E-04    0.67      26.1  T
   7    -33.1228821 -0.231199E-08  0.423E-04    0.67      54.2  T
     SCC iter.                  ...        0 min,  0.006 sec
     gradient                   ...        0 min,  0.003 sec
 * total energy  :   -32.7492310 Eh     change       -0.3361414E-03 Eh
   gradient norm :     0.0117272 Eh/α   predicted    -0.2699217E-03 ( -19.70%)
   displ. norm   :     0.4466697 α      lambda       -0.6198915E-03
   maximum displ.:     0.2353684 α      in ANC's #1, #2, #3, ...

........................................................................
.............................. CYCLE   39 ..............................
........................................................................

 iter      E             dE          RMSdq      gap      omega  full diag
   1    -33.1286767 -0.331287E+02  0.311E-01    0.66       0.0  T
   2    -33.1287108 -0.340434E-04  0.144E-01    0.67       1.0  T
   3    -33.1287122 -0.144724E-05  0.318E-02    0.67       1.0  T
   4    -33.1287136 -0.135928E-05  0.209E-02    0.67       1.1  T
   5    -33.1287171 -0.352356E-05  0.792E-03    0.67       2.9  T
   6    -33.1287175 -0.380267E-06  0.149E-03    0.67      15.4  T
   7    -33.1287175 -0.479482E-08  0.876E-04    0.67      26.2  T
   8    -33.1287175 -0.125018E-08  0.308E-04    0.67      74.6  T
     SCC iter.                  ...        0 min,  0.008 sec
     gradient                   ...        0 min,  0.003 sec
 * total energy  :   -32.7493107 Eh     change       -0.7971512E-04 Eh
   gradient norm :     0.0146164 Eh/α   predicted    -0.3717892E-03 ( 366.40%)
   displ. norm   :     0.6272683 α      lambda       -0.8698049E-03
   maximum displ.:     0.4234546 α      in ANC's #1, #3, #2, ...

........................................................................
.............................. CYCLE   40 ..............................
........................................................................

 iter      E             dE          RMSdq      gap      omega  full diag
   1    -33.1196369 -0.331196E+02  0.372E-01    0.65       0.0  T
   2    -33.1196914 -0.545619E-04  0.175E-01    0.66       1.0  T
   3    -33.1196957 -0.429837E-05  0.337E-02    0.65       1.0  T
   4    -33.1196984 -0.262417E-05  0.214E-02    0.65       1.1  T
   5    -33.1196996 -0.129287E-05  0.114E-02    0.65       2.0  T
   6    -33.1197010 -0.132328E-05  0.204E-03    0.65      11.2  T
   7    -33.1197010 -0.859441E-08  0.132E-03    0.65      17.3  T
   8    -33.1197010 -0.251637E-08  0.438E-04    0.65      52.4  T
   9    -33.1197010 -0.226102E-09  0.215E-04    0.65     106.8  T
     SCC iter.                  ...        0 min,  0.008 sec
     gradient                   ...        0 min,  0.003 sec
 * total energy  :   -32.7497013 Eh     change       -0.3905812E-03 Eh
   gradient norm :     0.0140162 Eh/α   predicted    -0.6060292E-03 (  55.16%)
   displ. norm   :     0.0798764 α      lambda       -0.3720523E-03
   maximum displ.:     0.0392830 α      in ANC's #11, #4, #13, ...

........................................................................
.............................. CYCLE   41 ..............................
........................................................................

 iter      E             dE          RMSdq      gap      omega  full diag
   1    -33.1224806 -0.331225E+02  0.856E-02    0.68       0.0  T
   2    -33.1225081 -0.274952E-04  0.489E-02    0.67       1.0  T
   3    -33.1225094 -0.136198E-05  0.254E-02    0.67       1.0  T
   4    -33.1225098 -0.384971E-06  0.134E-02    0.67       1.7  T
   5    -33.1225123 -0.247224E-05  0.310E-03    0.67       7.4  T
   6    -33.1225123 -0.219169E-07  0.150E-03    0.67      15.3  T
   7    -33.1225123 -0.367727E-08  0.589E-04    0.67      38.9  T
   8    -33.1225123 -0.764416E-09  0.186E-04    0.67     123.2  T
     SCC iter.                  ...        0 min,  0.009 sec
     gradient                   ...        0 min,  0.003 sec
 * total energy  :   -32.7498363 Eh     change       -0.1349444E-03 Eh
   gradient norm :     0.0118779 Eh/α   predicted    -0.1872162E-03 (  38.74%)
   displ. norm   :     0.5241515 α      lambda       -0.3908321E-03
   maximum displ.:     0.3234284 α      in ANC's #1, #2, #3, ...

........................................................................
.............................. CYCLE   42 ..............................
........................................................................

 iter      E             dE          RMSdq      gap      omega  full diag
   1    -33.1209338 -0.331209E+02  0.284E-01    0.64       0.0  T
   2    -33.1209626 -0.287988E-04  0.132E-01    0.66       1.0  T
   3    -33.1209255  0.370538E-04  0.585E-02    0.65       1.0  T
   4    -33.1209765 -0.509098E-04  0.187E-02    0.66       1.2  T
   5    -33.1209776 -0.115270E-05  0.687E-03    0.66       3.3  T
   6    -33.1209778 -0.173764E-06  0.107E-03    0.66      21.4  T
   7    -33.1209778 -0.318671E-08  0.618E-04    0.66      37.1  T
   8    -33.1209778 -0.530569E-09  0.177E-04    0.66     129.4  T
     SCC iter.                  ...        0 min,  0.008 sec
     gradient                   ...        0 min,  0.003 sec
 * total energy  :   -32.7500878 Eh     change       -0.2515884E-03 Eh
   gradient norm :     0.0146232 Eh/α   predicted    -0.2491310E-03 (  -0.98%)
   displ. norm   :     0.3773737 α      lambda       -0.3068528E-03
   maximum displ.:     0.2026231 α      in ANC's #1, #3, #2, ...
 * RMSD in coord.:     1.5595860 α      energy gain  -0.2945941E-02 Eh

generating ANC from exact Hessian ...
Using Lindh-Hessian (1995)
 Shifting diagonal of input Hessian by    1.0570829661962367E-002
 Lowest  eigenvalues of input Hessian
    0.010000    0.000000    0.000000    0.000000    0.000000    0.000000
    0.000000    0.010961    0.011193    0.011321    0.011749    0.012036
    0.014155    0.017859    0.021218    0.021853    0.023769    0.030760
 Highest eigenvalues
    1.329411    1.596602    1.945005    2.323102    2.783935    3.775671


........................................................................
.............................. CYCLE   43 ..............................
........................................................................

 iter      E             dE          RMSdq      gap      omega  full diag
   1    -33.1216184 -0.331216E+02  0.207E-01    0.67       0.0  T
   2    -33.1216335 -0.151820E-04  0.980E-02    0.68       1.0  T
   3    -33.1215966  0.369149E-04  0.582E-02    0.67       1.0  T
   4    -33.1216481 -0.514378E-04  0.130E-02    0.67       1.8  T
   5    -33.1216483 -0.285329E-06  0.486E-03    0.67       4.7  T
   6    -33.1216484 -0.535967E-07  0.987E-04    0.67      23.3  T
   7    -33.1216484 -0.215367E-08  0.588E-04    0.67      39.0  T
     SCC iter.                  ...        0 min,  0.006 sec
     gradient                   ...        0 min,  0.003 sec
 * total energy  :   -32.7502384 Eh     change       -0.1505489E-03 Eh
   gradient norm :     0.0115608 Eh/α   predicted     0.0000000E+00 (-100.00%)
   displ. norm   :     0.0976052 α      lambda       -0.2399383E-03
   maximum displ.:     0.0690136 α      in ANC's #1, #2, #6, ...

........................................................................
.............................. CYCLE   44 ..............................
........................................................................

 iter      E             dE          RMSdq      gap      omega  full diag
   1    -33.1227897 -0.331228E+02  0.814E-02    0.68       0.0  T
   2    -33.1227944 -0.463252E-05  0.422E-02    0.67       1.0  T
   3    -33.1227911  0.325135E-05  0.300E-02    0.68       1.0  T
   4    -33.1228028 -0.116928E-04  0.628E-03    0.67       3.7  T
   5    -33.1228029 -0.106707E-06  0.311E-03    0.67       7.4  T
   6    -33.1228029 -0.159387E-07  0.884E-04    0.67      25.9  T
   7    -33.1228029 -0.160746E-08  0.540E-04    0.67      42.5  T
     SCC iter.                  ...        0 min,  0.006 sec
     gradient                   ...        0 min,  0.003 sec
 * total energy  :   -32.7504171 Eh     change       -0.1786717E-03 Eh
   gradient norm :     0.0063269 Eh/α   predicted    -0.1211129E-03 ( -32.21%)
   displ. norm   :     0.2874167 α      lambda       -0.5028216E-03
   maximum displ.:     0.1811469 α      in ANC's #1, #2, #6, ...

........................................................................
.............................. CYCLE   45 ..............................
........................................................................

 iter      E             dE          RMSdq      gap      omega  full diag
   1    -33.1232559 -0.331233E+02  0.267E-01    0.65       0.0  T
   2    -33.1232875 -0.315650E-04  0.132E-01    0.65       1.0  T
   3    -33.1232160  0.714907E-04  0.847E-02    0.67       1.0  T
   4    -33.1233199 -0.103929E-03  0.190E-02    0.66       1.2  T
   5    -33.1233209 -0.103019E-05  0.739E-03    0.66       3.1  T
   6    -33.1233211 -0.136927E-06  0.248E-03    0.66       9.3  T
   7    -33.1233211 -0.775980E-08  0.148E-03    0.66      15.5  T
   8    -33.1233211 -0.325253E-08  0.456E-04    0.66      50.4  T
   9    -33.1233211 -0.365311E-09  0.165E-04    0.66     139.1  T
     SCC iter.                  ...        0 min,  0.008 sec
     gradient                   ...        0 min,  0.003 sec
 * total energy  :   -32.7503193 Eh     change        0.9771869E-04 Eh
   gradient norm :     0.0289348 Eh/α   predicted    -0.2721995E-03 (-378.55%)
   displ. norm   :     0.1290281 α      lambda       -0.7981210E-03
   maximum displ.:     0.0738246 α      in ANC's #7, #1, #2, ...

........................................................................
.............................. CYCLE   46 ..............................
........................................................................

 iter      E             dE          RMSdq      gap      omega  full diag
   1    -33.1243808 -0.331244E+02  0.130E-01    0.70       0.0  T
   2    -33.1243873 -0.651508E-05  0.682E-02    0.68       1.0  T
   3    -33.1243885 -0.120563E-05  0.120E-02    0.66       1.9  T
   4    -33.1243888 -0.293625E-06  0.733E-03    0.66       3.1  T
   5    -33.1243893 -0.536300E-06  0.211E-03    0.66      10.9  T
   6    -33.1243894 -0.316131E-07  0.822E-04    0.66      27.9  T
   7    -33.1243894 -0.628631E-09  0.355E-04    0.67      64.6  T
     SCC iter.                  ...        0 min,  0.006 sec
     gradient                   ...        0 min,  0.003 sec
 * total energy  :   -32.7507441 Eh     change       -0.4248003E-03 Eh
   gradient norm :     0.0186946 Eh/α   predicted    -0.4057058E-03 (  -4.49%)
   displ. norm   :     0.1137005 α      lambda       -0.2999395E-03
   maximum displ.:     0.0594733 α      in ANC's #2, #6, #1, ...

........................................................................
.............................. CYCLE   47 ..............................
........................................................................

 iter      E             dE          RMSdq      gap      omega  full diag
   1    -33.1238792 -0.331239E+02  0.794E-02    0.66       0.0  T
   2    -33.1238863 -0.712857E-05  0.447E-02    0.66       1.0  T
   3    -33.1238823  0.397234E-05  0.294E-02    0.66       1.0  T
   4    -33.1238916 -0.929337E-05  0.781E-03    0.66       2.9  T
   5    -33.1238921 -0.462984E-06  0.278E-03    0.66       8.3  T
   6    -33.1238921 -0.788896E-08  0.710E-04    0.66      32.3  T
   7    -33.1238921 -0.189013E-08  0.409E-04    0.66      56.1  T
     SCC iter.                  ...        0 min,  0.006 sec
     gradient                   ...        0 min,  0.003 sec
 * total energy  :   -32.7509289 Eh     change       -0.1847685E-03 Eh
   gradient norm :     0.0066854 Eh/α   predicted    -0.1519106E-03 ( -17.78%)
   displ. norm   :     0.3323124 α      lambda       -0.3621340E-03
   maximum displ.:     0.2039359 α      in ANC's #1, #2, #6, ...

........................................................................
.............................. CYCLE   48 ..............................
........................................................................

 iter      E             dE          RMSdq      gap      omega  full diag
   1    -33.1228098 -0.331228E+02  0.242E-01    0.67       0.0  T
   2    -33.1228256 -0.158144E-04  0.109E-01    0.66       1.0  T
   3    -33.1228285 -0.283960E-05  0.178E-02    0.65       1.3  T
   4    -33.1228286 -0.158180E-06  0.843E-03    0.65       2.7  T
   5    -33.1228287 -0.573537E-07  0.177E-03    0.65      13.0  T
   6    -33.1228287 -0.241277E-07  0.983E-04    0.65      23.3  T
   7    -33.1228287 -0.258520E-08  0.503E-04    0.65      45.6  T
     SCC iter.                  ...        0 min,  0.006 sec
     gradient                   ...        0 min,  0.003 sec
 * total energy  :   -32.7512191 Eh     change       -0.2901531E-03 Eh
   gradient norm :     0.0092997 Eh/α   predicted    -0.2010632E-03 ( -30.70%)
   displ. norm   :     0.4505642 α      lambda       -0.4754602E-03
   maximum displ.:     0.2801385 α      in ANC's #1, #2, #6, ...

........................................................................
.............................. CYCLE   49 ..............................
........................................................................

 iter      E             dE          RMSdq      gap      omega  full diag
   1    -33.1225130 -0.331225E+02  0.292E-01    0.66       0.0  T
   2    -33.1225334 -0.204600E-04  0.133E-01    0.64       1.0  T
   3    -33.1225350 -0.152556E-05  0.262E-02    0.64       1.0  T
   4    -33.1225359 -0.937159E-06  0.177E-02    0.63       1.3  T
   5    -33.1225385 -0.256781E-05  0.353E-03    0.63       6.5  T
   6    -33.1225385 -0.769454E-07  0.138E-03    0.63      16.6  T
   7    -33.1225385 -0.103012E-08  0.316E-04    0.63      72.6  T
   8    -33.1225385 -0.210598E-09  0.171E-04    0.63     134.2  T
     SCC iter.                  ...        0 min,  0.007 sec
     gradient                   ...        0 min,  0.003 sec
 * total energy  :   -32.7515322 Eh     change       -0.3131765E-03 Eh
   gradient norm :     0.0119570 Eh/α   predicted    -0.2859921E-03 (  -8.68%)
   displ. norm   :     0.2838795 α      lambda       -0.3328298E-03
   maximum displ.:     0.1902445 α      in ANC's #1, #2, #6, ...

........................................................................
.............................. CYCLE   50 ..............................
........................................................................

 iter      E             dE          RMSdq      gap      omega  full diag
   1    -33.1253878 -0.331254E+02  0.142E-01    0.64       0.0  T
   2    -33.1253932 -0.542861E-05  0.666E-02    0.63       1.0  T
   3    -33.1253784  0.148017E-04  0.364E-02    0.63       1.0  T
   4    -33.1253987 -0.202829E-04  0.893E-03    0.63       2.6  T
   5    -33.1253987 -0.723757E-07  0.171E-03    0.63      13.4  T
   6    -33.1253988 -0.241225E-07  0.688E-04    0.63      33.4  T
   7    -33.1253988 -0.497685E-09  0.275E-04    0.63      83.3  T
     SCC iter.                  ...        0 min,  0.009 sec
     gradient                   ...        0 min,  0.003 sec
 * total energy  :   -32.7517900 Eh     change       -0.2577521E-03 Eh
   gradient norm :     0.0126052 Eh/α   predicted    -0.1798261E-03 ( -30.23%)
   displ. norm   :     0.4247901 α      lambda       -0.4174478E-03
   maximum displ.:     0.2670849 α      in ANC's #1, #2, #6, ...

........................................................................
.............................. CYCLE   51 ..............................
........................................................................

 iter      E             dE          RMSdq      gap      omega  full diag
   1    -33.1268104 -0.331268E+02  0.215E-01    0.63       0.0  T
   2    -33.1268233 -0.128531E-04  0.106E-01    0.61       1.0  T
   3    -33.1267752  0.480846E-04  0.675E-02    0.62       1.0  T
   4    -33.1268436 -0.684157E-04  0.141E-02    0.61       1.6  T
   5    -33.1268438 -0.199130E-06  0.350E-03    0.61       6.6  T
   6    -33.1268439 -0.487036E-07  0.138E-03    0.61      16.6  T
   7    -33.1268439 -0.138890E-08  0.630E-04    0.61      36.4  T
   8    -33.1268439 -0.898666E-09  0.239E-04    0.61      96.2  T
     SCC iter.                  ...        0 min,  0.009 sec
     gradient                   ...        0 min,  0.004 sec
 * total energy  :   -32.7521134 Eh     change       -0.3234487E-03 Eh
   gradient norm :     0.0117595 Eh/α   predicted    -0.2463913E-03 ( -23.82%)
   displ. norm   :     0.4764604 α      lambda       -0.3742990E-03
   maximum displ.:     0.3006985 α      in ANC's #1, #2, #6, ...

........................................................................
.............................. CYCLE   52 ..............................
........................................................................

 iter      E             dE          RMSdq      gap      omega  full diag
   1    -33.1274169 -0.331274E+02  0.272E-01    0.61       0.0  T
   2    -33.1274345 -0.176745E-04  0.130E-01    0.59       1.0  T
   3    -33.1273673  0.672739E-04  0.782E-02    0.60       1.0  T
   4    -33.1274602 -0.929722E-04  0.163E-02    0.59       1.4  T
   5    -33.1274604 -0.203073E-06  0.191E-03    0.59      12.0  T
   6    -33.1274604 -0.226151E-08  0.105E-03    0.59      21.8  T
   7    -33.1274604 -0.122951E-08  0.335E-04    0.59      68.5  T
   8    -33.1274604 -0.319353E-09  0.175E-04    0.59     130.8  T
     SCC iter.                  ...        0 min,  0.007 sec
     gradient                   ...        0 min,  0.003 sec
 * total energy  :   -32.7523533 Eh     change       -0.2398408E-03 Eh
   gradient norm :     0.0226242 Eh/α   predicted    -0.2296353E-03 (  -4.26%)
   displ. norm   :     0.4961458 α      lambda       -0.9485190E-03
   maximum displ.:     0.2518256 α      in ANC's #2, #1, #5, ...

........................................................................
.............................. CYCLE   53 ..............................
........................................................................

 iter      E             dE          RMSdq      gap      omega  full diag
   1    -33.1349192 -0.331349E+02  0.284E-01    0.57       0.0  T
   2    -33.1349451 -0.259024E-04  0.160E-01    0.56       1.0  T
   3    -33.1348334  0.111720E-03  0.103E-01    0.57       1.0  T
   4    -33.1349848 -0.151460E-03  0.160E-02    0.56       1.4  T
   5    -33.1349855 -0.640888E-06  0.668E-03    0.56       3.4  T
   6    -33.1349855 -0.551543E-07  0.234E-03    0.56       9.8  T
   7    -33.1349855 -0.420228E-08  0.116E-03    0.56      19.8  T
   8    -33.1349855 -0.284280E-08  0.462E-04    0.56      49.7  T
   9    -33.1349855 -0.228823E-09  0.204E-04    0.56     112.3  T
     SCC iter.                  ...        0 min,  0.008 sec
     gradient                   ...        0 min,  0.003 sec
 * total energy  :   -32.7514708 Eh     change        0.8824999E-03 Eh
   gradient norm :     0.0645530 Eh/α   predicted    -0.5910052E-03 (-166.97%)
   displ. norm   :     0.1616977 α      lambda       -0.2229381E-02
   maximum displ.:     0.0955679 α      in ANC's #1, #6, #3, ...

........................................................................
.............................. CYCLE   54 ..............................
........................................................................

 iter      E             dE          RMSdq      gap      omega  full diag
   1    -33.1285646 -0.331286E+02  0.168E-01    0.57       0.0  T
   2    -33.1285751 -0.105895E-04  0.827E-02    0.57       1.0  T
   3    -33.1285747  0.408840E-06  0.203E-02    0.57       1.1  T
   4    -33.1285761 -0.140219E-05  0.128E-02    0.57       1.8  T
   5    -33.1285774 -0.122568E-05  0.524E-03    0.57       4.4  T
   6    -33.1285775 -0.148189E-06  0.134E-03    0.57      17.1  T
   7    -33.1285775 -0.285787E-08  0.755E-04    0.57      30.4  T
   8    -33.1285775 -0.873712E-09  0.272E-04    0.57      84.3  T
     SCC iter.                  ...        0 min,  0.008 sec
     gradient                   ...        0 min,  0.003 sec
 * total energy  :   -32.7526271 Eh     change       -0.1156348E-02 Eh
   gradient norm :     0.0070565 Eh/α   predicted    -0.1143844E-02 (  -1.08%)
   displ. norm   :     0.0538804 α      lambda       -0.1025666E-03
   maximum displ.:     0.0320310 α      in ANC's #6, #1, #3, ...

........................................................................
.............................. CYCLE   55 ..............................
........................................................................

 iter      E             dE          RMSdq      gap      omega  full diag
   1    -33.1318407 -0.331318E+02  0.589E-02    0.58       0.0  T
   2    -33.1318433 -0.266813E-05  0.276E-02    0.57       1.0  T
   3    -33.1318419  0.142092E-05  0.138E-02    0.57       1.7  T
   4    -33.1318441 -0.215321E-05  0.557E-03    0.57       4.1  T
   5    -33.1318442 -0.180766E-06  0.251E-03    0.57       9.1  T
   6    -33.1318442 -0.708927E-08  0.709E-04    0.57      32.4  T
   7    -33.1318442 -0.713847E-09  0.381E-04    0.57      60.2  T
     SCC iter.                  ...        0 min,  0.007 sec
     gradient                   ...        0 min,  0.003 sec
 * total energy  :   -32.7526696 Eh     change       -0.4242823E-04 Eh
   gradient norm :     0.0113150 Eh/α   predicted    -0.5143742E-04 (  21.23%)
   displ. norm   :     0.2720116 α      lambda       -0.1475376E-03
   maximum displ.:     0.1620886 α      in ANC's #1, #2, #5, ...

........................................................................
.............................. CYCLE   56 ..............................
........................................................................

 iter      E             dE          RMSdq      gap      omega  full diag
   1    -33.1281268 -0.331281E+02  0.184E-01    0.56       0.0  T
   2    -33.1281377 -0.109512E-04  0.860E-02    0.55       1.0  T
   3    -33.1281352  0.252171E-05  0.238E-02    0.55       1.0  T
   4    -33.1281397 -0.449401E-05  0.123E-02    0.55       1.9  T
   5    -33.1281406 -0.892722E-06  0.447E-03    0.55       5.1  T
   6    -33.1281407 -0.115024E-06  0.104E-03    0.55      22.0  T
   7    -33.1281407 -0.140456E-08  0.587E-04    0.55      39.1  T
   8    -33.1281407 -0.443436E-09  0.186E-04    0.55     123.2  T
     SCC iter.                  ...        0 min,  0.007 sec
     gradient                   ...        0 min,  0.004 sec
 * total energy  :   -32.7527448 Eh     change       -0.7526197E-04 Eh
   gradient norm :     0.0141049 Eh/α   predicted    -0.7923068E-04 (   5.27%)
   displ. norm   :     0.0805148 α      lambda       -0.1717359E-03
   maximum displ.:     0.0379778 α      in ANC's #3, #2, #4, ...

........................................................................
.............................. CYCLE   57 ..............................
........................................................................

 iter      E             dE          RMSdq      gap      omega  full diag
   1    -33.1299582 -0.331300E+02  0.870E-02    0.57       0.0  T
   2    -33.1299608 -0.260736E-05  0.411E-02    0.57       1.0  T
   3    -33.1299611 -0.336984E-06  0.782E-03    0.57       2.9  T
   4    -33.1299610  0.684298E-07  0.476E-03    0.57       4.8  T
   5    -33.1299612 -0.153106E-06  0.187E-03    0.57      12.3  T
   6    -33.1299612 -0.328712E-07  0.548E-04    0.57      41.9  T
   7    -33.1299612 -0.593104E-09  0.303E-04    0.57      75.7  T
     SCC iter.                  ...        0 min,  0.006 sec
     gradient                   ...        0 min,  0.003 sec
 * total energy  :   -32.7528085 Eh     change       -0.6367006E-04 Eh
   gradient norm :     0.0098412 Eh/α   predicted    -0.8642694E-04 (  35.74%)
   displ. norm   :     0.2173365 α      lambda       -0.1681808E-03
   maximum displ.:     0.1381283 α      in ANC's #1, #2, #9, ...

........................................................................
.............................. CYCLE   58 ..............................
........................................................................

 iter      E             dE          RMSdq      gap      omega  full diag
   1    -33.1305597 -0.331306E+02  0.137E-01    0.58       0.0  T
   2    -33.1305650 -0.535792E-05  0.635E-02    0.57       1.0  T
   3    -33.1305538  0.111661E-04  0.317E-02    0.58       1.0  T
   4    -33.1305691 -0.152338E-04  0.812E-03    0.57       2.8  T
   5    -33.1305692 -0.938272E-07  0.239E-03    0.57       9.6  T
   6    -33.1305692 -0.269574E-07  0.442E-04    0.58      51.9  T
   7    -33.1305692 -0.681240E-09  0.226E-04    0.58     101.5  T
     SCC iter.                  ...        0 min,  0.007 sec
     gradient                   ...        0 min,  0.004 sec
 * total energy  :   -32.7529313 Eh     change       -0.1227846E-03 Eh
   gradient norm :     0.0073184 Eh/α   predicted    -0.8807010E-04 ( -28.27%)
   displ. norm   :     0.2536321 α      lambda       -0.2769304E-03
   maximum displ.:     0.1568448 α      in ANC's #1, #2, #4, ...

........................................................................
.............................. CYCLE   59 ..............................
........................................................................

 iter      E             dE          RMSdq      gap      omega  full diag
   1    -33.1300775 -0.331301E+02  0.226E-01    0.57       0.0  T
   2    -33.1300921 -0.146511E-04  0.993E-02    0.57       1.0  T
   3    -33.1300929 -0.743520E-06  0.188E-02    0.57       1.2  T
   4    -33.1300941 -0.123147E-05  0.118E-02    0.57       1.9  T
   5    -33.1300951 -0.104792E-05  0.319E-03    0.57       7.2  T
   6    -33.1300952 -0.587665E-07  0.710E-04    0.57      32.3  T
   7    -33.1300952 -0.116277E-08  0.351E-04    0.57      65.3  T
     SCC iter.                  ...        0 min,  0.008 sec
     gradient                   ...        0 min,  0.003 sec
 * total energy  :   -32.7530783 Eh     change       -0.1469812E-03 Eh
   gradient norm :     0.0128153 Eh/α   predicted    -0.1473798E-03 (   0.27%)
   displ. norm   :     0.3305570 α      lambda       -0.2188795E-03
   maximum displ.:     0.1959192 α      in ANC's #1, #2, #9, ...

........................................................................
.............................. CYCLE   60 ..............................
........................................................................

 iter      E             dE          RMSdq      gap      omega  full diag
   1    -33.1279298 -0.331279E+02  0.255E-01    0.58       0.0  T
   2    -33.1279455 -0.157874E-04  0.115E-01    0.58       1.0  T
   3    -33.1279183  0.271915E-04  0.500E-02    0.59       1.0  T
   4    -33.1279558 -0.374537E-04  0.133E-02    0.59       1.7  T
   5    -33.1279560 -0.172706E-06  0.184E-03    0.59      12.5  T
   6    -33.1279560 -0.156823E-07  0.870E-04    0.59      26.4  T
   7    -33.1279560 -0.153818E-08  0.436E-04    0.59      52.6  T
     SCC iter.                  ...        0 min,  0.007 sec
     gradient                   ...        0 min,  0.003 sec
 * total energy  :   -32.7531546 Eh     change       -0.7637502E-04 Eh
   gradient norm :     0.0274489 Eh/α   predicted    -0.1214015E-03 (  58.95%)
   displ. norm   :     0.2260150 α      lambda       -0.5020802E-03
   maximum displ.:     0.1150178 α      in ANC's #5, #4, #7, ...

........................................................................
.............................. CYCLE   61 ..............................
........................................................................

 iter      E             dE          RMSdq      gap      omega  full diag
   1    -33.1281392 -0.331281E+02  0.260E-01    0.59       0.0  T
   2    -33.1281591 -0.199564E-04  0.131E-01    0.60       1.0  T
   3    -33.1281245  0.346764E-04  0.560E-02    0.61       1.0  T
   4    -33.1281711 -0.466866E-04  0.162E-02    0.61       1.4  T
   5    -33.1281720 -0.818768E-06  0.415E-03    0.61       5.5  T
   6    -33.1281720 -0.501248E-07  0.154E-03    0.61      14.9  T
   7    -33.1281720 -0.280224E-09  0.624E-04    0.61      36.8  T
   8    -33.1281720 -0.156941E-08  0.179E-04    0.61     128.2  T
     SCC iter.                  ...        0 min,  0.007 sec
     gradient                   ...        0 min,  0.003 sec
 * total energy  :   -32.7533736 Eh     change       -0.2190021E-03 Eh
   gradient norm :     0.0095121 Eh/α   predicted    -0.2638633E-03 (  20.48%)
   displ. norm   :     0.1852068 α      lambda       -0.2352266E-03
   maximum displ.:     0.0957933 α      in ANC's #1, #3, #4, ...

........................................................................
.............................. CYCLE   62 ..............................
........................................................................

 iter      E             dE          RMSdq      gap      omega  full diag
   1    -33.1272562 -0.331273E+02  0.220E-01    0.63       0.0  T
   2    -33.1272740 -0.177931E-04  0.103E-01    0.63       1.0  T
   3    -33.1272270  0.470002E-04  0.664E-02    0.62       1.0  T
   4    -33.1272964 -0.694457E-04  0.119E-02    0.63       1.9  T
   5    -33.1272967 -0.233130E-06  0.434E-03    0.63       5.3  T
   6    -33.1272967 -0.392311E-07  0.122E-03    0.63      18.7  T
   7    -33.1272967 -0.501910E-08  0.591E-04    0.63      38.8  T
   8    -33.1272967 -0.336506E-09  0.183E-04    0.63     125.3  T
     SCC iter.                  ...        0 min,  0.007 sec
     gradient                   ...        0 min,  0.003 sec
 * total energy  :   -32.7534429 Eh     change       -0.6923784E-04 Eh
   gradient norm :     0.0136850 Eh/α   predicted    -0.1216557E-03 (  75.71%)
   displ. norm   :     0.1117875 α      lambda       -0.1646533E-03
   maximum displ.:     0.0692922 α      in ANC's #2, #1, #4, ...

........................................................................
.............................. CYCLE   63 ..............................
........................................................................

 iter      E             dE          RMSdq      gap      omega  full diag
   1    -33.1267814 -0.331268E+02  0.582E-02    0.62       0.0  T
   2    -33.1267832 -0.183166E-05  0.308E-02    0.62       1.0  T
   3    -33.1267820  0.117529E-05  0.117E-02    0.62       2.0  T
   4    -33.1267835 -0.144506E-05  0.503E-03    0.62       4.6  T
   5    -33.1267837 -0.210253E-06  0.169E-03    0.62      13.6  T
   6    -33.1267837 -0.479821E-08  0.413E-04    0.62      55.5  T
   7    -33.1267837 -0.123755E-09  0.217E-04    0.62     105.7  T
     SCC iter.                  ...        0 min,  0.007 sec
     gradient                   ...        0 min,  0.003 sec
 * total energy  :   -32.7535350 Eh     change       -0.9215090E-04 Eh
   gradient norm :     0.0115530 Eh/α   predicted    -0.8335633E-04 (  -9.54%)
   displ. norm   :     0.0732591 α      lambda       -0.9495427E-04
   maximum displ.:     0.0401278 α      in ANC's #1, #2, #4, ...

........................................................................
.............................. CYCLE   64 ..............................
........................................................................

 iter      E             dE          RMSdq      gap      omega  full diag
   1    -33.1280364 -0.331280E+02  0.507E-02    0.61       0.0  T
   2    -33.1280378 -0.136400E-05  0.259E-02    0.61       1.0  T
   3    -33.1280352  0.264404E-05  0.170E-02    0.62       1.3  T
   4    -33.1280393 -0.418918E-05  0.382E-03    0.62       6.0  T
   5    -33.1280394 -0.414035E-07  0.162E-03    0.62      14.2  T
   6    -33.1280394 -0.341177E-08  0.392E-04    0.62      58.5  T
   7    -33.1280394 -0.535806E-09  0.237E-04    0.62      96.8  T
     SCC iter.                  ...        0 min,  0.007 sec
     gradient                   ...        0 min,  0.003 sec
 * total energy  :   -32.7535987 Eh     change       -0.6369444E-04 Eh
   gradient norm :     0.0080183 Eh/α   predicted    -0.4773241E-04 ( -25.06%)
   displ. norm   :     0.2430796 α      lambda       -0.1395040E-03
   maximum displ.:     0.1391608 α      in ANC's #1, #2, #10, ...

........................................................................
.............................. CYCLE   65 ..............................
........................................................................

 iter      E             dE          RMSdq      gap      omega  full diag
   1    -33.1277182 -0.331277E+02  0.200E-01    0.61       0.0  T
   2    -33.1277283 -0.100776E-04  0.910E-02    0.61       1.0  T
   3    -33.1277301 -0.179984E-05  0.151E-02    0.61       1.5  T
   4    -33.1277296  0.462329E-06  0.102E-02    0.61       2.2  T
   5    -33.1277307 -0.104802E-05  0.235E-03    0.61       9.7  T
   6    -33.1277307 -0.505198E-07  0.863E-04    0.61      26.6  T
   7    -33.1277307 -0.720668E-09  0.360E-04    0.61      63.8  T
     SCC iter.                  ...        0 min,  0.007 sec
     gradient                   ...        0 min,  0.003 sec
 * total energy  :   -32.7536986 Eh     change       -0.9984239E-04 Eh
   gradient norm :     0.0138364 Eh/α   predicted    -0.7387510E-04 ( -26.01%)
   displ. norm   :     0.2454546 α      lambda       -0.2107440E-03
   maximum displ.:     0.1190999 α      in ANC's #1, #3, #10, ...

........................................................................
.............................. CYCLE   66 ..............................
........................................................................

 iter      E             dE          RMSdq      gap      omega  full diag
   1    -33.1306245 -0.331306E+02  0.214E-01    0.62       0.0  T
   2    -33.1306366 -0.121139E-04  0.980E-02    0.62       1.0  T
   3    -33.1306303  0.633795E-05  0.296E-02    0.62       1.0  T
   4    -33.1306407 -0.104853E-04  0.120E-02    0.62       1.9  T
   5    -33.1306412 -0.409797E-06  0.283E-03    0.62       8.1  T
   6    -33.1306412 -0.678555E-07  0.984E-04    0.62      23.3  T
   7    -33.1306412 -0.124381E-08  0.423E-04    0.62      54.2  T
     SCC iter.                  ...        0 min,  0.007 sec
     gradient                   ...        0 min,  0.003 sec
 * total energy  :   -32.7538067 Eh     change       -0.1081686E-03 Eh
   gradient norm :     0.0083285 Eh/α   predicted    -0.1117218E-03 (   3.28%)
   displ. norm   :     0.4291488 α      lambda       -0.2346928E-03
   maximum displ.:     0.2310640 α      in ANC's #1, #2, #3, ...
 * RMSD in coord.:     1.0809888 α      energy gain  -0.3718887E-02 Eh

generating ANC from exact Hessian ...
Using Lindh-Hessian (1995)
 Shifting diagonal of input Hessian by    9.7263183813648142E-003
 Lowest  eigenvalues of input Hessian
    0.000000    0.000000    0.000000    0.000000    0.000000    0.010000
    0.000000    0.010402    0.010749    0.011026    0.011091    0.012836
    0.013752    0.017024    0.019635    0.020931    0.022493    0.029996
 Highest eigenvalues
    1.345918    1.582952    1.968384    2.375565    2.779350    3.508981


........................................................................
.............................. CYCLE   67 ..............................
........................................................................

 iter      E             dE          RMSdq      gap      omega  full diag
   1    -33.1254646 -0.331255E+02  0.393E-01    0.63       0.0  T
   2    -33.1255127 -0.481059E-04  0.173E-01    0.63       1.0  T
   3    -33.1255058  0.692435E-05  0.429E-02    0.62       1.0  T
   4    -33.1255212 -0.154602E-04  0.242E-02    0.63       1.0  T
   5    -33.1255254 -0.410591E-05  0.723E-03    0.62       3.2  T
   6    -33.1255255 -0.101394E-06  0.163E-03    0.62      14.0  T
   7    -33.1255255 -0.328355E-08  0.727E-04    0.62      31.6  T
   8    -33.1255255 -0.372758E-09  0.207E-04    0.62     111.1  T
     SCC iter.                  ...        0 min,  0.009 sec
     gradient                   ...        0 min,  0.004 sec
 * total energy  :   -32.7537286 Eh     change        0.7808510E-04 Eh
   gradient norm :     0.0343795 Eh/α   predicted     0.0000000E+00 (-100.00%)
   displ. norm   :     0.0874075 α      lambda       -0.6345231E-03
   maximum displ.:     0.0660844 α      in ANC's #6, #7, #1, ...

........................................................................
.............................. CYCLE   68 ..............................
........................................................................

 iter      E             dE          RMSdq      gap      omega  full diag
   1    -33.1286300 -0.331286E+02  0.895E-02    0.63       0.0  T
   2    -33.1286331 -0.310606E-05  0.453E-02    0.63       1.0  T
   3    -33.1286282  0.498510E-05  0.218E-02    0.63       1.1  T
   4    -33.1286347 -0.649601E-05  0.593E-03    0.63       3.9  T
   5    -33.1286348 -0.119319E-06  0.264E-03    0.63       8.7  T
   6    -33.1286348 -0.120647E-07  0.633E-04    0.63      36.2  T
   7    -33.1286348 -0.492122E-09  0.347E-04    0.63      66.2  T
     SCC iter.                  ...        0 min,  0.007 sec
     gradient                   ...        0 min,  0.003 sec
 * total energy  :   -32.7541184 Eh     change       -0.3897483E-03 Eh
   gradient norm :     0.0049019 Eh/α   predicted    -0.3202969E-03 ( -17.82%)
   displ. norm   :     0.1184132 α      lambda       -0.1695387E-03
   maximum displ.:     0.0980502 α      in ANC's #6, #1, #7, ...

........................................................................
.............................. CYCLE   69 ..............................
........................................................................

 iter      E             dE          RMSdq      gap      omega  full diag
   1    -33.1296286 -0.331296E+02  0.115E-01    0.63       0.0  T
   2    -33.1296325 -0.391296E-05  0.532E-02    0.63       1.0  T
   3    -33.1296221  0.104092E-04  0.303E-02    0.63       1.0  T
   4    -33.1296363 -0.142496E-04  0.563E-03    0.63       4.1  T
   5    -33.1296363 -0.183670E-07  0.210E-03    0.63      10.9  T
   6    -33.1296363 -0.538324E-08  0.607E-04    0.63      37.8  T
   7    -33.1296363 -0.302194E-09  0.256E-04    0.63      89.5  T
     SCC iter.                  ...        0 min,  0.006 sec
     gradient                   ...        0 min,  0.003 sec
 * total energy  :   -32.7542645 Eh     change       -0.1460860E-03 Eh
   gradient norm :     0.0037101 Eh/α   predicted    -0.8685505E-04 ( -40.55%)
   displ. norm   :     0.2692217 α      lambda       -0.3006320E-03
   maximum displ.:     0.2205145 α      in ANC's #6, #1, #7, ...

........................................................................
.............................. CYCLE   70 ..............................
........................................................................

 iter      E             dE          RMSdq      gap      omega  full diag
   1    -33.1299056 -0.331299E+02  0.254E-01    0.63       0.0  T
   2    -33.1299237 -0.181641E-04  0.117E-01    0.63       1.0  T
   3    -33.1298617  0.620244E-04  0.749E-02    0.64       1.0  T
   4    -33.1299496 -0.878502E-04  0.119E-02    0.63       1.9  T
   5    -33.1299496 -0.522842E-07  0.241E-03    0.63       9.5  T
   6    -33.1299496 -0.791152E-08  0.118E-03    0.63      19.4  T
   7    -33.1299496 -0.968051E-09  0.370E-04    0.63      62.0  T
   8    -33.1299496 -0.174886E-09  0.146E-04    0.63     157.0  T
     SCC iter.                  ...        0 min,  0.007 sec
     gradient                   ...        0 min,  0.003 sec
 * total energy  :   -32.7545091 Eh     change       -0.2446565E-03 Eh
   gradient norm :     0.0078230 Eh/α   predicted    -0.1613584E-03 ( -34.05%)
   displ. norm   :     0.3262136 α      lambda       -0.3340762E-03
   maximum displ.:     0.2597727 α      in ANC's #6, #1, #5, ...

........................................................................
.............................. CYCLE   71 ..............................
........................................................................

 iter      E             dE          RMSdq      gap      omega  full diag
   1    -33.1289582 -0.331290E+02  0.277E-01    0.63       0.0  T
   2    -33.1289847 -0.264780E-04  0.129E-01    0.63       1.0  T
   3    -33.1289045  0.802125E-04  0.940E-02    0.64       1.0  T
   4    -33.1290414 -0.136943E-03  0.120E-02    0.63       1.9  T
   5    -33.1290415 -0.515575E-07  0.255E-03    0.64       9.0  T
   6    -33.1290415 -0.626828E-08  0.103E-03    0.64      22.3  T
   7    -33.1290415 -0.745558E-09  0.495E-04    0.64      46.3  T
   8    -33.1290415 -0.191925E-09  0.138E-04    0.64     166.0  T
     SCC iter.                  ...        0 min,  0.007 sec
     gradient                   ...        0 min,  0.003 sec
 * total energy  :   -32.7545559 Eh     change       -0.4679982E-04 Eh
   gradient norm :     0.0289875 Eh/α   predicted    -0.1848378E-03 ( 294.95%)
   displ. norm   :     0.1409550 α      lambda       -0.4317301E-03
   maximum displ.:     0.0912476 α      in ANC's #6, #7, #1, ...

........................................................................
.............................. CYCLE   72 ..............................
........................................................................

 iter      E             dE          RMSdq      gap      omega  full diag
   1    -33.1286188 -0.331286E+02  0.132E-01    0.64       0.0  T
   2    -33.1286231 -0.431415E-05  0.673E-02    0.64       1.0  T
   3    -33.1286234 -0.298302E-06  0.123E-02    0.64       1.9  T
   4    -33.1286235 -0.122450E-06  0.827E-03    0.64       2.8  T
   5    -33.1286243 -0.762720E-06  0.173E-03    0.64      13.2  T
   6    -33.1286243 -0.151006E-07  0.702E-04    0.64      32.7  T
   7    -33.1286243 -0.871808E-09  0.367E-04    0.64      62.6  T
     SCC iter.                  ...        0 min,  0.006 sec
     gradient                   ...        0 min,  0.004 sec
 * total energy  :   -32.7547948 Eh     change       -0.2388330E-03 Eh
   gradient norm :     0.0227762 Eh/α   predicted    -0.2201551E-03 (  -7.82%)
   displ. norm   :     0.0557847 α      lambda       -0.2488501E-03
   maximum displ.:     0.0365393 α      in ANC's #1, #7, #8, ...

........................................................................
.............................. CYCLE   73 ..............................
........................................................................

 iter      E             dE          RMSdq      gap      omega  full diag
   1    -33.1303832 -0.331304E+02  0.453E-02    0.63       0.0  T
   2    -33.1303839 -0.739491E-06  0.238E-02    0.63       1.0  T
   3    -33.1303826  0.133732E-05  0.110E-02    0.63       2.1  T
   4    -33.1303843 -0.171282E-05  0.361E-03    0.63       6.4  T
   5    -33.1303844 -0.615601E-07  0.114E-03    0.63      20.1  T
   6    -33.1303844 -0.206385E-08  0.420E-04    0.63      54.7  T
   7    -33.1303844 -0.262077E-09  0.192E-04    0.63     119.5  T
     SCC iter.                  ...        0 min,  0.007 sec
     gradient                   ...        0 min,  0.003 sec
 * total energy  :   -32.7548855 Eh     change       -0.9076179E-04 Eh
   gradient norm :     0.0077635 Eh/α   predicted    -0.1248151E-03 (  37.52%)
   displ. norm   :     0.2992809 α      lambda       -0.2794543E-03
   maximum displ.:     0.2327512 α      in ANC's #6, #1, #3, ...

........................................................................
.............................. CYCLE   74 ..............................
........................................................................

 iter      E             dE          RMSdq      gap      omega  full diag
   1    -33.1307070 -0.331307E+02  0.223E-01    0.63       0.0  T
   2    -33.1307232 -0.161620E-04  0.997E-02    0.63       1.0  T
   3    -33.1306851  0.380354E-04  0.585E-02    0.64       1.0  T
   4    -33.1307397 -0.545627E-04  0.102E-02    0.64       2.2  T
   5    -33.1307398 -0.718220E-07  0.284E-03    0.64       8.1  T
   6    -33.1307398 -0.953730E-08  0.704E-04    0.64      32.6  T
   7    -33.1307398 -0.366356E-09  0.291E-04    0.64      78.8  T
     SCC iter.                  ...        0 min,  0.007 sec
     gradient                   ...        0 min,  0.003 sec
 * total energy  :   -32.7551251 Eh     change       -0.2395259E-03 Eh
   gradient norm :     0.0087277 Eh/α   predicted    -0.1522429E-03 ( -36.44%)
   displ. norm   :     0.5048000 α      lambda       -0.3742117E-03
   maximum displ.:     0.3828266 α      in ANC's #6, #1, #3, ...

........................................................................
.............................. CYCLE   75 ..............................
........................................................................

 iter      E             dE          RMSdq      gap      omega  full diag
   1    -33.1300358 -0.331300E+02  0.335E-01    0.63       0.0  T
   2    -33.1300758 -0.399991E-04  0.146E-01    0.64       1.0  T
   3    -33.1300283  0.475386E-04  0.681E-02    0.65       1.0  T
   4    -33.1300981 -0.698520E-04  0.164E-02    0.64       1.4  T
   5    -33.1300986 -0.454520E-06  0.621E-03    0.64       3.7  T
   6    -33.1300986 -0.447974E-07  0.124E-03    0.64      18.5  T
   7    -33.1300986 -0.127268E-08  0.557E-04    0.64      41.2  T
   8    -33.1300986 -0.475019E-09  0.211E-04    0.64     108.9  T
     SCC iter.                  ...        0 min,  0.007 sec
     gradient                   ...        0 min,  0.003 sec
 * total energy  :   -32.7550691 Eh     change        0.5592930E-04 Eh
   gradient norm :     0.0496199 Eh/α   predicted    -0.2347856E-03 (-519.79%)
   displ. norm   :     0.2074092 α      lambda       -0.7029885E-03
   maximum displ.:     0.1716359 α      in ANC's #6, #1, #5, ...

........................................................................
.............................. CYCLE   76 ..............................
........................................................................

 iter      E             dE          RMSdq      gap      omega  full diag
   1    -33.1324713 -0.331325E+02  0.180E-01    0.64       0.0  T
   2    -33.1324835 -0.121868E-04  0.822E-02    0.64       1.0  T
   3    -33.1324607  0.227797E-04  0.465E-02    0.63       1.0  T
   4    -33.1324938 -0.330714E-04  0.980E-03    0.64       2.3  T
   5    -33.1324940 -0.186352E-06  0.350E-03    0.64       6.6  T
   6    -33.1324940 -0.122331E-07  0.756E-04    0.64      30.4  T
   7    -33.1324940 -0.382570E-09  0.286E-04    0.64      80.1  T
     SCC iter.                  ...        0 min,  0.007 sec
     gradient                   ...        0 min,  0.004 sec
 * total energy  :   -32.7553725 Eh     change       -0.3033833E-03 Eh
   gradient norm :     0.0111991 Eh/α   predicted    -0.3666238E-03 (  20.85%)
   displ. norm   :     0.1228345 α      lambda       -0.1325746E-03
   maximum displ.:     0.0801982 α      in ANC's #1, #6, #4, ...

........................................................................
.............................. CYCLE   77 ..............................
........................................................................

 iter      E             dE          RMSdq      gap      omega  full diag
   1    -33.1317429 -0.331317E+02  0.547E-02    0.63       0.0  T
   2    -33.1317440 -0.103613E-05  0.258E-02    0.63       1.0  T
   3    -33.1317437  0.272369E-06  0.763E-03    0.63       3.0  T
   4    -33.1317442 -0.468433E-06  0.376E-03    0.63       6.1  T
   5    -33.1317442 -0.644623E-07  0.104E-03    0.63      22.0  T
   6    -33.1317442 -0.789957E-08  0.270E-04    0.63      85.0  T
   7    -33.1317442 -0.205418E-09  0.144E-04    0.63     159.1  T
     SCC iter.                  ...        0 min,  0.008 sec
     gradient                   ...        0 min,  0.004 sec
 * total energy  :   -32.7554804 Eh     change       -0.1078420E-03 Eh
   gradient norm :     0.0073587 Eh/α   predicted    -0.6728793E-04 ( -37.61%)
   displ. norm   :     0.4990563 α      lambda       -0.3888567E-03
   maximum displ.:     0.3298274 α      in ANC's #1, #6, #4, ...

........................................................................
.............................. CYCLE   78 ..............................
........................................................................

 iter      E             dE          RMSdq      gap      omega  full diag
   1    -33.1304351 -0.331304E+02  0.231E-01    0.62       0.0  T
   2    -33.1304518 -0.167868E-04  0.107E-01    0.63       1.0  T
   3    -33.1304442  0.762395E-05  0.338E-02    0.64       1.0  T
   4    -33.1304568 -0.126217E-04  0.140E-02    0.63       1.6  T
   5    -33.1304575 -0.610351E-06  0.263E-03    0.64       8.7  T
   6    -33.1304575 -0.316832E-07  0.888E-04    0.63      25.8  T
   7    -33.1304575 -0.851095E-09  0.443E-04    0.63      51.7  T
     SCC iter.                  ...        0 min,  0.007 sec
     gradient                   ...        0 min,  0.003 sec
 * total energy  :   -32.7557612 Eh     change       -0.2808884E-03 Eh
   gradient norm :     0.0192859 Eh/α   predicted    -0.2428601E-03 ( -13.54%)
   displ. norm   :     0.3235499 α      lambda       -0.2472939E-03
   maximum displ.:     0.2243750 α      in ANC's #1, #6, #4, ...

........................................................................
.............................. CYCLE   79 ..............................
........................................................................

 iter      E             dE          RMSdq      gap      omega  full diag
   1    -33.1302752 -0.331303E+02  0.141E-01    0.63       0.0  T
   2    -33.1302819 -0.665487E-05  0.688E-02    0.64       1.0  T
   3    -33.1302722  0.963856E-05  0.309E-02    0.64       1.0  T
   4    -33.1302853 -0.131116E-04  0.924E-03    0.64       2.5  T
   5    -33.1302855 -0.199421E-06  0.212E-03    0.64      10.8  T
   6    -33.1302856 -0.114719E-07  0.718E-04    0.64      31.9  T
   7    -33.1302856 -0.225761E-09  0.219E-04    0.64     104.5  T
     SCC iter.                  ...        0 min,  0.006 sec
     gradient                   ...        0 min,  0.003 sec
 * total energy  :   -32.7559524 Eh     change       -0.1911432E-03 Eh
   gradient norm :     0.0223935 Eh/α   predicted    -0.1365941E-03 ( -28.54%)
   displ. norm   :     0.3476013 α      lambda       -0.5049276E-03
   maximum displ.:     0.2524453 α      in ANC's #1, #6, #4, ...

........................................................................
.............................. CYCLE   80 ..............................
........................................................................

 iter      E             dE          RMSdq      gap      omega  full diag
   1    -33.1323117 -0.331323E+02  0.158E-01    0.65       0.0  T
   2    -33.1323220 -0.103702E-04  0.824E-02    0.66       1.0  T
   3    -33.1323038  0.181859E-04  0.414E-02    0.67       1.0  T
   4    -33.1323278 -0.239877E-04  0.113E-02    0.66       2.0  T
   5    -33.1323283 -0.488459E-06  0.384E-03    0.66       6.0  T
   6    -33.1323283 -0.226315E-07  0.132E-03    0.66      17.3  T
   7    -33.1323283 -0.923329E-09  0.555E-04    0.66      41.4  T
   8    -33.1323283 -0.981842E-09  0.226E-04    0.66     101.5  T
     SCC iter.                  ...        0 min,  0.007 sec
     gradient                   ...        0 min,  0.003 sec
 * total energy  :   -32.7562311 Eh     change       -0.2787596E-03 Eh
   gradient norm :     0.0093879 Eh/α   predicted    -0.2829725E-03 (   1.51%)
   displ. norm   :     0.6477008 α      lambda       -0.5034023E-03
   maximum displ.:     0.4675333 α      in ANC's #1, #6, #4, ...

........................................................................
.............................. CYCLE   81 ..............................
........................................................................

 iter      E             dE          RMSdq      gap      omega  full diag
   1    -33.1295166 -0.331295E+02  0.263E-01    0.67       0.0  T
   2    -33.1295441 -0.274416E-04  0.127E-01    0.68       1.0  T
   3    -33.1295024  0.417113E-04  0.634E-02    0.69       1.0  T
   4    -33.1295591 -0.567764E-04  0.176E-02    0.69       1.3  T
   5    -33.1295597 -0.606686E-06  0.415E-03    0.69       5.5  T
   6    -33.1295598 -0.284535E-07  0.131E-03    0.69      17.5  T
   7    -33.1295598 -0.206142E-08  0.671E-04    0.69      34.2  T
   8    -33.1295598 -0.409756E-09  0.194E-04    0.69     118.5  T
     SCC iter.                  ...        0 min,  0.007 sec
     gradient                   ...        0 min,  0.003 sec
 * total energy  :   -32.7564517 Eh     change       -0.2205441E-03 Eh
   gradient norm :     0.0338471 Eh/α   predicted    -0.3573052E-03 (  62.01%)
   displ. norm   :     0.0795886 α      lambda       -0.3600916E-03
   maximum displ.:     0.0412670 α      in ANC's #6, #4, #7, ...

........................................................................
.............................. CYCLE   82 ..............................
........................................................................

 iter      E             dE          RMSdq      gap      omega  full diag
   1    -33.1330334 -0.331330E+02  0.619E-02    0.71       0.0  T
   2    -33.1330360 -0.260105E-05  0.364E-02    0.71       1.0  T
   3    -33.1330367 -0.726530E-06  0.249E-02    0.71       1.0  T
   4    -33.1330428 -0.610642E-05  0.428E-03    0.71       5.4  T
   5    -33.1330429 -0.511984E-07  0.185E-03    0.71      12.4  T
   6    -33.1330429 -0.469696E-08  0.581E-04    0.71      39.5  T
   7    -33.1330429 -0.751506E-09  0.304E-04    0.71      75.6  T
     SCC iter.                  ...        0 min,  0.006 sec
     gradient                   ...        0 min,  0.003 sec
 * total energy  :   -32.7566709 Eh     change       -0.2192467E-03 Eh
   gradient norm :     0.0117078 Eh/α   predicted    -0.1811775E-03 ( -17.36%)
   displ. norm   :     0.3943880 α      lambda       -0.3730183E-03
   maximum displ.:     0.3197996 α      in ANC's #1, #6, #11, ...

........................................................................
.............................. CYCLE   83 ..............................
........................................................................

 iter      E             dE          RMSdq      gap      omega  full diag
   1    -33.1341628 -0.331342E+02  0.126E-01    0.72       0.0  T
   2    -33.1341680 -0.524392E-05  0.634E-02    0.73       1.0  T
   3    -33.1341584  0.960950E-05  0.300E-02    0.74       1.0  T
   4    -33.1341711 -0.126852E-04  0.869E-03    0.74       2.6  T
   5    -33.1341712 -0.137900E-06  0.158E-03    0.74      14.5  T
   6    -33.1341712 -0.107258E-07  0.649E-04    0.74      35.3  T
   7    -33.1341712 -0.847606E-09  0.355E-04    0.74      64.6  T
     SCC iter.                  ...        0 min,  0.007 sec
     gradient                   ...        0 min,  0.004 sec
 * total energy  :   -32.7570103 Eh     change       -0.3393616E-03 Eh
   gradient norm :     0.0113390 Eh/α   predicted    -0.2155704E-03 ( -36.48%)
   displ. norm   :     0.7984766 α      lambda       -0.7761291E-03
   maximum displ.:     0.6376722 α      in ANC's #1, #6, #11, ...

........................................................................
.............................. CYCLE   84 ..............................
........................................................................

 iter      E             dE          RMSdq      gap      omega  full diag
   1    -33.1304871 -0.331305E+02  0.276E-01    0.74       0.0  T
   2    -33.1305188 -0.316777E-04  0.133E-01    0.76       1.0  T
   3    -33.1305223 -0.353336E-05  0.268E-02    0.77       1.0  T
   4    -33.1305217  0.618226E-06  0.167E-02    0.77       1.4  T
   5    -33.1305239 -0.223576E-05  0.579E-03    0.77       4.0  T
   6    -33.1305243 -0.343167E-06  0.115E-03    0.77      19.9  T
   7    -33.1305243 -0.249106E-08  0.644E-04    0.77      35.6  T
   8    -33.1305243 -0.475175E-09  0.198E-04    0.77     116.0  T
     SCC iter.                  ...        0 min,  0.007 sec
     gradient                   ...        0 min,  0.003 sec
 * total energy  :   -32.7575680 Eh     change       -0.5577088E-03 Eh
   gradient norm :     0.0342411 Eh/α   predicted    -0.6357382E-03 (  13.99%)
   displ. norm   :     0.3722169 α      lambda       -0.8830819E-03
   maximum displ.:     0.2814839 α      in ANC's #1, #6, #3, ...

........................................................................
.............................. CYCLE   85 ..............................
........................................................................

 iter      E             dE          RMSdq      gap      omega  full diag
   1    -33.1281987 -0.331282E+02  0.186E-01    0.74       0.0  T
   2    -33.1282174 -0.187111E-04  0.979E-02    0.76       1.0  T
   3    -33.1281806  0.368467E-04  0.671E-02    0.77       1.0  T
   4    -33.1282405 -0.598892E-04  0.137E-02    0.77       1.7  T
   5    -33.1282411 -0.668486E-06  0.519E-03    0.77       4.4  T
   6    -33.1282412 -0.938322E-07  0.171E-03    0.77      13.4  T
   7    -33.1282412 -0.469706E-08  0.893E-04    0.77      25.7  T
   8    -33.1282412 -0.783473E-09  0.337E-04    0.77      68.1  T
     SCC iter.                  ...        0 min,  0.008 sec
     gradient                   ...        0 min,  0.005 sec
 * total energy  :   -32.7581390 Eh     change       -0.5709763E-03 Eh
   gradient norm :     0.0125479 Eh/α   predicted    -0.5027481E-03 ( -11.95%)
   displ. norm   :     0.6062179 α      lambda       -0.7196384E-03
   maximum displ.:     0.4677773 α      in ANC's #1, #6, #11, ...

........................................................................
.............................. CYCLE   86 ..............................
........................................................................

 iter      E             dE          RMSdq      gap      omega  full diag
   1    -33.1271060 -0.331271E+02  0.244E-01    0.75       0.0  T
   2    -33.1271336 -0.276709E-04  0.124E-01    0.77       1.0  T
   3    -33.1270648  0.688690E-04  0.869E-02    0.79       1.0  T
   4    -33.1271733 -0.108578E-03  0.169E-02    0.78       1.4  T
   5    -33.1271740 -0.634424E-06  0.456E-03    0.78       5.0  T
   6    -33.1271740 -0.708245E-07  0.155E-03    0.78      14.8  T
   7    -33.1271741 -0.530350E-08  0.810E-04    0.78      28.3  T
   8    -33.1271741 -0.112237E-08  0.365E-04    0.78      62.9  T
     SCC iter.                  ...        0 min,  0.008 sec
     gradient                   ...        0 min,  0.003 sec
 * total energy  :   -32.7584031 Eh     change       -0.2640969E-03 Eh
   gradient norm :     0.0440914 Eh/α   predicted    -0.4921250E-03 (  86.34%)
   displ. norm   :     0.1746448 α      lambda       -0.8384308E-03
   maximum displ.:     0.1431541 α      in ANC's #1, #11, #5, ...

........................................................................
.............................. CYCLE   87 ..............................
........................................................................

 iter      E             dE          RMSdq      gap      omega  full diag
   1    -33.1298997 -0.331299E+02  0.101E-01    0.78       0.0  T
   2    -33.1299118 -0.121090E-04  0.637E-02    0.78       1.0  T
   3    -33.1299101  0.171084E-05  0.406E-02    0.79       1.0  T
   4    -33.1299253 -0.151908E-04  0.102E-02    0.79       2.2  T
   5    -33.1299261 -0.822204E-06  0.324E-03    0.79       7.1  T
   6    -33.1299261 -0.558357E-08  0.961E-04    0.79      23.9  T
   7    -33.1299261 -0.883233E-09  0.376E-04    0.79      61.1  T
     SCC iter.                  ...        0 min,  0.006 sec
     gradient                   ...        0 min,  0.003 sec
 * total energy  :   -32.7588117 Eh     change       -0.4085940E-03 Eh
   gradient norm :     0.0176036 Eh/α   predicted    -0.4319763E-03 (   5.72%)
   displ. norm   :     0.3310827 α      lambda       -0.3642768E-03
   maximum displ.:     0.2684805 α      in ANC's #1, #6, #11, ...

........................................................................
.............................. CYCLE   88 ..............................
........................................................................

 iter      E             dE          RMSdq      gap      omega  full diag
   1    -33.1279446 -0.331279E+02  0.128E-01    0.77       0.0  T
   2    -33.1279578 -0.131959E-04  0.624E-02    0.79       1.0  T
   3    -33.1279538  0.402996E-05  0.243E-02    0.79       1.0  T
   4    -33.1279593 -0.556240E-05  0.113E-02    0.80       2.0  T
   5    -33.1279604 -0.106850E-05  0.426E-03    0.80       5.4  T
   6    -33.1279605 -0.595206E-07  0.106E-03    0.80      21.7  T
   7    -33.1279605 -0.450957E-08  0.466E-04    0.80      49.2  T
   8    -33.1279605 -0.363400E-09  0.197E-04    0.80     116.4  T
     SCC iter.                  ...        0 min,  0.007 sec
     gradient                   ...        0 min,  0.003 sec
 * total energy  :   -32.7590395 Eh     change       -0.2278271E-03 Eh
   gradient norm :     0.0230045 Eh/α   predicted    -0.2020615E-03 ( -11.31%)
   displ. norm   :     0.3266792 α      lambda       -0.9641975E-03
   maximum displ.:     0.1969788 α      in ANC's #1, #5, #6, ...

........................................................................
.............................. CYCLE   89 ..............................
........................................................................

 iter      E             dE          RMSdq      gap      omega  full diag
   1    -33.1360581 -0.331361E+02  0.219E-01    0.80       0.0  T
   2    -33.1361344 -0.762727E-04  0.120E-01    0.83       1.0  T
   3    -33.1361116  0.228394E-04  0.822E-02    0.82       1.0  T
   4    -33.1361814 -0.698637E-04  0.237E-02    0.83       1.0  T
   5    -33.1361856 -0.415328E-05  0.778E-03    0.83       2.9  T
   6    -33.1361856 -0.624717E-07  0.256E-03    0.83       9.0  T
   7    -33.1361857 -0.192286E-07  0.118E-03    0.83      19.4  T
   8    -33.1361857 -0.312727E-08  0.453E-04    0.83      50.7  T
   9    -33.1361857 -0.307473E-09  0.144E-04    0.83     159.1  T
     SCC iter.                  ...        0 min,  0.008 sec
     gradient                   ...        0 min,  0.003 sec
 * total energy  :   -32.7586904 Eh     change        0.3491503E-03 Eh
   gradient norm :     0.0279454 Eh/α   predicted    -0.5334232E-03 (-252.78%)
   displ. norm   :     0.2328405 α      lambda       -0.1510061E-02
   maximum displ.:     0.1827930 α      in ANC's #1, #6, #11, ...

........................................................................
.............................. CYCLE   90 ..............................
........................................................................

 iter      E             dE          RMSdq      gap      omega  full diag
   1    -33.1274112 -0.331274E+02  0.119E-01    0.82       0.0  T
   2    -33.1274351 -0.238592E-04  0.662E-02    0.82       1.0  T
   3    -33.1274270  0.812059E-05  0.392E-02    0.83       1.0  T
   4    -33.1274385 -0.114772E-04  0.155E-02    0.83       1.5  T
   5    -33.1274413 -0.282098E-05  0.358E-03    0.83       6.4  T
   6    -33.1274413 -0.112241E-07  0.124E-03    0.83      18.6  T
   7    -33.1274413 -0.253918E-08  0.569E-04    0.83      40.4  T
   8    -33.1274413 -0.547260E-09  0.288E-04    0.83      79.8  T
     SCC iter.                  ...        0 min,  0.008 sec
     gradient                   ...        0 min,  0.003 sec
 * total energy  :   -32.7594652 Eh     change       -0.7748320E-03 Eh
   gradient norm :     0.0204546 Eh/α   predicted    -0.7959931E-03 (   2.73%)
   displ. norm   :     0.1233214 α      lambda       -0.3813238E-03
   maximum displ.:     0.0812241 α      in ANC's #1, #10, #2, ...

........................................................................
.............................. CYCLE   91 ..............................
........................................................................

 iter      E             dE          RMSdq      gap      omega  full diag
   1    -33.1315147 -0.331315E+02  0.731E-02    0.84       0.0  T
   2    -33.1315216 -0.694751E-05  0.425E-02    0.83       1.0  T
   3    -33.1315177  0.393490E-05  0.295E-02    0.84       1.0  T
   4    -33.1315267 -0.905125E-05  0.715E-03    0.84       3.2  T
   5    -33.1315271 -0.377559E-06  0.274E-03    0.84       8.4  T
   6    -33.1315271 -0.432927E-08  0.966E-04    0.84      23.7  T
   7    -33.1315271 -0.261728E-08  0.399E-04    0.84      57.5  T
     SCC iter.                  ...        0 min,  0.006 sec
     gradient                   ...        0 min,  0.003 sec
 * total energy  :   -32.7595957 Eh     change       -0.1304699E-03 Eh
   gradient norm :     0.0212361 Eh/α   predicted    -0.1935655E-03 (  48.36%)
   displ. norm   :     0.2645597 α      lambda       -0.3637098E-03
   maximum displ.:     0.2026416 α      in ANC's #1, #6, #5, ...

........................................................................
.............................. CYCLE   92 ..............................
........................................................................

 iter      E             dE          RMSdq      gap      omega  full diag
   1    -33.1298713 -0.331299E+02  0.903E-02    0.84       0.0  T
   2    -33.1298757 -0.447563E-05  0.440E-02    0.85       1.0  T
   3    -33.1298753  0.465551E-06  0.136E-02    0.85       1.7  T
   4    -33.1298759 -0.630360E-06  0.847E-03    0.86       2.7  T
   5    -33.1298766 -0.659106E-06  0.302E-03    0.85       7.6  T
   6    -33.1298766 -0.323641E-07  0.121E-03    0.85      18.9  T
   7    -33.1298766 -0.186041E-08  0.625E-04    0.85      36.7  T
   8    -33.1298766 -0.629214E-09  0.253E-04    0.85      90.7  T
     SCC iter.                  ...        0 min,  0.008 sec
     gradient                   ...        0 min,  0.004 sec
 * total energy  :   -32.7598869 Eh     change       -0.2912430E-03 Eh
   gradient norm :     0.0169336 Eh/α   predicted    -0.1945847E-03 ( -33.19%)
   displ. norm   :     0.4046087 α      lambda       -0.8452222E-03
   maximum displ.:     0.3090382 α      in ANC's #1, #6, #5, ...
 * RMSD in coord.:     1.5374795 α      energy gain  -0.6080163E-02 Eh

generating ANC from exact Hessian ...
Using Lindh-Hessian (1995)
 Shifting diagonal of input Hessian by    1.0920063221922890E-002
 Lowest  eigenvalues of input Hessian
    0.010000    0.010398    0.000000    0.000000    0.000000    0.000000
    0.000000    0.000000    0.011486    0.011638    0.012253    0.012429
    0.014615    0.018071    0.020875    0.021834    0.023822    0.031026
 Highest eigenvalues
    1.408776    1.570484    1.918437    2.359908    2.757506    3.509868


........................................................................
.............................. CYCLE   93 ..............................
........................................................................

 iter      E             dE          RMSdq      gap      omega  full diag
   1    -33.1303196 -0.331303E+02  0.153E-01    0.88       0.0  T
   2    -33.1303332 -0.136086E-04  0.870E-02    0.89       1.0  T
   3    -33.1303020  0.312130E-04  0.592E-02    0.88       1.0  T
   4    -33.1303491 -0.470899E-04  0.112E-02    0.89       2.0  T
   5    -33.1303495 -0.412676E-06  0.458E-03    0.89       5.0  T
   6    -33.1303495 -0.122795E-07  0.156E-03    0.89      14.7  T
   7    -33.1303495 -0.229448E-08  0.807E-04    0.89      28.4  T
   8    -33.1303495 -0.939231E-09  0.318E-04    0.89      72.1  T
     SCC iter.                  ...        0 min,  0.008 sec
     gradient                   ...        0 min,  0.004 sec
 * total energy  :   -32.7601780 Eh     change       -0.2910529E-03 Eh
   gradient norm :     0.0191616 Eh/α   predicted     0.0000000E+00 (-100.00%)
   displ. norm   :     0.1277602 α      lambda       -0.7025726E-03
   maximum displ.:     0.0660416 α      in ANC's #4, #5, #1, ...

........................................................................
.............................. CYCLE   94 ..............................
........................................................................

 iter      E             dE          RMSdq      gap      omega  full diag
   1    -33.1320858 -0.331321E+02  0.138E-01    0.89       0.0  T
   2    -33.1320936 -0.777741E-05  0.819E-02    0.89       1.0  T
   3    -33.1321021 -0.856333E-05  0.559E-02    0.90       1.0  T
   4    -33.1321346 -0.324577E-04  0.852E-03    0.89       2.7  T
   5    -33.1321347 -0.106377E-06  0.193E-03    0.89      11.9  T
   6    -33.1321347 -0.329516E-08  0.822E-04    0.89      27.9  T
   7    -33.1321347 -0.574531E-09  0.329E-04    0.89      69.7  T
     SCC iter.                  ...        0 min,  0.026 sec
     gradient                   ...        0 min,  0.008 sec
 * total energy  :   -32.7605555 Eh     change       -0.3775951E-03 Eh
   gradient norm :     0.0059973 Eh/α   predicted    -0.3571184E-03 (  -5.42%)
   displ. norm   :     0.2470198 α      lambda       -0.7607319E-03
   maximum displ.:     0.1631654 α      in ANC's #7, #1, #4, ...

........................................................................
.............................. CYCLE   95 ..............................
........................................................................

 iter      E             dE          RMSdq      gap      omega  full diag
   1    -33.1342671 -0.331343E+02  0.239E-01    0.87       0.0  T
   2    -33.1342813 -0.142086E-04  0.131E-01    0.87       1.0  T
   3    -33.1342043  0.770608E-04  0.794E-02    0.89       1.0  T
   4    -33.1343013 -0.970211E-04  0.113E-02    0.88       2.0  T
   5    -33.1343016 -0.270928E-06  0.241E-03    0.88       9.5  T
   6    -33.1343016 -0.428549E-08  0.105E-03    0.88      21.9  T
   7    -33.1343016 -0.100718E-08  0.425E-04    0.88      54.0  T
   8    -33.1343016 -0.483404E-09  0.154E-04    0.88     149.3  T
     SCC iter.                  ...        0 min,  0.009 sec
     gradient                   ...        0 min,  0.010 sec
 * total energy  :   -32.7605111 Eh     change        0.4446218E-04 Eh
   gradient norm :     0.0227654 Eh/α   predicted    -0.4035859E-03 (*******%)
   displ. norm   :     0.0826751 α      lambda       -0.6733311E-03
   maximum displ.:     0.0435996 α      in ANC's #7, #5, #4, ...

........................................................................
.............................. CYCLE   96 ..............................
........................................................................

 iter      E             dE          RMSdq      gap      omega  full diag
   1    -33.1338459 -0.331338E+02  0.111E-01    0.90       0.0  T
   2    -33.1338493 -0.333929E-05  0.620E-02    0.90       1.0  T
   3    -33.1338312  0.181339E-04  0.393E-02    0.90       1.0  T
   4    -33.1338544 -0.232886E-04  0.518E-03    0.90       4.4  T
   5    -33.1338545 -0.806597E-07  0.161E-03    0.90      14.3  T
   6    -33.1338545 -0.184242E-08  0.632E-04    0.90      36.3  T
   7    -33.1338545 -0.270525E-09  0.259E-04    0.90      88.6  T
     SCC iter.                  ...        0 min,  0.007 sec
     gradient                   ...        0 min,  0.004 sec
 * total energy  :   -32.7609329 Eh     change       -0.4218575E-03 Eh
   gradient norm :     0.0099316 Eh/α   predicted    -0.3389812E-03 ( -19.65%)
   displ. norm   :     0.1615140 α      lambda       -0.2700772E-03
   maximum displ.:     0.0942531 α      in ANC's #4, #1, #5, ...

........................................................................
.............................. CYCLE   97 ..............................
........................................................................

 iter      E             dE          RMSdq      gap      omega  full diag
   1    -33.1326942 -0.331327E+02  0.119E-01    0.90       0.0  T
   2    -33.1327005 -0.631211E-05  0.537E-02    0.91       1.0  T
   3    -33.1327014 -0.904489E-06  0.927E-03    0.92       2.5  T
   4    -33.1327014  0.623083E-07  0.556E-03    0.92       4.1  T
   5    -33.1327015 -0.159091E-06  0.259E-03    0.92       8.9  T
   6    -33.1327016 -0.745801E-07  0.461E-04    0.92      49.8  T
   7    -33.1327016 -0.342190E-09  0.217E-04    0.92     105.5  T
     SCC iter.                  ...        0 min,  0.007 sec
     gradient                   ...        0 min,  0.003 sec
 * total energy  :   -32.7611553 Eh     change       -0.2223582E-03 Eh
   gradient norm :     0.0077241 Eh/α   predicted    -0.1385642E-03 ( -37.68%)
   displ. norm   :     0.3968023 α      lambda       -0.5199934E-03
   maximum displ.:     0.2234192 α      in ANC's #4, #1, #5, ...

........................................................................
.............................. CYCLE   98 ..............................
........................................................................

 iter      E             dE          RMSdq      gap      omega  full diag
   1    -33.1299426 -0.331299E+02  0.271E-01    0.91       0.0  T
   2    -33.1299775 -0.349134E-04  0.123E-01    0.94       1.0  T
   3    -33.1299809 -0.343253E-05  0.234E-02    0.94       1.0  T
   4    -33.1299808  0.828809E-07  0.160E-02    0.94       1.4  T
   5    -33.1299830 -0.220155E-05  0.559E-03    0.94       4.1  T
   6    -33.1299832 -0.187231E-06  0.115E-03    0.94      20.0  T
   7    -33.1299832 -0.286985E-08  0.484E-04    0.94      47.4  T
   8    -33.1299832 -0.368686E-09  0.245E-04    0.94      93.7  T
     SCC iter.                  ...        0 min,  0.008 sec
     gradient                   ...        0 min,  0.004 sec
 * total energy  :   -32.7615033 Eh     change       -0.3479981E-03 Eh
   gradient norm :     0.0113269 Eh/α   predicted    -0.3009354E-03 ( -13.52%)
   displ. norm   :     0.2284073 α      lambda       -0.2955427E-03
   maximum displ.:     0.1216843 α      in ANC's #4, #7, #3, ...

........................................................................
.............................. CYCLE   99 ..............................
........................................................................

 iter      E             dE          RMSdq      gap      omega  full diag
   1    -33.1299818 -0.331300E+02  0.138E-01    0.93       0.0  T
   2    -33.1299954 -0.135604E-04  0.660E-02    0.96       1.0  T
   3    -33.1299872  0.820182E-05  0.301E-02    0.96       1.0  T
   4    -33.1299986 -0.114347E-04  0.113E-02    0.96       2.0  T
   5    -33.1299994 -0.812612E-06  0.350E-03    0.96       6.5  T
   6    -33.1299994 -0.124723E-07  0.102E-03    0.96      22.4  T
   7    -33.1299994 -0.129378E-08  0.441E-04    0.96      52.1  T
   8    -33.1299994 -0.227594E-09  0.243E-04    0.96      94.3  T
     SCC iter.                  ...        0 min,  0.009 sec
     gradient                   ...        0 min,  0.004 sec
 * total energy  :   -32.7617045 Eh     change       -0.2011929E-03 Eh
   gradient norm :     0.0092367 Eh/α   predicted    -0.1554889E-03 ( -22.72%)
   displ. norm   :     0.2990593 α      lambda       -0.2945820E-03
   maximum displ.:     0.1533706 α      in ANC's #4, #1, #7, ...

........................................................................
.............................. CYCLE  100 ..............................
........................................................................

 iter      E             dE          RMSdq      gap      omega  full diag
   1    -33.1311858 -0.331312E+02  0.201E-01    0.95       0.0  T
   2    -33.1312107 -0.248417E-04  0.905E-02    0.98       1.0  T
   3    -33.1312125 -0.180282E-05  0.191E-02    0.98       1.2  T
   4    -33.1312128 -0.300449E-06  0.117E-02    0.98       2.0  T
   5    -33.1312137 -0.939276E-06  0.528E-03    0.98       4.3  T
   6    -33.1312139 -0.221867E-06  0.117E-03    0.98      19.5  T
   7    -33.1312140 -0.486430E-08  0.512E-04    0.98      44.8  T
   8    -33.1312140 -0.778392E-09  0.318E-04    0.98      72.1  T
     SCC iter.                  ...        0 min,  0.009 sec
     gradient                   ...        0 min,  0.003 sec
 * total energy  :   -32.7618456 Eh     change       -0.1410816E-03 Eh
   gradient norm :     0.0134790 Eh/α   predicted    -0.1604650E-03 (  13.74%)
   displ. norm   :     0.0702488 α      lambda       -0.2671483E-03
   maximum displ.:     0.0306681 α      in ANC's #6, #11, #1, ...

........................................................................
.............................. CYCLE  101 ..............................
........................................................................

 iter      E             dE          RMSdq      gap      omega  full diag
   1    -33.1372842 -0.331373E+02  0.700E-02    0.97       0.0  T
   2    -33.1372904 -0.620907E-05  0.404E-02    0.98       1.0  T
   3    -33.1372880  0.235524E-05  0.187E-02    0.98       1.2  T
   4    -33.1372909 -0.289873E-05  0.810E-03    0.98       2.8  T
   5    -33.1372917 -0.773046E-06  0.261E-03    0.98       8.8  T
   6    -33.1372917 -0.589916E-08  0.771E-04    0.98      29.7  T
   7    -33.1372917 -0.937163E-09  0.346E-04    0.98      66.2  T
     SCC iter.                  ...        0 min,  0.007 sec
     gradient                   ...        0 min,  0.003 sec
 * total energy  :   -32.7618531 Eh     change       -0.7501866E-05 Eh
   gradient norm :     0.0109017 Eh/α   predicted    -0.1342381E-03 (1689.40%)
   displ. norm   :     0.0807043 α      lambda       -0.1660206E-03
   maximum displ.:     0.0437425 α      in ANC's #5, #4, #7, ...

........................................................................
.............................. CYCLE  102 ..............................
........................................................................

 iter      E             dE          RMSdq      gap      omega  full diag
   1    -33.1334691 -0.331335E+02  0.605E-02    0.98       0.0  T
   2    -33.1334712 -0.216365E-05  0.297E-02    0.98       1.0  T
   3    -33.1334705  0.741792E-06  0.102E-02    0.99       2.3  T
   4    -33.1334715 -0.104564E-05  0.470E-03    0.99       4.9  T
   5    -33.1334717 -0.143776E-06  0.190E-03    0.99      12.1  T
   6    -33.1334717 -0.830021E-08  0.452E-04    0.99      50.8  T
   7    -33.1334717 -0.215948E-09  0.252E-04    0.99      91.2  T
     SCC iter.                  ...        0 min,  0.006 sec
     gradient                   ...        0 min,  0.003 sec
 * total energy  :   -32.7619404 Eh     change       -0.8735784E-04 Eh
   gradient norm :     0.0039316 Eh/α   predicted    -0.8355184E-04 (  -4.36%)
   displ. norm   :     0.0286969 α      lambda       -0.2032419E-04
   maximum displ.:     0.0150764 α      in ANC's #9, #5, #11, ...

........................................................................
.............................. CYCLE  103 ..............................
........................................................................

 iter      E             dE          RMSdq      gap      omega  full diag
   1    -33.1334474 -0.331334E+02  0.185E-02    0.99       0.0  T
   2    -33.1334476 -0.261400E-06  0.876E-03    0.99       2.6  T
   3    -33.1334476 -0.127594E-07  0.217E-03    0.99      10.6  T
   4    -33.1334476 -0.830191E-08  0.128E-03    0.99      18.0  T
   5    -33.1334476 -0.387711E-08  0.749E-04    0.99      30.6  T
   6    -33.1334476 -0.514864E-08  0.213E-04    0.99     107.9  T
     SCC iter.                  ...        0 min,  0.005 sec
     gradient                   ...        0 min,  0.003 sec
 * total energy  :   -32.7619546 Eh     change       -0.1413305E-04 Eh
   gradient norm :     0.0014761 Eh/α   predicted    -0.1017163E-04 ( -28.03%)
   displ. norm   :     0.1080167 α      lambda       -0.2614861E-04
   maximum displ.:     0.0648008 α      in ANC's #9, #5, #11, ...

........................................................................
.............................. CYCLE  104 ..............................
........................................................................

 iter      E             dE          RMSdq      gap      omega  full diag
   1    -33.1333563 -0.331334E+02  0.395E-02    0.99       0.0  T
   2    -33.1333575 -0.121325E-05  0.201E-02    0.99       1.1  T
   3    -33.1333569  0.617765E-06  0.956E-03    0.99       2.4  T
   4    -33.1333578 -0.821789E-06  0.404E-03    0.99       5.7  T
   5    -33.1333579 -0.109616E-06  0.175E-03    0.99      13.1  T
   6    -33.1333579 -0.757616E-08  0.650E-04    0.99      35.3  T
   7    -33.1333579 -0.874458E-09  0.425E-04    0.99      54.0  T
     SCC iter.                  ...        0 min,  0.006 sec
     gradient                   ...        0 min,  0.003 sec
 * total energy  :   -32.7619779 Eh     change       -0.2331890E-04 Eh
   gradient norm :     0.0023516 Eh/α   predicted    -0.1314269E-04 ( -43.64%)
   displ. norm   :     0.0390652 α      lambda       -0.1421410E-04
   maximum displ.:     0.0190468 α      in ANC's #11, #9, #1, ...

........................................................................
.............................. CYCLE  105 ..............................
........................................................................

 iter      E             dE          RMSdq      gap      omega  full diag
   1    -33.1337791 -0.331338E+02  0.151E-02    0.99       0.0  T
   2    -33.1337793 -0.152869E-06  0.793E-03    0.99       2.9  T
   3    -33.1337791  0.152506E-06  0.404E-03    0.99       5.7  T
   4    -33.1337793 -0.199256E-06  0.141E-03    0.99      16.2  T
   5    -33.1337793 -0.136903E-07  0.473E-04    0.99      48.5  T
   6    -33.1337793 -0.265793E-09  0.100E-04    0.99     229.2  T
     SCC iter.                  ...        0 min,  0.006 sec
     gradient                   ...        0 min,  0.003 sec
 * total energy  :   -32.7619886 Eh     change       -0.1073185E-04 Eh
   gradient norm :     0.0017174 Eh/α   predicted    -0.7122651E-05 ( -33.63%)
   displ. norm   :     0.1186296 α      lambda       -0.1861508E-04
   maximum displ.:     0.0631192 α      in ANC's #9, #11, #5, ...

........................................................................
.............................. CYCLE  106 ..............................
........................................................................

 iter      E             dE          RMSdq      gap      omega  full diag
   1    -33.1339927 -0.331340E+02  0.327E-02    0.98       0.0  T
   2    -33.1339931 -0.333333E-06  0.181E-02    0.98       1.3  T
   3    -33.1339926  0.430130E-06  0.645E-03    0.98       3.6  T
   4    -33.1339931 -0.515068E-06  0.266E-03    0.98       8.6  T
   5    -33.1339932 -0.387150E-07  0.825E-04    0.98      27.8  T
   6    -33.1339932 -0.524214E-08  0.239E-04    0.98      96.2  T
     SCC iter.                  ...        0 min,  0.006 sec
     gradient                   ...        0 min,  0.004 sec
 * total energy  :   -32.7620014 Eh     change       -0.1282750E-04 Eh
   gradient norm :     0.0036066 Eh/α   predicted    -0.9367193E-05 ( -26.98%)
   displ. norm   :     0.0177038 α      lambda       -0.7121900E-05
   maximum displ.:     0.0109577 α      in ANC's #4, #1, #11, ...

........................................................................
.............................. CYCLE  107 ..............................
........................................................................

 iter      E             dE          RMSdq      gap      omega  full diag
   1    -33.1341166 -0.331341E+02  0.133E-02    0.98       0.0  T
   2    -33.1341167 -0.106245E-06  0.669E-03    0.98       3.4  T
   3    -33.1341167 -0.704736E-08  0.170E-03    0.98      13.5  T
   4    -33.1341167 -0.684607E-08  0.951E-04    0.98      24.1  T
   5    -33.1341167 -0.117828E-08  0.560E-04    0.98      40.9  T
     SCC iter.                  ...        0 min,  0.006 sec
     gradient                   ...        0 min,  0.004 sec
 * total energy  :   -32.7620066 Eh     change       -0.5159642E-05 Eh
   gradient norm :     0.0021809 Eh/α   predicted    -0.3566389E-05 ( -30.88%)
   displ. norm   :     0.0255525 α      lambda       -0.7636909E-05
   maximum displ.:     0.0151271 α      in ANC's #1, #4, #13, ...

........................................................................
.............................. CYCLE  108 ..............................
........................................................................

 iter      E             dE          RMSdq      gap      omega  full diag
   1    -33.1340132 -0.331340E+02  0.195E-02    0.98       0.0  T
   2    -33.1340136 -0.382430E-06  0.990E-03    0.98       2.3  T
   3    -33.1340136 -0.237277E-07  0.282E-03    0.98       8.1  T
   4    -33.1340137 -0.154890E-07  0.128E-03    0.98      17.9  T
   5    -33.1340137 -0.760991E-10  0.778E-04    0.98      29.5  T
   6    -33.1340137 -0.434346E-08  0.352E-04    0.98      65.2  T
     SCC iter.                  ...        0 min,  0.009 sec
     gradient                   ...        0 min,  0.004 sec
 * total energy  :   -32.7620115 Eh     change       -0.4898021E-05 Eh
   gradient norm :     0.0007108 Eh/α   predicted    -0.3825044E-05 ( -21.91%)
   displ. norm   :     0.0270826 α      lambda       -0.2714547E-05
   maximum displ.:     0.0190039 α      in ANC's #1, #13, #4, ...

........................................................................
.............................. CYCLE  109 ..............................
........................................................................

 iter      E             dE          RMSdq      gap      omega  full diag
   1    -33.1337077 -0.331337E+02  0.191E-02    0.98       0.0  T
   2    -33.1337080 -0.313477E-06  0.937E-03    0.98       2.4  T
   3    -33.1337081 -0.129809E-07  0.255E-03    0.98       9.0  T
   4    -33.1337081 -0.132202E-07  0.131E-03    0.98      17.5  T
   5    -33.1337081 -0.976834E-08  0.696E-04    0.98      32.9  T
   6    -33.1337081 -0.373156E-08  0.197E-04    0.98     116.3  T
     SCC iter.                  ...        0 min,  0.007 sec
     gradient                   ...        0 min,  0.004 sec
 * total energy  :   -32.7620136 Eh     change       -0.2078930E-05 Eh
   gradient norm :     0.0008677 Eh/α   predicted    -0.1362142E-05 ( -34.48%)
   displ. norm   :     0.0153413 α      lambda       -0.1424409E-05
   maximum displ.:     0.0116027 α      in ANC's #1, #10, #7, ...

........................................................................
.............................. CYCLE  110 ..............................
........................................................................

 iter      E             dE          RMSdq      gap      omega  full diag
   1    -33.1337037 -0.331337E+02  0.713E-03    0.98       0.0  T
   2    -33.1337037 -0.211637E-07  0.418E-03    0.98       5.5  T
   3    -33.1337036  0.423035E-07  0.298E-03    0.98       7.7  T
   4    -33.1337037 -0.106307E-06  0.468E-04    0.98      49.1  T
   5    -33.1337037 -0.332520E-09  0.197E-04    0.98     116.5  T
     SCC iter.                  ...        0 min,  0.005 sec
     gradient                   ...        0 min,  0.003 sec
 * total energy  :   -32.7620150 Eh     change       -0.1439947E-05 Eh
   gradient norm :     0.0006035 Eh/α   predicted    -0.7163020E-06 ( -50.25%)
   displ. norm   :     0.0257372 α      lambda       -0.1774149E-05
   maximum displ.:     0.0195812 α      in ANC's #1, #10, #4, ...

........................................................................
.............................. CYCLE  111 ..............................
........................................................................

 iter      E             dE          RMSdq      gap      omega  full diag
   1    -33.1337155 -0.331337E+02  0.100E-02    0.98       0.0  T
   2    -33.1337155 -0.750538E-07  0.601E-03    0.98       3.8  T
   3    -33.1337155  0.300825E-07  0.416E-03    0.98       5.5  T
   4    -33.1337157 -0.174529E-06  0.973E-04    0.98      23.6  T
   5    -33.1337157 -0.309728E-08  0.512E-04    0.98      44.8  T
     SCC iter.                  ...        0 min,  0.004 sec
     gradient                   ...        0 min,  0.003 sec
 * total energy  :   -32.7620167 Eh     change       -0.1659543E-05 Eh
   gradient norm :     0.0007590 Eh/α   predicted    -0.8900932E-06 ( -46.37%)
   displ. norm   :     0.0326279 α      lambda       -0.1255843E-05
   maximum displ.:     0.0216140 α      in ANC's #1, #10, #2, ...

........................................................................
.............................. CYCLE  112 ..............................
........................................................................

 iter      E             dE          RMSdq      gap      omega  full diag
   1    -33.1337158 -0.331337E+02  0.107E-02    0.98       0.0  T
   2    -33.1337158 -0.271727E-07  0.606E-03    0.98       3.8  T
   3    -33.1337157  0.118466E-06  0.304E-03    0.98       7.5  T
   4    -33.1337158 -0.144640E-06  0.591E-04    0.98      38.8  T
   5    -33.1337158 -0.733642E-09  0.244E-04    0.98      93.9  T
     SCC iter.                  ...        0 min,  0.005 sec
     gradient                   ...        0 min,  0.003 sec
 * total energy  :   -32.7620181 Eh     change       -0.1391539E-05 Eh
   gradient norm :     0.0006731 Eh/α   predicted    -0.6298831E-06 ( -54.73%)
   displ. norm   :     0.0542618 α      lambda       -0.1940506E-05
   maximum displ.:     0.0348095 α      in ANC's #1, #4, #10, ...

........................................................................
.............................. CYCLE  113 ..............................
........................................................................

 iter      E             dE          RMSdq      gap      omega  full diag
   1    -33.1338817 -0.331339E+02  0.172E-02    0.98       0.0  T
   2    -33.1338819 -0.104929E-06  0.966E-03    0.98       2.4  T
   3    -33.1338818  0.508739E-07  0.253E-03    0.98       9.1  T
   4    -33.1338819 -0.622975E-07  0.117E-03    0.98      19.6  T
   5    -33.1338819 -0.158258E-07  0.386E-04    0.98      59.4  T
   6    -33.1338819 -0.224382E-09  0.165E-04    0.98     138.8  T
     SCC iter.                  ...        0 min,  0.005 sec
     gradient                   ...        0 min,  0.003 sec
 * total energy  :   -32.7620197 Eh     change       -0.1673989E-05 Eh
   gradient norm :     0.0005287 Eh/α   predicted    -0.9763680E-06 ( -41.67%)
   displ. norm   :     0.0331769 α      lambda       -0.1129111E-05
   maximum displ.:     0.0210108 α      in ANC's #4, #3, #10, ...

........................................................................
.............................. CYCLE  114 ..............................
........................................................................

 iter      E             dE          RMSdq      gap      omega  full diag
   1    -33.1337504 -0.331338E+02  0.118E-02    0.98       0.0  T
   2    -33.1337505 -0.310554E-07  0.644E-03    0.98       3.6  T
   3    -33.1337505 -0.667134E-08  0.102E-03    0.98      22.6  T
   4    -33.1337505 -0.100471E-08  0.436E-04    0.98      52.6  T
   5    -33.1337505 -0.332697E-09  0.108E-04    0.98     213.3  T
     SCC iter.                  ...        0 min,  0.005 sec
     gradient                   ...        0 min,  0.004 sec
 * total energy  :   -32.7620206 Eh     change       -0.8055946E-06 Eh
   gradient norm :     0.0004146 Eh/α   predicted    -0.5679415E-06 ( -29.50%)
   displ. norm   :     0.0110163 α      lambda       -0.5490008E-06
   maximum displ.:     0.0060243 α      in ANC's #5, #3, #6, ...

   *** GEOMETRY OPTIMIZATION CONVERGED AFTER 114 ITERATIONS ***

------------------------------------------------------------------------
 total energy gain   :        -0.1755932 Eh     -110.1864 kcal/mol
 total RMSD          :         3.4964824 a0        1.8503 Å
 total power (kW/mol):        -4.0440333 (step) -297.1377 (real)
------------------------------------------------------------------------

 ANCopt (total)                0 d,  0 h,  0 min,  1.552 sec
 optimizer setup                ...        0 min,  0.000 sec (  0.021%)
 model hessian                  ...        0 min,  0.015 sec (  0.969%)
 ANC generation                 ...        0 min,  0.002 sec (  0.111%)
 coordinate transformation      ...        0 min,  0.001 sec (  0.067%)
 single point calculation       ...        0 min,  1.473 sec ( 94.935%)
 optimization log               ...        0 min,  0.021 sec (  1.334%)
 hessian update                 ...        0 min,  0.013 sec (  0.809%)
 rational function              ...        0 min,  0.021 sec (  1.329%)

================
 final structure:
================
19
 xtb: 6.7.1 (edcfbbe)
C           -0.73955507879230       -1.31843871079758       -0.64046101411801
N            0.20270151606458       -0.23459832062341       -0.48737669439670
C            0.48123143378989        0.15647485939186        0.87411555720205
C            1.12042940701759       -0.05255234371136       -1.44546662371744
O            1.07486933544255       -0.52569681681395       -2.58844998218869
C            2.15548678123989        0.91990521286425       -1.15949089819152
N            3.15486037747383        1.46492187141805       -1.39679172514897
O            4.14116110681675        2.13856778951498       -1.46464233716656
H           -0.31770460261406       -2.23073108119741       -0.20639888911521
H           -0.91186111417848       -1.48234845557195       -1.70222906733534
H           -1.66784821920060       -1.05863760773498       -0.13839381353436
H            1.09095934548436       -0.61592743109610        1.35704032381291
H           -0.46096893257513        0.27116264805280        1.40348633412397
H            1.03165659630176        1.09478893768296        0.88092354437942
C            3.09597939281550       -2.93056362765667       -1.78625592214307
S            2.61287258348510       -2.49281500886118       -0.11224196071969
H            4.16669160217379       -2.75377050033919       -1.91647456695323
H            2.87589544147412       -3.98448158843309       -1.96646445032109
H            2.53801402778358       -2.31583082609825       -2.49732581446863

 Bond Distances (Angstroems)
 ---------------------------
C1-N2=1.4443         C1-H9=1.0948         C1-H10=1.0881        C1-H11=1.0869        N2-C1=1.4443         N2-C3=1.4437         
N2-C4=1.3391         C3-N2=1.4437         C3-H12=1.0962        C3-H13=1.0868        C3-H14=1.0879        C4-N2=1.3391         
C4-O5=1.2379         C4-C6=1.4487         O5-C4=1.2379         C6-C4=1.4487         C6-N7=1.1628         N7-C6=1.1628         
N7-O8=1.1963         O8-N7=1.1963         H9-C1=1.0948         H10-C1=1.0881        H11-C1=1.0869        H12-C3=1.0962        
H13-C3=1.0868        H14-C3=1.0879        C15-S16=1.7965       C15-H17=1.0930       C15-H18=1.0916       C15-H19=1.0931       
S16-C15=1.7965       H17-C15=1.0930       H18-C15=1.0916       H19-C15=1.0931       
 C  H  Rav=1.0909 sigma=0.0034  Rmin=1.0868  Rmax=1.0962     9
 C  C  Rav=1.4487 sigma=0.0000  Rmin=1.4487  Rmax=1.4487     1
 N  C  Rav=1.3475 sigma=0.1149  Rmin=1.1628  Rmax=1.4443     4
 O  C  Rav=1.2379 sigma=0.0000  Rmin=1.2379  Rmax=1.2379     1
 O  N  Rav=1.1963 sigma=0.0000  Rmin=1.1963  Rmax=1.1963     1
 S  C  Rav=1.7965 sigma=0.0000  Rmin=1.7965  Rmax=1.7965     1

 selected bond angles (degree)
 --------------------
H9-C1-N2=109.38                H10-C1-N2=108.65               H10-C1-H9=108.81               H11-C1-N2=109.20               
H11-C1-H9=110.19               H11-C1-H10=110.58              C3-N2-C1=115.41                C4-N2-C1=118.25                
C4-N2-C3=120.38                H12-C3-N2=109.39               H13-C3-N2=108.70               H13-C3-H12=110.00              
H14-C3-N2=109.70               H14-C3-H12=108.88              H14-C3-H13=110.16              O5-C4-N2=125.69                
C6-C4-N2=116.08                C6-C4-O5=117.72                N7-C6-C4=152.67                O8-N7-C6=169.76                

 selected dihedral angles (degree)
 ---------------------------------
C3-N2-C1-H9=295.36            C3-N2-C1-H10=176.71           C3-N2-C1-H11= 56.02           C4-N2-C1-H9= 88.33            
C4-N2-C1-H10=329.68           C4-N2-C1-H11=208.99           H12-C3-N2-C1= 72.12           H12-C3-N2-C4=279.77           
H13-C3-N2-C1=311.99           H13-C3-N2-C4=159.64           H14-C3-N2-C1=191.48           H14-C3-N2-C4= 39.13           
O5-C4-N2-C1= 16.82            O5-C4-N2-C3=168.41            C6-C4-N2-C1=188.42            C6-C4-N2-C3=340.01            
N7-C6-C4-N2=171.81            N7-C6-C4-O5=344.10            O8-N7-C6-C4=178.49            

 CMA Distance (Angstroems)
 ---------------------------
R(CMA):  3.2528
           -------------------------------------------------
          |                Final Singlepoint                |
           -------------------------------------------------

          ...................................................
          :                      SETUP                      :
          :.................................................:
          :  # basis functions                  55          :
          :  # atomic orbitals                  54          :
          :  # shells                           30          :
          :  # electrons                        58          :
          :  max. iterations                   250          :
          :  Hamiltonian                  GFN2-xTB          :
          :  restarted?                      false          :
          :  GBSA solvation                   true          :
          :  PC potential                    false          :
          :  electronic temp.          300.0000000     K    :
          :  accuracy                    1.0000000          :
          :  -> integral cutoff          0.2500000E+02      :
          :  -> integral neglect         0.1000000E-07      :
          :  -> SCF convergence          0.1000000E-05 Eh   :
          :  -> wf. convergence          0.1000000E-03 e    :
          :  Broyden damping             0.4000000          :
          :  net charge                         -1          :
          :  unpaired electrons                  0          :
          ...................................................

 iter      E             dE          RMSdq      gap      omega  full diag
   1    -33.1337505 -0.331338E+02  0.608E-05    0.98       0.0  T
   2    -33.1337505 -0.503775E-11  0.401E-05    0.98     571.9  T
   3    -33.1337505  0.155609E-11  0.252E-05    0.98     909.0  T

   *** convergence criteria satisfied after 3 iterations ***

         #    Occupation            Energy/Eh            Energy/eV
      -------------------------------------------------------------
         1        2.0000           -0.7478876             -20.3511
       ...           ...                  ...                  ...
        23        2.0000           -0.4343706             -11.8198
        24        2.0000           -0.4283128             -11.6550
        25        2.0000           -0.4243560             -11.5473
        26        2.0000           -0.4097423             -11.1497
        27        2.0000           -0.3901356             -10.6161
        28        2.0000           -0.3027885              -8.2393
        29        2.0000           -0.3000419              -8.1646 (HOMO)
        30                         -0.2640725              -7.1858 (LUMO)
        31                         -0.2282383              -6.2107
        32                         -0.1414138              -3.8481
        33                         -0.1346781              -3.6648
        34                         -0.0015339              -0.0417
       ...                                ...                  ...
        54                          1.2152439              33.0685
      -------------------------------------------------------------
                  HL-Gap            0.0359694 Eh            0.9788 eV
             Fermi-level           -0.2820315 Eh           -7.6745 eV

 SCC (total)                   0 d,  0 h,  0 min,  0.010 sec
 SCC setup                      ...        0 min,  0.000 sec (  4.356%)
 Dispersion                     ...        0 min,  0.000 sec (  3.387%)
 classical contributions        ...        0 min,  0.000 sec (  1.073%)
 integral evaluation            ...        0 min,  0.001 sec ( 13.251%)
 iterations                     ...        0 min,  0.004 sec ( 38.114%)
 molecular gradient             ...        0 min,  0.004 sec ( 36.829%)
 printout                       ...        0 min,  0.000 sec (  2.772%)

         :::::::::::::::::::::::::::::::::::::::::::::::::::::
         ::                     SUMMARY                     ::
         :::::::::::::::::::::::::::::::::::::::::::::::::::::
         :: total energy             -32.762020550378 Eh    ::
         :: total w/o Gsasa/hb       -32.763655636283 Eh    ::
         :: gradient norm              0.000416450773 Eh/a0 ::
         :: HOMO-LUMO gap              0.978777135654 eV    ::
         ::.................................................::
         :: SCC energy               -33.133620767256 Eh    ::
         :: -> isotropic ES            0.212632364433 Eh    ::
         :: -> anisotropic ES         -0.006334137994 Eh    ::
         :: -> anisotropic XC          0.019167719786 Eh    ::
         :: -> dispersion             -0.016614463796 Eh    ::
         :: -> Gsolv                  -0.104462137019 Eh    ::
         ::    -> Gelec               -0.106097222925 Eh    ::
         ::    -> Gsasa                0.003106647813 Eh    ::
         ::    -> Ghb                 -0.002552321605 Eh    ::
         ::    -> Gshift               0.001080759698 Eh    ::
         :: repulsion energy           0.371597378006 Eh    ::
         :: add. restraining           0.000002838872 Eh    ::
         :: total charge              -0.999999999333 e     ::
         :::::::::::::::::::::::::::::::::::::::::::::::::::::

========================================================================
 RELAXED SCAN
------------------------------------------------------------------------
 output written to xtbscan.log
 scaning constraint 1
... step 1 ...
      ----------------------------------------------------------- 
     |                   =====================                   |
     |                        A N C O P T                        |
     |                   =====================                   |
     |               Approximate Normal Coordinate               |
     |                Rational Function Optimizer                |
      ----------------------------------------------------------- 
 current energy:         -32.76202055
    bias energy:           0.00000283
unbiased energy:         -32.76202339
... step 2 ...
      ----------------------------------------------------------- 
     |                   =====================                   |
     |                        A N C O P T                        |
     |                   =====================                   |
     |               Approximate Normal Coordinate               |
     |                Rational Function Optimizer                |
      ----------------------------------------------------------- 
 current energy:         -32.76249946
    bias energy:           0.00000379
unbiased energy:         -32.76250324
... step 3 ...
      ----------------------------------------------------------- 
     |                   =====================                   |
     |                        A N C O P T                        |
     |                   =====================                   |
     |               Approximate Normal Coordinate               |
     |                Rational Function Optimizer                |
      ----------------------------------------------------------- 
 current energy:         -32.76303834
    bias energy:           0.00000444
unbiased energy:         -32.76304278
... step 4 ...
      ----------------------------------------------------------- 
     |                   =====================                   |
     |                        A N C O P T                        |
     |                   =====================                   |
     |               Approximate Normal Coordinate               |
     |                Rational Function Optimizer                |
      ----------------------------------------------------------- 
 current energy:         -32.76363985
    bias energy:           0.00000560
unbiased energy:         -32.76364545
... step 5 ...
      ----------------------------------------------------------- 
     |                   =====================                   |
     |                        A N C O P T                        |
     |                   =====================                   |
     |               Approximate Normal Coordinate               |
     |                Rational Function Optimizer                |
      ----------------------------------------------------------- 
 current energy:         -32.76428965
    bias energy:           0.00000625
unbiased energy:         -32.76429590
... step 6 ...
      ----------------------------------------------------------- 
     |                   =====================                   |
     |                        A N C O P T                        |
     |                   =====================                   |
     |               Approximate Normal Coordinate               |
     |                Rational Function Optimizer                |
      ----------------------------------------------------------- 
 current energy:         -32.76498438
    bias energy:           0.00000715
unbiased energy:         -32.76499154
... step 7 ...
      ----------------------------------------------------------- 
     |                   =====================                   |
     |                        A N C O P T                        |
     |                   =====================                   |
     |               Approximate Normal Coordinate               |
     |                Rational Function Optimizer                |
      ----------------------------------------------------------- 
 current energy:         -32.76569078
    bias energy:           0.00000686
unbiased energy:         -32.76569764
... step 8 ...
      ----------------------------------------------------------- 
     |                   =====================                   |
     |                        A N C O P T                        |
     |                   =====================                   |
     |               Approximate Normal Coordinate               |
     |                Rational Function Optimizer                |
      ----------------------------------------------------------- 
 current energy:         -32.76639995
    bias energy:           0.00000631
unbiased energy:         -32.76640625
... step 9 ...
      ----------------------------------------------------------- 
     |                   =====================                   |
     |                        A N C O P T                        |
     |                   =====================                   |
     |               Approximate Normal Coordinate               |
     |                Rational Function Optimizer                |
      ----------------------------------------------------------- 
 current energy:         -32.76702949
    bias energy:           0.00000423
unbiased energy:         -32.76703372
... step 10 ...
      ----------------------------------------------------------- 
     |                   =====================                   |
     |                        A N C O P T                        |
     |                   =====================                   |
     |               Approximate Normal Coordinate               |
     |                Rational Function Optimizer                |
      ----------------------------------------------------------- 
 current energy:         -32.76753986
    bias energy:           0.00000231
unbiased energy:         -32.76754218
... step 11 ...
      ----------------------------------------------------------- 
     |                   =====================                   |
     |                        A N C O P T                        |
     |                   =====================                   |
     |               Approximate Normal Coordinate               |
     |                Rational Function Optimizer                |
      ----------------------------------------------------------- 
 current energy:         -32.76783536
    bias energy:           0.00000038
unbiased energy:         -32.76783574
... step 12 ...
      ----------------------------------------------------------- 
     |                   =====================                   |
     |                        A N C O P T                        |
     |                   =====================                   |
     |               Approximate Normal Coordinate               |
     |                Rational Function Optimizer                |
      ----------------------------------------------------------- 
 current energy:         -32.76794343
    bias energy:           0.00000003
unbiased energy:         -32.76794346
... step 13 ...
      ----------------------------------------------------------- 
     |                   =====================                   |
     |                        A N C O P T                        |
     |                   =====================                   |
     |               Approximate Normal Coordinate               |
     |                Rational Function Optimizer                |
      ----------------------------------------------------------- 
 current energy:         -32.76787503
    bias energy:           0.00000002
unbiased energy:         -32.76787505
... step 14 ...
      ----------------------------------------------------------- 
     |                   =====================                   |
     |                        A N C O P T                        |
     |                   =====================                   |
     |               Approximate Normal Coordinate               |
     |                Rational Function Optimizer                |
      ----------------------------------------------------------- 
 current energy:         -32.76826663
    bias energy:           0.00000896
unbiased energy:         -32.76827559
... step 15 ...
      ----------------------------------------------------------- 
     |                   =====================                   |
     |                        A N C O P T                        |
     |                   =====================                   |
     |               Approximate Normal Coordinate               |
     |                Rational Function Optimizer                |
      ----------------------------------------------------------- 
 current energy:         -32.76943304
    bias energy:           0.00002746
unbiased energy:         -32.76946049
... step 16 ...
      ----------------------------------------------------------- 
     |                   =====================                   |
     |                        A N C O P T                        |
     |                   =====================                   |
     |               Approximate Normal Coordinate               |
     |                Rational Function Optimizer                |
      ----------------------------------------------------------- 
 current energy:         -32.77113021
    bias energy:           0.00005443
unbiased energy:         -32.77118464
... step 17 ...
      ----------------------------------------------------------- 
     |                   =====================                   |
     |                        A N C O P T                        |
     |                   =====================                   |
     |               Approximate Normal Coordinate               |
     |                Rational Function Optimizer                |
      ----------------------------------------------------------- 
 current energy:         -32.77344552
    bias energy:           0.00009236
unbiased energy:         -32.77353788
... step 18 ...
      ----------------------------------------------------------- 
     |                   =====================                   |
     |                        A N C O P T                        |
     |                   =====================                   |
     |               Approximate Normal Coordinate               |
     |                Rational Function Optimizer                |
      ----------------------------------------------------------- 
 current energy:         -32.77618784
    bias energy:           0.00011646
unbiased energy:         -32.77630430
... step 19 ...
      ----------------------------------------------------------- 
     |                   =====================                   |
     |                        A N C O P T                        |
     |                   =====================                   |
     |               Approximate Normal Coordinate               |
     |                Rational Function Optimizer                |
      ----------------------------------------------------------- 
 current energy:         -32.77920383
    bias energy:           0.00013497
unbiased energy:         -32.77933880
... step 20 ...
      ----------------------------------------------------------- 
     |                   =====================                   |
     |                        A N C O P T                        |
     |                   =====================                   |
     |               Approximate Normal Coordinate               |
     |                Rational Function Optimizer                |
      ----------------------------------------------------------- 
 current energy:         -32.78232934
    bias energy:           0.00013445
unbiased energy:         -32.78246378
... step 21 ...
      ----------------------------------------------------------- 
     |                   =====================                   |
     |                        A N C O P T                        |
     |                   =====================                   |
     |               Approximate Normal Coordinate               |
     |                Rational Function Optimizer                |
      ----------------------------------------------------------- 
 current energy:         -32.78525418
    bias energy:           0.00009991
unbiased energy:         -32.78535409
... step 22 ...
      ----------------------------------------------------------- 
     |                   =====================                   |
     |                        A N C O P T                        |
     |                   =====================                   |
     |               Approximate Normal Coordinate               |
     |                Rational Function Optimizer                |
      ----------------------------------------------------------- 
 current energy:         -32.78744566
    bias energy:           0.00003437
unbiased energy:         -32.78748003
           -------------------------------------------------
          |                Property Printout                |
           -------------------------------------------------

    * Orbital Energies and Occupations

         #    Occupation            Energy/Eh            Energy/eV
      -------------------------------------------------------------
         1        2.0000           -0.6974368             -18.9782
       ...           ...                  ...                  ...
        17        2.0000           -0.4915694             -13.3763
        18        2.0000           -0.4864439             -13.2368
        19        2.0000           -0.4777232             -12.9995
        20        2.0000           -0.4772526             -12.9867
        21        2.0000           -0.4721961             -12.8491
        22        2.0000           -0.4638839             -12.6229
        23        2.0000           -0.4596485             -12.5077
        24        2.0000           -0.4307878             -11.7223
        25        2.0000           -0.3914994             -10.6532
        26        2.0000           -0.3895413             -10.6000
        27        2.0000           -0.3696500             -10.0587
        28        2.0000           -0.3486053              -9.4860
        29        2.0000           -0.3243726              -8.8266 (HOMO)
        30                         -0.2382560              -6.4833 (LUMO)
        31                         -0.1983228              -5.3966
        32                         -0.1882444              -5.1224
        33                         -0.1236878              -3.3657
        34                          0.0016385               0.0446
        35                          0.0076610               0.2085
        36                          0.0191376               0.5208
        37                          0.0292604               0.7962
        38                          0.0653287               1.7777
        39                          0.1219585               3.3187
        40                          0.1315935               3.5808
       ...                                ...                  ...
        54                          0.6365559              17.3216
      -------------------------------------------------------------
                  HL-Gap            0.0861166 Eh            2.3434 eV
             Fermi-level           -0.2813143 Eh           -7.6550 eV

     #   Z          covCN         q      C6AA      α(0)
     1   6 C        3.704    -0.065    21.912     6.692
     2   7 N        2.733    -0.070    22.599     7.060
     3   6 C        3.698    -0.063    21.887     6.691
     4   6 C        2.792     0.260    22.626     7.792
     5   8 O        0.859    -0.557    25.078     6.714
     6   6 C        2.858     0.030    27.317     8.567
     7   7 N        1.846    -0.124    24.478     7.332
     8   8 O        0.926    -0.660    27.607     7.046
     9   1 H        0.925     0.084     1.938     2.177
    10   1 H        0.925     0.079     1.992     2.207
    11   1 H        0.925     0.079     1.990     2.206
    12   1 H        0.924     0.084     1.941     2.179
    13   1 H        0.925     0.093     1.853     2.129
    14   1 H        0.925     0.054     2.266     2.354
    15   6 C        3.745    -0.023    21.048     6.545
    16  16 S        1.958    -0.335   155.654    20.998
    17   1 H        0.925     0.034     2.525     2.485
    18   1 H        0.925     0.067     2.120     2.277
    19   1 H        0.925     0.033     2.537     2.491

 Mol. C6AA /au·bohr⁶  :       4795.576881
 Mol. C8AA /au·bohr⁸  :     123946.712144
 Mol. α(0) /au        :        105.942206


Wiberg/Mayer (AO) data.
largest (>0.10) Wiberg bond orders for each atom

 ---------------------------------------------------------------------------
     #   Z sym  total        # sym  WBO       # sym  WBO       # sym  WBO
 ---------------------------------------------------------------------------
     1   6 C    3.949 --     2 N    0.985    10 H    0.977    11 H    0.972
                             9 H    0.972
     2   7 N    3.544 --     4 C    1.318     3 C    0.995     1 C    0.985
                             5 O    0.194
     3   6 C    3.957 --     2 N    0.995    14 H    0.975    13 H    0.971
                            12 H    0.968
     4   6 C    3.955 --     5 O    1.545     2 N    1.318     6 C    0.980
     5   8 O    1.888 --     4 C    1.545     2 N    0.194
     6   6 C    3.925 --     7 N    1.781     4 C    0.980    16 S    0.826
                             8 O    0.250
     7   7 N    3.206 --     6 C    1.781     8 O    1.220    16 S    0.149
     8   8 O    1.592 --     7 N    1.220     6 C    0.250
     9   1 H    0.992 --     1 C    0.972
    10   1 H    0.994 --     1 C    0.977
    11   1 H    0.993 --     1 C    0.972
    12   1 H    0.993 --     3 C    0.968
    13   1 H    0.991 --     3 C    0.971
    14   1 H    0.997 --     3 C    0.975
    15   6 C    3.982 --    16 S    1.005    19 H    0.988    17 H    0.984
                            18 H    0.981
    16  16 S    2.126 --    15 C    1.005     6 C    0.826     7 N    0.149
    17   1 H    0.999 --    15 C    0.984
    18   1 H    0.995 --    15 C    0.981
    19   1 H    0.999 --    15 C    0.988
 ---------------------------------------------------------------------------

Topologies differ in total number of bonds
Writing topology from bond orders to xtbtopo.mol

molecular dipole:
                 x           y           z       tot (Debye)
 q only:       -7.123      -0.635       4.815
   full:       -6.727      -0.546       4.399      20.477
molecular quadrupole (traceless):
                xx          xy          yy          xz          yz          zz
 q only:      -33.100     -10.203      28.898      28.932       3.877       4.202
  q+dip:      -30.754     -11.071      27.955      24.322       6.592       2.799
   full:      -30.626     -11.686      27.600      24.114       7.202       3.025

           -------------------------------------------------
          |                Geometry Summary                 |
           -------------------------------------------------

      molecular mass/u    :      161.2021499
   center of mass at/Å    :        1.7908724      -0.6700286      -1.0441706
  moments of inertia/u·Å² :        0.2895454E+03   0.6448788E+03   0.7223272E+03
rotational constants/cm⁻¹ :        0.5822104E-01   0.2614078E-01   0.2333795E-01

 * 14 selected distances

     #   Z          #   Z                                           value/Å
     1   6 C        2   7 N                                       1.4471907 (max)
     2   7 N        3   6 C                                       1.4429229
     2   7 N        4   6 C                                       1.3367091
     4   6 C        5   8 O                                       1.2392202
     6   6 C        7   7 N                                       1.2592050
     1   6 C        9   1 H                                       1.0897909
     1   6 C       10   1 H                                       1.0878614
Note: The following floating-point exceptions are signalling: IEEE_DIVIDE_BY_ZERO IEEE_UNDERFLOW_FLAG IEEE_DENORMAL
normal termination of xtb
     1   6 C       11   1 H                                       1.0900705
     3   6 C       12   1 H                                       1.0916673
     3   6 C       13   1 H                                       1.0892977
     3   6 C       14   1 H                                       1.0877354
    15   6 C       17   1 H                                       1.0877953
    15   6 C       18   1 H                                       1.0839164 (min)
    15   6 C       19   1 H                                       1.0870218

 * 3 distinct bonds (by element types)

   Z      Z             #   av. dist./Å        max./Å        min./Å
   1 H    6 C           9     1.0883507     1.0916673     1.0839164
   6 C    7 N           4     1.3715070     1.4471907     1.2592050
   6 C    8 O           1     1.2392202     1.2392202     1.2392202


optimized geometry written to: xtbopt.xyz


           -------------------------------------------------
          | TOTAL ENERGY              -32.762020550378 Eh   |
          | GRADIENT NORM               0.000416450773 Eh/α |
          | HOMO-LUMO GAP               2.343352942802 eV   |
           -------------------------------------------------

------------------------------------------------------------------------
 * finished run on 2026/08/28 at 23:26:01.341     
------------------------------------------------------------------------
 total:
 * wall-time:     0 d,  0 h,  0 min,  6.810 sec
 *  cpu-time:     0 d,  0 h,  0 min, 42.172 sec
 * ratio c/w:     6.193 speedup
 SCF:
 * wall-time:     0 d,  0 h,  0 min,  0.038 sec
 *  cpu-time:     0 d,  0 h,  0 min,  0.266 sec
 * ratio c/w:     6.986 speedup
 ANC optimizer:
 * wall-time:     0 d,  0 h,  0 min,  6.746 sec
 *  cpu-time:     0 d,  0 h,  0 min, 41.859 sec
 * ratio c/w:     6.205 speedup

