      -----------------------------------------------------------      
     |                   =====================                   |     
     |                           x T B                           |     
     |                   =====================                   |     
     |                         S. Grimme                         |     
     |          Mulliken Center for Theoretical Chemistry        |     
     |                    University of Bonn                     |     
      -----------------------------------------------------------      

   * xtb version 6.7.1 (edcfbbe) compiled by 'VssAdministrator@runnervm171ch' on 2026-06-10

   xtb is free software: you can redistribute it and/or modify it under
   the terms of the GNU Lesser General Public License as published by
   the Free Software Foundation, either version 3 of the License, or
   (at your option) any later version.
   
   xtb is distributed in the hope that it will be useful,
   but WITHOUT ANY WARRANTY; without even the implied warranty of
   MERCHANTABILITY or FITNESS FOR A PARTICULAR PURPOSE.  See the
   GNU Lesser General Public License for more details.
   
   Cite this work as:
   * C. Bannwarth, E. Caldeweyher, S. Ehlert, A. Hansen, P. Pracht,
     J. Seibert, S. Spicher, S. Grimme, WIREs Comput. Mol. Sci., 2020, 11,
     e01493. DOI: 10.1002/wcms.1493
   
   for GFN2-xTB:
   * C. Bannwarth, S. Ehlert and S. Grimme., J. Chem. Theory Comput., 2019,
     15, 1652-1671. DOI: 10.1021/acs.jctc.8b01176
   for GFN1-xTB:
   * S. Grimme, C. Bannwarth, P. Shushkov, J. Chem. Theory Comput., 2017,
     13, 1989-2009. DOI: 10.1021/acs.jctc.7b00118
   for GFN0-xTB:
   * P. Pracht, E. Caldeweyher, S. Ehlert, S. Grimme, ChemRxiv, 2019, preprint.
     DOI: 10.26434/chemrxiv.8326202.v1
   for GFN-FF:
   * S. Spicher and S. Grimme, Angew. Chem. Int. Ed., 2020, 59, 15665-15673.
     DOI: 10.1002/anie.202004239
   
   for ALPB and GBSA implicit solvation:
   * S. Ehlert, M. Stahn, S. Spicher, S. Grimme, J. Chem. Theory Comput.,
     2021, 17, 4250-4261. DOI: 10.1021/acs.jctc.1c00471
   
   for ddCOSMO and CPCM-X implicit solvation:
   * M. Stahn, S. Ehlert, S. Grimme, J. Phys. Chem. A,
     2023, XX, XXXX-XXXX. DOI: 10.1021/acs.jpca.3c04382
   
   for DFT-D4:
   * E. Caldeweyher, C. Bannwarth and S. Grimme, J. Chem. Phys., 2017,
     147, 034112. DOI: 10.1063/1.4993215
   * E. Caldeweyher, S. Ehlert, A. Hansen, H. Neugebauer, S. Spicher,
     C. Bannwarth and S. Grimme, J. Chem. Phys., 2019, 150, 154122.
     DOI: 10.1063/1.5090222
   * E. Caldeweyher, J.-M. Mewes, S. Ehlert and S. Grimme, Phys. Chem. Chem. Phys.
     2020, 22, 8499-8512. DOI: 10.1039/D0CP00502A
   
   for sTDA-xTB:
   * S. Grimme and C. Bannwarth, J. Chem. Phys., 2016, 145, 054103.
     DOI: 10.1063/1.4959605
   
   in the mass-spec context:
   * V. Asgeirsson, C. Bauer and S. Grimme, Chem. Sci., 2017, 8, 4879.
     DOI: 10.1039/c7sc00601b
   * J. Koopman and S. Grimme, ACS Omega 2019, 4, 12, 15120-15133.
     DOI: 10.1021/acsomega.9b02011
   
   for metadynamics refer to:
   * S. Grimme, J. Chem. Theory Comput., 2019, 155, 2847-2862
     DOI: 10.1021/acs.jctc.9b00143
   
   for SPH calculations refer to:
   * S. Spicher and S. Grimme, J. Chem. Theory Comput., 2021, 17, 1701-1714
     DOI: 10.1021/acs.jctc.0c01306
   
   for ONIOM refer to:
   * C. Plett, A. Katbashev, S. Ehlert, S. Grimme, M. Bursch,
     Phys. Chem. Chem. Phys., 2023, 25, 17860-17868. DOI: 10.1039/D3CP02178E
   
   for DIPRO refer to:
   * J. Kohn, N. Gildemeister, S. Grimme, D. Fazzi, A. Hansen,
     J. Chem. Phys., 2023, just accepted.
   
   for PTB refer to:
   * S. Grimme, M. Mueller, A. Hansen, J. Chem. Phys., 2023, 158, 124111.
     DOI: 10.1063/5.0137838
   
   with help from (in alphabetical order)
   P. Atkinson, C. Bannwarth, F. Bohle, G. Brandenburg, E. Caldeweyher
   M. Checinski, S. Dohm, S. Ehlert, S. Ehrlich, I. Gerasimov, C. Hölzer
   A. Katbashev, J. Kohn, J. Koopman, C. Lavigne, S. Lehtola, F. März, M. Müller,
   F. Musil, H. Neugebauer, J. Pisarek, C. Plett, P. Pracht, F. Pultar,
   J. Seibert, P. Shushkov, S. Spicher, M. Stahn, M. Steiner, T. Strunk,
   J. Stückrath, T. Rose, and J. Unsleber
   
 * started run on 2026/08/28 at 23:25:47.727     
   ID    Z sym.   atoms
    1    6 C      1, 3, 4, 6, 15
    2    7 N      2, 7
    3    8 O      5, 8
    4    1 H      9-14, 17-19
    5   34 Se     16
constraining bond 6 16 to    3.6000008 Å, actual value:    3.6000008 Å

           -------------------------------------------------
          |                Calculation Setup                |
           -------------------------------------------------

          program call               : C:\Users\Christian\Miniconda3\Library\bin\xtb.exe cx_Se.xyz --gfn 2 --alpb water --chrg -1 --input scan_Se.inp --opt tight
          coordinate file            : cx_Se.xyz
          omp threads                :                    12


molecular fragmentation (1/2 indicates fragments):
1111111111111122222
# atoms in fragment 1/2:    14     5
 fragment masses (1/2) :      114.10       93.99
CMA distance (Bohr)    :   8.662
constraining FC (au)   :  0.7500

           -------------------------------------------------
          |                 G F N 2 - x T B                 |
           -------------------------------------------------

        Reference                      10.1021/acs.jctc.8b01176
      * Hamiltonian:
        H0-scaling (s, p, d)           1.850000    2.230000    2.230000
        zeta-weighting                 0.500000
      * Dispersion:
        s8                             2.700000
        a1                             0.520000
        a2                             5.000000
        s9                             5.000000
      * Repulsion:
        kExp                           1.500000    1.000000
        rExp                           1.000000
      * Coulomb:
        alpha                          2.000000
        third order                    shell-resolved
        anisotropic                    true
        a3                             3.000000
        a5                             4.000000
        cn-shift                       1.200000
        cn-exp                         4.000000
        max-rad                        5.000000

      * Solvation model:               ALPB
        Solvent                        water
        Parameter file                 internal GFN2-xTB/ALPB
        Dielectric constant                8.0200E+01
        Reference state                gsolv [1 M gas/solution]
        Free energy shift                  1.0808E-03 Eh       6.7819E-01 kcal/mol
        Temperature                        2.9815E+02 K
        Density                            1.0000E+00 kg/L
        Solvent mass                       1.8000E+01 g/mol
        Interaction kernel             P16
        Born radius scaling (c1)           1.4744E+00
        Born radii integrator          GBOBC
        Born offset                        0.0000E+00 a0       0.0000E+00 AA
        H-bond correction              true
        Ion screening                  false
        Surface tension                    1.0000E-05 Eh       1.5569E+01 dyn/cm
        Grid points                               230 per atom
q/qsh data taken from xtbrestart
CAMM data taken from xtbrestart

          ...................................................
          :                      SETUP                      :
          :.................................................:
          :  # basis functions                  55          :
          :  # atomic orbitals                  54          :
          :  # shells                           30          :
          :  # electrons                        58          :
          :  max. iterations                   250          :
          :  Hamiltonian                  GFN2-xTB          :
          :  restarted?                       true          :
          :  GBSA solvation                   true          :
          :  PC potential                    false          :
          :  electronic temp.          300.0000000     K    :
          :  accuracy                    1.0000000          :
          :  -> integral cutoff          0.2500000E+02      :
          :  -> integral neglect         0.1000000E-07      :
          :  -> SCF convergence          0.1000000E-05 Eh   :
          :  -> wf. convergence          0.1000000E-03 e    :
          :  Broyden damping             0.4000000          :
          :  net charge                         -1          :
          :  unpaired electrons                  0          :
          ...................................................

 iter      E             dE          RMSdq      gap      omega  full diag
   1    -32.6562957 -0.326563E+02  0.555E+00    1.94       0.0  T
   2    -32.1759410  0.480355E+00  0.594E+00    2.00       1.0  T
   3    -32.7214296 -0.545489E+00  0.312E+00    1.06       1.0  T
   4    -32.8050517 -0.836221E-01  0.122E+00    0.76       1.0  T
   5    -32.8118583 -0.680654E-02  0.560E-01    0.90       1.0  T
   6    -32.8140138 -0.215556E-02  0.170E-01    1.04       1.0  T
   7    -32.8140166 -0.274131E-05  0.105E-01    1.10       1.0  T
   8    -32.8141666 -0.150013E-03  0.337E-02    1.12       1.0  T
   9    -32.8141738 -0.726781E-05  0.873E-03    1.13       2.6  T
  10    -32.8141743 -0.441335E-06  0.371E-03    1.13       6.2  T
  11    -32.8141744 -0.692630E-07  0.187E-03    1.13      12.3  T
  12    -32.8141744 -0.103966E-07  0.122E-03    1.13      18.9  T
  13    -32.8141743  0.152914E-07  0.103E-03    1.12      22.2  T
  14    -32.8141744 -0.173195E-07  0.165E-04    1.12     139.3  T
  15    -32.8141744  0.117716E-09  0.120E-04    1.12     191.0  T

   *** convergence criteria satisfied after 15 iterations ***

         #    Occupation            Energy/Eh            Energy/eV
      -------------------------------------------------------------
         1        2.0000           -0.7260465             -19.7567
       ...           ...                  ...                  ...
        23        2.0000           -0.4635410             -12.6136
        24        2.0000           -0.4369033             -11.8887
        25        2.0000           -0.4285357             -11.6610
        26        2.0000           -0.4183788             -11.3847
        27        2.0000           -0.4029758             -10.9655
        28        2.0000           -0.3911223             -10.6430
        29        2.0000           -0.3880390             -10.5591 (HOMO)
        30                         -0.3467043              -9.4343 (LUMO)
        31                         -0.3266429              -8.8884
        32                         -0.2631304              -7.1601
        33                         -0.2039672              -5.5502
        34                         -0.1774889              -4.8297
       ...                                ...                  ...
        54                          0.5513393              15.0027
      -------------------------------------------------------------
                  HL-Gap            0.0413346 Eh            1.1248 eV
             Fermi-level           -0.3673535 Eh           -9.9962 eV

 SCC (total)                   0 d,  0 h,  0 min,  0.032 sec
 SCC setup                      ...        0 min,  0.001 sec (  1.683%)
 Dispersion                     ...        0 min,  0.000 sec (  1.166%)
 classical contributions        ...        0 min,  0.000 sec (  0.337%)
 integral evaluation            ...        0 min,  0.010 sec ( 31.023%)
 iterations                     ...        0 min,  0.017 sec ( 53.138%)
 molecular gradient             ...        0 min,  0.004 sec ( 11.526%)
 printout                       ...        0 min,  0.000 sec (  1.049%)

         :::::::::::::::::::::::::::::::::::::::::::::::::::::
         ::                     SUMMARY                     ::
         :::::::::::::::::::::::::::::::::::::::::::::::::::::
         :: total energy             -32.560951665479 Eh    ::
         :: total w/o Gsasa/hb       -32.554051121553 Eh    ::
         :: gradient norm              0.323334959587 Eh/a0 ::
         :: HOMO-LUMO gap              1.124772869149 eV    ::
         ::.................................................::
         :: SCC energy               -32.814199300612 Eh    ::
         :: -> isotropic ES            0.228922001589 Eh    ::
         :: -> anisotropic ES         -0.001996779084 Eh    ::
         :: -> anisotropic XC          0.025960745844 Eh    ::
         :: -> dispersion             -0.012558500001 Eh    ::
         :: -> Gsolv                  -0.157302343341 Eh    ::
         ::    -> Gelec               -0.150401799416 Eh    ::
         ::    -> Gsasa                0.002084946048 Eh    ::
         ::    -> Ghb                 -0.010066249671 Eh    ::
         ::    -> Gshift               0.001080759698 Eh    ::
         :: repulsion energy           0.253247635133 Eh    ::
         :: add. restraining           0.000000000000 Eh    ::
         :: total charge              -0.999999999972 e     ::
         :::::::::::::::::::::::::::::::::::::::::::::::::::::

      ----------------------------------------------------------- 
     |                   =====================                   |
     |                        A N C O P T                        |
     |                   =====================                   |
     |               Approximate Normal Coordinate               |
     |                Rational Function Optimizer                |
      ----------------------------------------------------------- 
      ----------------------------------------------------------- 
     |                   =====================                   |
     |                        A N C O P T                        |
     |                   =====================                   |
     |               Approximate Normal Coordinate               |
     |                Rational Function Optimizer                |
      ----------------------------------------------------------- 

          ...................................................
          :                      SETUP                      :
          :.................................................:
          :   optimization level             tight          :
          :   max. optcycles                   200          :
          :   ANC micro-cycles                  20          :
          :   degrees of freedom                51          :
          :.................................................:
          :   RF solver                   davidson          :
          :   write xtbopt.log                true          :
          :   linear?                        false          :
          :   energy convergence         0.1000000E-05 Eh   :
          :   grad. convergence          0.8000000E-03 Eh/α :
          :   maxmium RF displ.          1.0000000          :
          :   Hlow (freq-cutoff)         0.1000000E-01      :
          :   Hmax (freq-cutoff)         5.0000000          :
          :   S6 in model hess.         20.0000000          :
          ...................................................

generating ANC from exact Hessian ...
Using Lindh-Hessian (1995)
 Shifting diagonal of input Hessian by    1.0192412444400502E-002
 Lowest  eigenvalues of input Hessian
    0.010000    0.000000    0.000000    0.000000    0.000000    0.000000
    0.000000    0.010363    0.010441    0.010559    0.010821    0.011090
    0.011331    0.014130    0.018365    0.020069    0.021386    0.022665
 Highest eigenvalues
    1.184609    1.478072    1.584261    1.861792    2.216110    3.258455


........................................................................
.............................. CYCLE    1 ..............................
........................................................................

 iter      E             dE          RMSdq      gap      omega  full diag
   1    -32.8141744 -0.328142E+02  0.338E-05    1.12       0.0  T
   2    -32.8141744  0.111775E-09  0.739E-05    1.12     310.5  T
   3    -32.8141744 -0.123634E-09  0.154E-05    1.12    1494.4  T
     SCC iter.                  ...        0 min,  0.003 sec
     gradient                   ...        0 min,  0.004 sec
 * total energy  :   -32.5609517 Eh     change       -0.2336833E-09 Eh
   gradient norm :     0.3233347 Eh/α   predicted     0.0000000E+00 (-100.00%)
   displ. norm   :     0.5214696 α      lambda       -0.1381568E+00
   maximum displ.:     0.2357422 α      in ANC's #30, #31, #36, ...

........................................................................
.............................. CYCLE    2 ..............................
........................................................................

 iter      E             dE          RMSdq      gap      omega  full diag
   1    -32.9619705 -0.329620E+02  0.109E+00    2.38       0.0  T
   2    -32.9475244  0.144461E-01  0.128E+00    2.40       1.0  T
   3    -32.9774693 -0.299449E-01  0.305E-01    2.26       1.0  T
   4    -32.9779978 -0.528513E-03  0.177E-01    2.27       1.0  T
   5    -32.9781394 -0.141513E-03  0.430E-02    2.24       1.0  T
   6    -32.9781432 -0.384106E-05  0.181E-02    2.24       1.3  T
   7    -32.9781437 -0.509477E-06  0.756E-03    2.24       3.0  T
   8    -32.9781439 -0.217798E-06  0.316E-03    2.24       7.3  T
   9    -32.9781440 -0.397885E-07  0.172E-03    2.24      13.3  T
  10    -32.9781440 -0.486950E-08  0.789E-04    2.24      29.1  T
  11    -32.9781440 -0.270902E-09  0.521E-04    2.24      44.0  T
     SCC iter.                  ...        0 min,  0.011 sec
     gradient                   ...        0 min,  0.003 sec
 * total energy  :   -32.6842882 Eh     change       -0.1233365E+00 Eh
   gradient norm :     0.2074607 Eh/α   predicted    -0.8786751E-01 ( -28.76%)
   displ. norm   :     0.6451982 α      lambda       -0.1167348E+00
   maximum displ.:     0.3036919 α      in ANC's #30, #36, #39, ...

........................................................................
.............................. CYCLE    3 ..............................
........................................................................

 iter      E             dE          RMSdq      gap      omega  full diag
   1    -33.1563922 -0.331564E+02  0.144E+00    3.81       0.0  T
   2    -33.1660139 -0.962170E-02  0.721E-01    3.89       1.0  T
   3    -33.1684121 -0.239820E-02  0.430E-01    3.83       1.0  T
   4    -33.1689006 -0.488515E-03  0.148E-01    3.84       1.0  T
   5    -33.1689526 -0.520404E-04  0.425E-02    3.82       1.0  T
   6    -33.1689548 -0.215643E-05  0.194E-02    3.82       1.2  T
   7    -33.1689556 -0.771084E-06  0.617E-03    3.82       3.7  T
   8    -33.1689556 -0.738303E-07  0.286E-03    3.82       8.0  T
   9    -33.1689557 -0.179803E-07  0.138E-03    3.82      16.6  T
  10    -33.1689557 -0.566362E-08  0.636E-04    3.82      36.1  T
  11    -33.1689557 -0.607265E-09  0.340E-04    3.82      67.5  T
     SCC iter.                  ...        0 min,  0.009 sec
     gradient                   ...        0 min,  0.003 sec
 * total energy  :   -32.6594676 Eh     change        0.2482053E-01 Eh
   gradient norm :     0.7587280 Eh/α   predicted    -0.8266538E-01 (-433.05%)
   displ. norm   :     0.2817954 α      lambda       -0.1844137E+00
   maximum displ.:     0.1240646 α      in ANC's #36, #39, #49, ...

........................................................................
.............................. CYCLE    4 ..............................
........................................................................

 iter      E             dE          RMSdq      gap      omega  full diag
   1    -33.0692874 -0.330693E+02  0.829E-01    3.23       0.0  T
   2    -33.0720997 -0.281235E-02  0.612E-01    3.33       1.0  T
   3    -33.0763556 -0.425582E-02  0.279E-01    3.30       1.0  T
   4    -33.0768019 -0.446392E-03  0.143E-01    3.31       1.0  T
   5    -33.0768325 -0.306002E-04  0.229E-02    3.31       1.0  T
   6    -33.0768351 -0.253477E-05  0.128E-02    3.31       1.8  T
   7    -33.0768354 -0.320070E-06  0.220E-03    3.31      10.4  T
   8    -33.0768354 -0.115347E-07  0.120E-03    3.31      19.0  T
   9    -33.0768354 -0.339335E-08  0.379E-04    3.30      60.5  T
  10    -33.0768354 -0.211919E-09  0.881E-05    3.30     260.4  T
     SCC iter.                  ...        0 min,  0.008 sec
     gradient                   ...        0 min,  0.003 sec
 * total energy  :   -32.7223728 Eh     change       -0.6290513E-01 Eh
   gradient norm :     0.1387235 Eh/α   predicted    -0.9952920E-01 (  58.22%)
   displ. norm   :     0.2621909 α      lambda       -0.1071398E-01
   maximum displ.:     0.1794721 α      in ANC's #17, #12, #13, ...

........................................................................
.............................. CYCLE    5 ..............................
........................................................................

 iter      E             dE          RMSdq      gap      omega  full diag
   1    -33.0785499 -0.330785E+02  0.651E-01    3.12       0.0  T
   2    -33.0781299  0.420008E-03  0.730E-01    3.03       1.0  T
   3    -33.0864386 -0.830867E-02  0.128E-01    3.08       1.0  T
   4    -33.0864404 -0.178537E-05  0.523E-02    3.09       1.0  T
   5    -33.0864574 -0.169933E-04  0.220E-02    3.10       1.0  T
   6    -33.0864591 -0.174704E-05  0.895E-03    3.10       2.6  T
   7    -33.0864593 -0.123827E-06  0.439E-03    3.10       5.2  T
   8    -33.0864593 -0.797494E-07  0.185E-03    3.10      12.4  T
   9    -33.0864593 -0.291995E-08  0.984E-04    3.10      23.3  T
  10    -33.0864593 -0.396860E-08  0.540E-04    3.10      42.5  T
     SCC iter.                  ...        0 min,  0.008 sec
     gradient                   ...        0 min,  0.003 sec
 * total energy  :   -32.7272250 Eh     change       -0.4852254E-02 Eh
   gradient norm :     0.0483311 Eh/α   predicted    -0.5725280E-02 (  17.99%)
   displ. norm   :     0.2382423 α      lambda       -0.3889209E-02
   maximum displ.:     0.1404793 α      in ANC's #17, #1, #13, ...

........................................................................
.............................. CYCLE    6 ..............................
........................................................................

 iter      E             dE          RMSdq      gap      omega  full diag
   1    -33.1028807 -0.331029E+02  0.304E-01    3.25       0.0  T
   2    -33.1029732 -0.925374E-04  0.238E-01    3.28       1.0  T
   3    -33.1037307 -0.757486E-03  0.941E-02    3.26       1.0  T
   4    -33.1037561 -0.254170E-04  0.215E-02    3.26       1.1  T
   5    -33.1037582 -0.200408E-05  0.920E-03    3.26       2.5  T
   6    -33.1037583 -0.163455E-06  0.402E-03    3.26       5.7  T
   7    -33.1037583 -0.285618E-07  0.133E-03    3.26      17.3  T
   8    -33.1037583 -0.317635E-08  0.664E-04    3.26      34.6  T
   9    -33.1037583 -0.747733E-09  0.383E-04    3.26      60.0  T
     SCC iter.                  ...        0 min,  0.008 sec
     gradient                   ...        0 min,  0.004 sec
 * total energy  :   -32.7294277 Eh     change       -0.2202658E-02 Eh
   gradient norm :     0.0131619 Eh/α   predicted    -0.2055010E-02 (  -6.70%)
   displ. norm   :     0.3455723 α      lambda       -0.1803236E-02
   maximum displ.:     0.2467807 α      in ANC's #1, #4, #6, ...

........................................................................
.............................. CYCLE    7 ..............................
........................................................................

 iter      E             dE          RMSdq      gap      omega  full diag
   1    -33.1130637 -0.331131E+02  0.286E-01    3.34       0.0  T
   2    -33.1131241 -0.604669E-04  0.184E-01    3.35       1.0  T
   3    -33.1132485 -0.124367E-03  0.116E-01    3.33       1.0  T
   4    -33.1133423 -0.937930E-04  0.142E-02    3.34       1.6  T
   5    -33.1133433 -0.102314E-05  0.607E-03    3.34       3.8  T
   6    -33.1133434 -0.399308E-07  0.235E-03    3.34       9.8  T
   7    -33.1133434 -0.926348E-08  0.727E-04    3.34      31.6  T
   8    -33.1133434 -0.885493E-09  0.329E-04    3.34      69.7  T
     SCC iter.                  ...        0 min,  0.007 sec
     gradient                   ...        0 min,  0.003 sec
 * total energy  :   -32.7289889 Eh     change        0.4388152E-03 Eh
   gradient norm :     0.0239610 Eh/α   predicted    -0.1009298E-02 (-330.01%)
   displ. norm   :     0.1992207 α      lambda       -0.1933668E-02
   maximum displ.:     0.1478485 α      in ANC's #1, #4, #2, ...

........................................................................
.............................. CYCLE    8 ..............................
........................................................................

 iter      E             dE          RMSdq      gap      omega  full diag
   1    -33.1108414 -0.331108E+02  0.166E-01    3.35       0.0  T
   2    -33.1108539 -0.124430E-04  0.982E-02    3.35       1.0  T
   3    -33.1108303  0.235725E-04  0.701E-02    3.35       1.0  T
   4    -33.1108869 -0.565515E-04  0.727E-03    3.35       3.2  T
   5    -33.1108870 -0.116714E-06  0.365E-03    3.35       6.3  T
   6    -33.1108870 -0.110368E-07  0.137E-03    3.35      16.7  T
   7    -33.1108870 -0.415708E-08  0.598E-04    3.35      38.4  T
   8    -33.1108870 -0.596685E-09  0.381E-04    3.35      60.3  T
     SCC iter.                  ...        0 min,  0.008 sec
     gradient                   ...        0 min,  0.004 sec
 * total energy  :   -32.7302345 Eh     change       -0.1245619E-02 Eh
   gradient norm :     0.0108800 Eh/α   predicted    -0.1005208E-02 ( -19.30%)
   displ. norm   :     0.2383854 α      lambda       -0.6829260E-03
   maximum displ.:     0.1321699 α      in ANC's #2, #8, #6, ...

........................................................................
.............................. CYCLE    9 ..............................
........................................................................

 iter      E             dE          RMSdq      gap      omega  full diag
   1    -33.1054700 -0.331055E+02  0.176E-01    3.28       0.0  T
   2    -33.1054803 -0.102769E-04  0.104E-01    3.28       1.0  T
   3    -33.1054364  0.439324E-04  0.725E-02    3.29       1.0  T
   4    -33.1055071 -0.707306E-04  0.810E-03    3.29       2.8  T
   5    -33.1055073 -0.189312E-06  0.396E-03    3.29       5.8  T
   6    -33.1055073 -0.125431E-07  0.120E-03    3.29      19.2  T
   7    -33.1055073 -0.400951E-08  0.526E-04    3.29      43.6  T
   8    -33.1055073 -0.240583E-09  0.283E-04    3.29      81.1  T
     SCC iter.                  ...        0 min,  0.009 sec
     gradient                   ...        0 min,  0.003 sec
 * total energy  :   -32.7306581 Eh     change       -0.4235649E-03 Eh
   gradient norm :     0.0140879 Eh/α   predicted    -0.3608690E-03 ( -14.80%)
   displ. norm   :     0.3063156 α      lambda       -0.5975306E-03
   maximum displ.:     0.1692919 α      in ANC's #2, #6, #8, ...

........................................................................
.............................. CYCLE   10 ..............................
........................................................................

 iter      E             dE          RMSdq      gap      omega  full diag
   1    -33.1036732 -0.331037E+02  0.231E-01    3.28       0.0  T
   2    -33.1036837 -0.105004E-04  0.128E-01    3.28       1.0  T
   3    -33.1036570  0.267814E-04  0.461E-02    3.28       1.0  T
   4    -33.1036911 -0.341206E-04  0.919E-03    3.28       2.5  T
   5    -33.1036913 -0.212604E-06  0.346E-03    3.28       6.6  T
   6    -33.1036913 -0.140164E-07  0.947E-04    3.28      24.2  T
   7    -33.1036913 -0.225337E-08  0.288E-04    3.28      79.6  T
     SCC iter.                  ...        0 min,  0.007 sec
     gradient                   ...        0 min,  0.003 sec
 * total energy  :   -32.7310575 Eh     change       -0.3994299E-03 Eh
   gradient norm :     0.0225506 Eh/α   predicted    -0.3267991E-03 ( -18.18%)
   displ. norm   :     0.3923645 α      lambda       -0.7902610E-03
   maximum displ.:     0.2097703 α      in ANC's #2, #6, #8, ...

........................................................................
.............................. CYCLE   11 ..............................
........................................................................

 iter      E             dE          RMSdq      gap      omega  full diag
   1    -33.1008500 -0.331009E+02  0.304E-01    3.30       0.0  T
   2    -33.1008708 -0.207533E-04  0.193E-01    3.32       1.0  T
   3    -33.1009116 -0.407941E-04  0.130E-01    3.30       1.0  T
   4    -33.1010729 -0.161322E-03  0.133E-02    3.31       1.7  T
   5    -33.1010733 -0.350251E-06  0.582E-03    3.31       3.9  T
   6    -33.1010733 -0.241220E-07  0.215E-03    3.31      10.7  T
   7    -33.1010733 -0.674214E-08  0.104E-03    3.31      22.0  T
   8    -33.1010733 -0.108678E-08  0.583E-04    3.31      39.4  T
   9    -33.1010733 -0.543565E-09  0.237E-04    3.31      96.8  T
     SCC iter.                  ...        0 min,  0.008 sec
     gradient                   ...        0 min,  0.003 sec
 * total energy  :   -32.7315694 Eh     change       -0.5119367E-03 Eh
   gradient norm :     0.0328750 Eh/α   predicted    -0.4559590E-03 ( -10.93%)
   displ. norm   :     0.2522997 α      lambda       -0.8634050E-03
   maximum displ.:     0.1181955 α      in ANC's #2, #3, #11, ...

........................................................................
.............................. CYCLE   12 ..............................
........................................................................

 iter      E             dE          RMSdq      gap      omega  full diag
   1    -33.1078949 -0.331079E+02  0.176E-01    3.38       0.0  T
   2    -33.1079108 -0.159212E-04  0.104E-01    3.38       1.0  T
   3    -33.1078771  0.336944E-04  0.714E-02    3.38       1.0  T
   4    -33.1079386 -0.614611E-04  0.107E-02    3.38       2.1  T
   5    -33.1079392 -0.550281E-06  0.556E-03    3.38       4.1  T
   6    -33.1079392 -0.202036E-07  0.260E-03    3.38       8.8  T
   7    -33.1079392 -0.100877E-07  0.127E-03    3.38      18.0  T
   8    -33.1079392 -0.155995E-08  0.477E-04    3.38      48.1  T
   9    -33.1079392 -0.789214E-09  0.175E-04    3.38     130.8  T
     SCC iter.                  ...        0 min,  0.008 sec
     gradient                   ...        0 min,  0.003 sec
 * total energy  :   -32.7320322 Eh     change       -0.4628062E-03 Eh
   gradient norm :     0.0093226 Eh/α   predicted    -0.4591821E-03 (  -0.78%)
   displ. norm   :     0.4344573 α      lambda       -0.5759118E-03
   maximum displ.:     0.2276680 α      in ANC's #2, #6, #12, ...

........................................................................
.............................. CYCLE   13 ..............................
........................................................................

 iter      E             dE          RMSdq      gap      omega  full diag
   1    -33.1050482 -0.331050E+02  0.275E-01    3.38       0.0  T
   2    -33.1050700 -0.217799E-04  0.156E-01    3.38       1.0  T
   3    -33.1049513  0.118611E-03  0.101E-01    3.37       1.0  T
   4    -33.1051047 -0.153349E-03  0.156E-02    3.38       1.5  T
   5    -33.1051049 -0.234110E-06  0.795E-03    3.38       2.9  T
   6    -33.1051050 -0.531609E-07  0.273E-03    3.38       8.4  T
   7    -33.1051050 -0.886217E-08  0.148E-03    3.38      15.6  T
   8    -33.1051050 -0.240727E-08  0.691E-04    3.38      33.2  T
   9    -33.1051050 -0.105491E-08  0.362E-04    3.38      63.3  T
     SCC iter.                  ...        0 min,  0.007 sec
     gradient                   ...        0 min,  0.003 sec
 * total energy  :   -32.7322792 Eh     change       -0.2469625E-03 Eh
   gradient norm :     0.0271384 Eh/α   predicted    -0.3423071E-03 (  38.61%)
   displ. norm   :     0.1197811 α      lambda       -0.4076732E-03
   maximum displ.:     0.0625568 α      in ANC's #8, #2, #12, ...

........................................................................
.............................. CYCLE   14 ..............................
........................................................................

 iter      E             dE          RMSdq      gap      omega  full diag
   1    -33.1074257 -0.331074E+02  0.969E-02    3.39       0.0  T
   2    -33.1074294 -0.371912E-05  0.564E-02    3.39       1.0  T
   3    -33.1074164  0.130504E-04  0.355E-02    3.39       1.0  T
   4    -33.1074335 -0.171684E-04  0.832E-03    3.39       2.8  T
   5    -33.1074337 -0.147299E-06  0.561E-03    3.39       4.1  T
   6    -33.1074337 -0.394873E-07  0.252E-03    3.39       9.1  T
   7    -33.1074337 -0.108223E-07  0.114E-03    3.39      20.1  T
   8    -33.1074337 -0.230726E-08  0.497E-04    3.39      46.2  T
   9    -33.1074337 -0.421480E-09  0.129E-04    3.39     178.0  T
     SCC iter.                  ...        0 min,  0.008 sec
     gradient                   ...        0 min,  0.003 sec
 * total energy  :   -32.7325029 Eh     change       -0.2236798E-03 Eh
   gradient norm :     0.0099395 Eh/α   predicted    -0.2067697E-03 (  -7.56%)
   displ. norm   :     0.1594294 α      lambda       -0.2701537E-03
   maximum displ.:     0.0750436 α      in ANC's #6, #9, #2, ...

........................................................................
.............................. CYCLE   15 ..............................
........................................................................

 iter      E             dE          RMSdq      gap      omega  full diag
   1    -33.1117180 -0.331117E+02  0.105E-01    3.44       0.0  T
   2    -33.1117258 -0.785249E-05  0.718E-02    3.44       1.0  T
   3    -33.1117672 -0.413880E-04  0.401E-02    3.44       1.0  T
   4    -33.1117751 -0.787630E-05  0.721E-03    3.44       3.2  T
   5    -33.1117752 -0.125965E-06  0.373E-03    3.44       6.1  T
   6    -33.1117752 -0.112473E-07  0.164E-03    3.44      14.0  T
   7    -33.1117752 -0.749492E-08  0.935E-04    3.44      24.5  T
   8    -33.1117752 -0.133338E-08  0.362E-04    3.44      63.3  T
     SCC iter.                  ...        0 min,  0.008 sec
     gradient                   ...        0 min,  0.003 sec
 * total energy  :   -32.7326330 Eh     change       -0.1300991E-03 Eh
   gradient norm :     0.0089850 Eh/α   predicted    -0.1385130E-03 (   6.47%)
   displ. norm   :     0.3699563 α      lambda       -0.2549473E-03
   maximum displ.:     0.1812851 α      in ANC's #2, #8, #6, ...

........................................................................
.............................. CYCLE   16 ..............................
........................................................................

 iter      E             dE          RMSdq      gap      omega  full diag
   1    -33.1057301 -0.331057E+02  0.221E-01    3.42       0.0  T
   2    -33.1057508 -0.206585E-04  0.136E-01    3.43       1.0  T
   3    -33.1057400  0.107866E-04  0.949E-02    3.41       1.0  T
   4    -33.1058357 -0.956935E-04  0.177E-02    3.42       1.3  T
   5    -33.1058359 -0.194107E-06  0.991E-03    3.42       2.3  T
   6    -33.1058360 -0.859018E-07  0.423E-03    3.42       5.4  T
   7    -33.1058360 -0.325433E-07  0.224E-03    3.42      10.2  T
   8    -33.1058360 -0.851291E-08  0.694E-04    3.42      33.0  T
   9    -33.1058360 -0.858357E-09  0.322E-04    3.42      71.2  T
     SCC iter.                  ...        0 min,  0.008 sec
     gradient                   ...        0 min,  0.003 sec
 * total energy  :   -32.7327379 Eh     change       -0.1048962E-03 Eh
   gradient norm :     0.0114785 Eh/α   predicted    -0.1449231E-03 (  38.16%)
   displ. norm   :     0.0539907 α      lambda       -0.1638310E-03
   maximum displ.:     0.0279504 α      in ANC's #14, #10, #1, ...

........................................................................
.............................. CYCLE   17 ..............................
........................................................................

 iter      E             dE          RMSdq      gap      omega  full diag
   1    -33.1094390 -0.331094E+02  0.492E-02    3.41       0.0  T
   2    -33.1094407 -0.168965E-05  0.346E-02    3.41       1.0  T
   3    -33.1094484 -0.773155E-05  0.195E-02    3.41       1.2  T
   4    -33.1094505 -0.209315E-05  0.260E-03    3.41       8.8  T
   5    -33.1094505 -0.784571E-08  0.121E-03    3.41      18.9  T
   6    -33.1094505 -0.531578E-09  0.456E-04    3.41      50.3  T
   7    -33.1094505 -0.105975E-08  0.116E-04    3.41     197.3  T
     SCC iter.                  ...        0 min,  0.007 sec
     gradient                   ...        0 min,  0.004 sec
 * total energy  :   -32.7328201 Eh     change       -0.8223028E-04 Eh
   gradient norm :     0.0055338 Eh/α   predicted    -0.8215492E-04 (  -0.09%)
   displ. norm   :     0.0700094 α      lambda       -0.5204523E-04
   maximum displ.:     0.0343370 α      in ANC's #11, #6, #3, ...

........................................................................
.............................. CYCLE   18 ..............................
........................................................................

 iter      E             dE          RMSdq      gap      omega  full diag
   1    -33.1097578 -0.331098E+02  0.502E-02    3.42       0.0  T
   2    -33.1097599 -0.208468E-05  0.389E-02    3.42       1.0  T
   3    -33.1097761 -0.162605E-04  0.174E-02    3.42       1.3  T
   4    -33.1097770 -0.848323E-06  0.371E-03    3.42       6.2  T
   5    -33.1097770 -0.348590E-07  0.167E-03    3.42      13.8  T
   6    -33.1097770 -0.184265E-08  0.894E-04    3.42      25.7  T
   7    -33.1097770 -0.138228E-08  0.342E-04    3.42      67.0  T
     SCC iter.                  ...        0 min,  0.007 sec
     gradient                   ...        0 min,  0.003 sec
 * total energy  :   -32.7328541 Eh     change       -0.3400691E-04 Eh
   gradient norm :     0.0031214 Eh/α   predicted    -0.2615104E-04 ( -23.10%)
   displ. norm   :     0.1431165 α      lambda       -0.4549392E-04
   maximum displ.:     0.0622597 α      in ANC's #6, #11, #8, ...

........................................................................
.............................. CYCLE   19 ..............................
........................................................................

 iter      E             dE          RMSdq      gap      omega  full diag
   1    -33.1094124 -0.331094E+02  0.684E-02    3.41       0.0  T
   2    -33.1094150 -0.257999E-05  0.433E-02    3.42       1.0  T
   3    -33.1094169 -0.186451E-05  0.294E-02    3.41       1.0  T
   4    -33.1094245 -0.760625E-05  0.615E-03    3.41       3.7  T
   5    -33.1094245 -0.321372E-07  0.355E-03    3.41       6.5  T
   6    -33.1094245 -0.952543E-08  0.167E-03    3.41      13.8  T
   7    -33.1094245 -0.323259E-08  0.704E-04    3.41      32.6  T
   8    -33.1094245 -0.684359E-09  0.226E-04    3.41     101.7  T
     SCC iter.                  ...        0 min,  0.007 sec
     gradient                   ...        0 min,  0.003 sec
 * total energy  :   -32.7328787 Eh     change       -0.2462793E-04 Eh
   gradient norm :     0.0041328 Eh/α   predicted    -0.2321602E-04 (  -5.73%)
   displ. norm   :     0.0334621 α      lambda       -0.2243718E-04
   maximum displ.:     0.0184259 α      in ANC's #2, #6, #5, ...

........................................................................
.............................. CYCLE   20 ..............................
........................................................................

 iter      E             dE          RMSdq      gap      omega  full diag
   1    -33.1100777 -0.331101E+02  0.223E-02    3.41       0.0  T
   2    -33.1100779 -0.216279E-06  0.137E-02    3.41       1.7  T
   3    -33.1100783 -0.427513E-06  0.908E-03    3.41       2.5  T
   4    -33.1100790 -0.719538E-06  0.136E-03    3.41      16.9  T
   5    -33.1100790 -0.396133E-08  0.446E-04    3.41      51.4  T
   6    -33.1100790 -0.109921E-09  0.121E-04    3.41     188.8  T
     SCC iter.                  ...        0 min,  0.005 sec
     gradient                   ...        0 min,  0.003 sec
 * total energy  :   -32.7328960 Eh     change       -0.1723485E-04 Eh
   gradient norm :     0.0028122 Eh/α   predicted    -0.1123240E-04 ( -34.83%)
   displ. norm   :     0.1108534 α      lambda       -0.4766132E-04
   maximum displ.:     0.0508916 α      in ANC's #2, #6, #3, ...
 * RMSD in coord.:     0.7308586 α      energy gain  -0.1719443E+00 Eh

generating ANC from exact Hessian ...
Using Lindh-Hessian (1995)
 Shifting diagonal of input Hessian by    9.7741745284777772E-003
 Lowest  eigenvalues of input Hessian
    0.000000    0.000000    0.000000    0.000000    0.000000    0.000000
    0.010000    0.010113    0.010634    0.010730    0.010906    0.011055
    0.012481    0.015785    0.019748    0.020951    0.022151    0.029268
 Highest eigenvalues
    1.329865    1.586902    1.940264    2.340193    2.840316    3.864845


........................................................................
.............................. CYCLE   21 ..............................
........................................................................

 iter      E             dE          RMSdq      gap      omega  full diag
   1    -33.1105213 -0.331105E+02  0.609E-02    3.41       0.0  T
   2    -33.1105217 -0.330263E-06  0.333E-02    3.41       1.0  T
   3    -33.1105194  0.225945E-05  0.132E-02    3.41       1.7  T
   4    -33.1105220 -0.261330E-05  0.300E-03    3.41       7.6  T
   5    -33.1105221 -0.250325E-07  0.915E-04    3.41      25.1  T
   6    -33.1105221 -0.948042E-09  0.210E-04    3.41     109.0  T
     SCC iter.                  ...        0 min,  0.006 sec
     gradient                   ...        0 min,  0.003 sec
 * total energy  :   -32.7329325 Eh     change       -0.3654813E-04 Eh
   gradient norm :     0.0034448 Eh/α   predicted     0.0000000E+00 (-100.00%)
   displ. norm   :     0.0541008 α      lambda       -0.5693181E-04
   maximum displ.:     0.0341817 α      in ANC's #7, #8, #4, ...

........................................................................
.............................. CYCLE   22 ..............................
........................................................................

 iter      E             dE          RMSdq      gap      omega  full diag
   1    -33.1098547 -0.331099E+02  0.506E-02    3.41       0.0  T
   2    -33.1098551 -0.458685E-06  0.289E-02    3.41       1.0  T
   3    -33.1098516  0.349480E-05  0.214E-02    3.41       1.1  T
   4    -33.1098574 -0.573902E-05  0.242E-03    3.41       9.5  T
   5    -33.1098574 -0.359653E-08  0.898E-04    3.41      25.5  T
   6    -33.1098574 -0.146050E-08  0.424E-04    3.41      54.2  T
     SCC iter.                  ...        0 min,  0.006 sec
     gradient                   ...        0 min,  0.003 sec
 * total energy  :   -32.7329298 Eh     change        0.2731130E-05 Eh
   gradient norm :     0.0032595 Eh/α   predicted    -0.2888701E-04 (*******%)
   displ. norm   :     0.0795700 α      lambda       -0.1185898E-03
   maximum displ.:     0.0345601 α      in ANC's #1, #8, #7, ...

........................................................................
.............................. CYCLE   23 ..............................
........................................................................

 iter      E             dE          RMSdq      gap      omega  full diag
   1    -33.1091354 -0.331091E+02  0.799E-02    3.40       0.0  T
   2    -33.1091367 -0.135640E-05  0.453E-02    3.40       1.0  T
   3    -33.1091266  0.101104E-04  0.309E-02    3.40       1.0  T
   4    -33.1091406 -0.139658E-04  0.295E-03    3.40       7.8  T
   5    -33.1091406 -0.138934E-07  0.125E-03    3.40      18.4  T
   6    -33.1091406 -0.111436E-08  0.339E-04    3.40      67.7  T
   7    -33.1091406 -0.162174E-09  0.159E-04    3.40     144.4  T
     SCC iter.                  ...        0 min,  0.006 sec
     gradient                   ...        0 min,  0.003 sec
 * total energy  :   -32.7329787 Eh     change       -0.4890870E-04 Eh
   gradient norm :     0.0048631 Eh/α   predicted    -0.5969184E-04 (  22.05%)
   displ. norm   :     0.0438166 α      lambda       -0.5327481E-04
   maximum displ.:     0.0204001 α      in ANC's #4, #2, #1, ...

........................................................................
.............................. CYCLE   24 ..............................
........................................................................

 iter      E             dE          RMSdq      gap      omega  full diag
   1    -33.1098499 -0.331098E+02  0.353E-02    3.41       0.0  T
   2    -33.1098502 -0.327521E-06  0.199E-02    3.41       1.2  T
   3    -33.1098495  0.677662E-06  0.768E-03    3.41       3.0  T
   4    -33.1098503 -0.809916E-06  0.238E-03    3.41       9.7  T
   5    -33.1098503 -0.123943E-07  0.101E-03    3.41      22.7  T
   6    -33.1098503 -0.118877E-08  0.354E-04    3.41      64.8  T
   7    -33.1098503 -0.111832E-09  0.160E-04    3.41     143.0  T
     SCC iter.                  ...        0 min,  0.007 sec
     gradient                   ...        0 min,  0.004 sec
 * total energy  :   -32.7330093 Eh     change       -0.3058997E-04 Eh
   gradient norm :     0.0020599 Eh/α   predicted    -0.2669343E-04 ( -12.74%)
   displ. norm   :     0.0769082 α      lambda       -0.3593229E-04
   maximum displ.:     0.0389443 α      in ANC's #4, #1, #2, ...

........................................................................
.............................. CYCLE   25 ..............................
........................................................................

 iter      E             dE          RMSdq      gap      omega  full diag
   1    -33.1102810 -0.331103E+02  0.525E-02    3.42       0.0  T
   2    -33.1102815 -0.437614E-06  0.282E-02    3.42       1.0  T
   3    -33.1102799  0.159755E-05  0.113E-02    3.42       2.0  T
   4    -33.1102818 -0.192053E-05  0.279E-03    3.42       8.2  T
   5    -33.1102818 -0.808082E-08  0.114E-03    3.42      20.0  T
   6    -33.1102818 -0.113801E-08  0.375E-04    3.42      61.1  T
   7    -33.1102818 -0.139600E-09  0.232E-04    3.42      99.1  T
     SCC iter.                  ...        0 min,  0.007 sec
     gradient                   ...        0 min,  0.004 sec
 * total energy  :   -32.7330373 Eh     change       -0.2802308E-04 Eh
   gradient norm :     0.0021321 Eh/α   predicted    -0.1807331E-04 ( -35.51%)
   displ. norm   :     0.1788323 α      lambda       -0.6139395E-04
   maximum displ.:     0.0897500 α      in ANC's #4, #2, #1, ...

........................................................................
.............................. CYCLE   26 ..............................
........................................................................

 iter      E             dE          RMSdq      gap      omega  full diag
   1    -33.1101378 -0.331101E+02  0.114E-01    3.43       0.0  T
   2    -33.1101395 -0.175545E-05  0.605E-02    3.43       1.0  T
   3    -33.1101326  0.696656E-05  0.236E-02    3.43       1.0  T
   4    -33.1101410 -0.849348E-05  0.531E-03    3.43       4.3  T
   5    -33.1101411 -0.298410E-07  0.207E-03    3.43      11.1  T
   6    -33.1101411 -0.403519E-08  0.613E-04    3.43      37.4  T
   7    -33.1101411 -0.405102E-09  0.381E-04    3.43      60.1  T
     SCC iter.                  ...        0 min,  0.009 sec
     gradient                   ...        0 min,  0.003 sec
 * total energy  :   -32.7330801 Eh     change       -0.4275239E-04 Eh
   gradient norm :     0.0031495 Eh/α   predicted    -0.3168044E-04 ( -25.90%)
   displ. norm   :     0.1683344 α      lambda       -0.4125109E-04
   maximum displ.:     0.0870728 α      in ANC's #2, #4, #1, ...

........................................................................
.............................. CYCLE   27 ..............................
........................................................................

 iter      E             dE          RMSdq      gap      omega  full diag
   1    -33.1097808 -0.331098E+02  0.980E-02    3.43       0.0  T
   2    -33.1097820 -0.119391E-05  0.524E-02    3.43       1.0  T
   3    -33.1097770  0.504027E-05  0.203E-02    3.43       1.1  T
   4    -33.1097831 -0.613706E-05  0.477E-03    3.43       4.8  T
   5    -33.1097831 -0.211426E-07  0.172E-03    3.43      13.4  T
   6    -33.1097831 -0.528558E-08  0.566E-04    3.43      40.5  T
   7    -33.1097831 -0.468070E-09  0.353E-04    3.43      65.0  T
     SCC iter.                  ...        0 min,  0.007 sec
     gradient                   ...        0 min,  0.004 sec
 * total energy  :   -32.7331129 Eh     change       -0.3286468E-04 Eh
   gradient norm :     0.0030936 Eh/α   predicted    -0.2121414E-04 ( -35.45%)
   displ. norm   :     0.2342091 α      lambda       -0.5664288E-04
   maximum displ.:     0.1247081 α      in ANC's #2, #4, #1, ...

........................................................................
.............................. CYCLE   28 ..............................
........................................................................

 iter      E             dE          RMSdq      gap      omega  full diag
   1    -33.1095540 -0.331096E+02  0.127E-01    3.43       0.0  T
   2    -33.1095562 -0.223912E-05  0.676E-02    3.43       1.0  T
   3    -33.1095543  0.188213E-05  0.155E-02    3.43       1.5  T
   4    -33.1095570 -0.263064E-05  0.646E-03    3.43       3.6  T
   5    -33.1095572 -0.200128E-06  0.245E-03    3.43       9.4  T
   6    -33.1095572 -0.173737E-07  0.614E-04    3.43      37.4  T
   7    -33.1095572 -0.104765E-08  0.341E-04    3.43      67.3  T
     SCC iter.                  ...        0 min,  0.006 sec
     gradient                   ...        0 min,  0.003 sec
 * total energy  :   -32.7331543 Eh     change       -0.4140598E-04 Eh
   gradient norm :     0.0030018 Eh/α   predicted    -0.2987624E-04 ( -27.85%)
   displ. norm   :     0.1977636 α      lambda       -0.5285356E-04
   maximum displ.:     0.1104481 α      in ANC's #2, #4, #1, ...

........................................................................
.............................. CYCLE   29 ..............................
........................................................................

 iter      E             dE          RMSdq      gap      omega  full diag
   1    -33.1099451 -0.331099E+02  0.981E-02    3.42       0.0  T
   2    -33.1099466 -0.148920E-05  0.531E-02    3.42       1.0  T
   3    -33.1099452  0.135745E-05  0.122E-02    3.42       1.9  T
   4    -33.1099470 -0.173674E-05  0.552E-03    3.43       4.2  T
   5    -33.1099471 -0.184115E-06  0.183E-03    3.43      12.5  T
   6    -33.1099472 -0.125103E-07  0.464E-04    3.43      49.4  T
   7    -33.1099472 -0.609823E-09  0.242E-04    3.43      94.8  T
     SCC iter.                  ...        0 min,  0.006 sec
     gradient                   ...        0 min,  0.003 sec
 * total energy  :   -32.7331938 Eh     change       -0.3951487E-04 Eh
   gradient norm :     0.0026952 Eh/α   predicted    -0.2746130E-04 ( -30.50%)
   displ. norm   :     0.2024803 α      lambda       -0.4912941E-04
   maximum displ.:     0.1167773 α      in ANC's #2, #4, #1, ...

........................................................................
.............................. CYCLE   30 ..............................
........................................................................

 iter      E             dE          RMSdq      gap      omega  full diag
   1    -33.1103927 -0.331104E+02  0.962E-02    3.42       0.0  T
   2    -33.1103939 -0.121777E-05  0.528E-02    3.42       1.0  T
   3    -33.1103918  0.207319E-05  0.138E-02    3.42       1.7  T
   4    -33.1103943 -0.249043E-05  0.521E-03    3.42       4.4  T
   5    -33.1103945 -0.135320E-06  0.188E-03    3.42      12.2  T
   6    -33.1103945 -0.102343E-07  0.635E-04    3.42      36.1  T
   7    -33.1103945 -0.622087E-09  0.415E-04    3.42      55.3  T
     SCC iter.                  ...        0 min,  0.006 sec
     gradient                   ...        0 min,  0.003 sec
 * total energy  :   -32.7332326 Eh     change       -0.3876205E-04 Eh
   gradient norm :     0.0031392 Eh/α   predicted    -0.2557573E-04 ( -34.02%)
   displ. norm   :     0.2887419 α      lambda       -0.6238998E-04
   maximum displ.:     0.1698669 α      in ANC's #2, #4, #1, ...

........................................................................
.............................. CYCLE   31 ..............................
........................................................................

 iter      E             dE          RMSdq      gap      omega  full diag
   1    -33.1104595 -0.331105E+02  0.131E-01    3.42       0.0  T
   2    -33.1104612 -0.165647E-05  0.723E-02    3.42       1.0  T
   3    -33.1104573  0.393320E-05  0.186E-02    3.42       1.2  T
   4    -33.1104619 -0.468266E-05  0.653E-03    3.42       3.5  T
   5    -33.1104621 -0.174159E-06  0.216E-03    3.42      10.6  T
   6    -33.1104621 -0.124137E-07  0.710E-04    3.42      32.3  T
   7    -33.1104621 -0.529411E-09  0.459E-04    3.42      50.0  T
     SCC iter.                  ...        0 min,  0.006 sec
     gradient                   ...        0 min,  0.003 sec
 * total energy  :   -32.7332829 Eh     change       -0.5031104E-04 Eh
   gradient norm :     0.0040238 Eh/α   predicted    -0.3380001E-04 ( -32.82%)
   displ. norm   :     0.3215879 α      lambda       -0.8293139E-04
   maximum displ.:     0.1952302 α      in ANC's #2, #1, #4, ...

........................................................................
.............................. CYCLE   32 ..............................
........................................................................

 iter      E             dE          RMSdq      gap      omega  full diag
   1    -33.1121287 -0.331121E+02  0.140E-01    3.42       0.0  T
   2    -33.1121303 -0.162453E-05  0.790E-02    3.42       1.0  T
   3    -33.1121143  0.160068E-04  0.346E-02    3.42       1.0  T
   4    -33.1121328 -0.185057E-04  0.658E-03    3.42       3.5  T
   5    -33.1121329 -0.464104E-07  0.241E-03    3.42       9.5  T
   6    -33.1121329 -0.713982E-08  0.119E-03    3.42      19.3  T
   7    -33.1121329 -0.123481E-08  0.715E-04    3.42      32.1  T
   8    -33.1121329 -0.712383E-09  0.214E-04    3.42     107.4  T
     SCC iter.                  ...        0 min,  0.007 sec
     gradient                   ...        0 min,  0.003 sec
 * total energy  :   -32.7333343 Eh     change       -0.5137982E-04 Eh
   gradient norm :     0.0050969 Eh/α   predicted    -0.4575492E-04 ( -10.95%)
   displ. norm   :     0.6655079 α      lambda       -0.1176358E-03
   maximum displ.:     0.3933079 α      in ANC's #2, #4, #1, ...

........................................................................
.............................. CYCLE   33 ..............................
........................................................................

 iter      E             dE          RMSdq      gap      omega  full diag
   1    -33.1047953 -0.331048E+02  0.302E-01    3.41       0.0  T
   2    -33.1048080 -0.127058E-04  0.166E-01    3.41       1.0  T
   3    -33.1048063  0.170774E-05  0.267E-02    3.41       1.0  T
   4    -33.1048088 -0.247564E-05  0.167E-02    3.41       1.4  T
   5    -33.1048108 -0.202708E-05  0.736E-03    3.41       3.1  T
   6    -33.1048111 -0.283834E-06  0.238E-03    3.41       9.6  T
   7    -33.1048111 -0.518622E-08  0.160E-03    3.41      14.4  T
   8    -33.1048111 -0.384490E-08  0.656E-04    3.41      35.0  T
   9    -33.1048111 -0.821608E-09  0.283E-04    3.41      81.1  T
     SCC iter.                  ...        0 min,  0.008 sec
     gradient                   ...        0 min,  0.003 sec
 * total energy  :   -32.7332329 Eh     change        0.1013593E-03 Eh
   gradient norm :     0.0141721 Eh/α   predicted    -0.8487577E-04 (-183.74%)
   displ. norm   :     0.2907174 α      lambda       -0.4334285E-03
   maximum displ.:     0.1646319 α      in ANC's #2, #4, #1, ...

........................................................................
.............................. CYCLE   34 ..............................
........................................................................

 iter      E             dE          RMSdq      gap      omega  full diag
   1    -33.1115392 -0.331115E+02  0.148E-01    3.43       0.0  T
   2    -33.1115483 -0.911440E-05  0.818E-02    3.43       1.0  T
   3    -33.1115470  0.127710E-05  0.180E-02    3.43       1.3  T
   4    -33.1115491 -0.205793E-05  0.915E-03    3.43       2.5  T
   5    -33.1115496 -0.469561E-06  0.512E-03    3.43       4.5  T
   6    -33.1115497 -0.169790E-06  0.184E-03    3.43      12.4  T
   7    -33.1115497 -0.415571E-08  0.117E-03    3.43      19.6  T
   8    -33.1115498 -0.190399E-08  0.538E-04    3.43      42.6  T
   9    -33.1115498 -0.431612E-09  0.176E-04    3.43     130.4  T
     SCC iter.                  ...        0 min,  0.008 sec
     gradient                   ...        0 min,  0.004 sec
 * total energy  :   -32.7334087 Eh     change       -0.1758011E-03 Eh
   gradient norm :     0.0027380 Eh/α   predicted    -0.2350304E-03 (  33.69%)
   displ. norm   :     0.1560974 α      lambda       -0.3607332E-04
   maximum displ.:     0.0972426 α      in ANC's #2, #1, #4, ...

........................................................................
.............................. CYCLE   35 ..............................
........................................................................

 iter      E             dE          RMSdq      gap      omega  full diag
   1    -33.1116273 -0.331116E+02  0.705E-02    3.44       0.0  T
   2    -33.1116276 -0.332847E-06  0.386E-02    3.44       1.0  T
   3    -33.1116274  0.208432E-06  0.635E-03    3.44       3.6  T
   4    -33.1116276 -0.244474E-06  0.373E-03    3.44       6.2  T
   5    -33.1116277 -0.891479E-07  0.140E-03    3.44      16.4  T
   6    -33.1116277 -0.805270E-08  0.544E-04    3.44      42.2  T
   7    -33.1116277 -0.160021E-09  0.288E-04    3.44      79.5  T
     SCC iter.                  ...        0 min,  0.008 sec
     gradient                   ...        0 min,  0.003 sec
 * total energy  :   -32.7334450 Eh     change       -0.3626376E-04 Eh
   gradient norm :     0.0028598 Eh/α   predicted    -0.1847726E-04 ( -49.05%)
   displ. norm   :     0.1770601 α      lambda       -0.4424162E-04
   maximum displ.:     0.1058522 α      in ANC's #2, #1, #4, ...

........................................................................
.............................. CYCLE   36 ..............................
........................................................................

 iter      E             dE          RMSdq      gap      omega  full diag
   1    -33.1111701 -0.331112E+02  0.813E-02    3.44       0.0  T
   2    -33.1111705 -0.368206E-06  0.443E-02    3.44       1.0  T
   3    -33.1111704  0.626811E-07  0.654E-03    3.44       3.5  T
   4    -33.1111705 -0.408368E-07  0.452E-03    3.44       5.1  T
   5    -33.1111706 -0.173208E-06  0.133E-03    3.44      17.2  T
   6    -33.1111706 -0.340806E-08  0.796E-04    3.44      28.8  T
   7    -33.1111706 -0.578034E-09  0.434E-04    3.44      52.9  T
     SCC iter.                  ...        0 min,  0.007 sec
     gradient                   ...        0 min,  0.003 sec
 * total energy  :   -32.7334869 Eh     change       -0.4187420E-04 Eh
   gradient norm :     0.0031909 Eh/α   predicted    -0.2281903E-04 ( -45.51%)
   displ. norm   :     0.5503960 α      lambda       -0.1446115E-03
   maximum displ.:     0.3401233 α      in ANC's #2, #1, #4, ...

........................................................................
.............................. CYCLE   37 ..............................
........................................................................

 iter      E             dE          RMSdq      gap      omega  full diag
   1    -33.1083291 -0.331083E+02  0.248E-01    3.44       0.0  T
   2    -33.1083331 -0.405365E-05  0.136E-01    3.44       1.0  T
   3    -33.1083341 -0.970882E-06  0.179E-02    3.45       1.3  T
   4    -33.1083340  0.123491E-06  0.104E-02    3.45       2.2  T
   5    -33.1083343 -0.338813E-06  0.530E-03    3.45       4.3  T
   6    -33.1083345 -0.228639E-06  0.274E-03    3.45       8.4  T
   7    -33.1083346 -0.851811E-08  0.153E-03    3.45      15.0  T
   8    -33.1083346 -0.534084E-08  0.392E-04    3.45      58.5  T
   9    -33.1083346 -0.315389E-09  0.196E-04    3.45     117.3  T
     SCC iter.                  ...        0 min,  0.008 sec
     gradient                   ...        0 min,  0.003 sec
 * total energy  :   -32.7335792 Eh     change       -0.9234726E-04 Eh
   gradient norm :     0.0070477 Eh/α   predicted    -0.9421611E-04 (   2.02%)
   displ. norm   :     0.2461747 α      lambda       -0.1247475E-03
   maximum displ.:     0.1528226 α      in ANC's #1, #2, #4, ...

........................................................................
.............................. CYCLE   38 ..............................
........................................................................

 iter      E             dE          RMSdq      gap      omega  full diag
   1    -33.1088408 -0.331088E+02  0.122E-01    3.46       0.0  T
   2    -33.1088420 -0.120164E-05  0.663E-02    3.45       1.0  T
   3    -33.1088333  0.868133E-05  0.261E-02    3.46       1.0  T
   4    -33.1088435 -0.102215E-04  0.782E-03    3.46       2.9  T
   5    -33.1088436 -0.731107E-07  0.273E-03    3.46       8.4  T
   6    -33.1088436 -0.150630E-07  0.175E-03    3.46      13.1  T
   7    -33.1088436 -0.560399E-08  0.836E-04    3.46      27.4  T
   8    -33.1088436 -0.884498E-09  0.198E-04    3.46     116.1  T
     SCC iter.                  ...        0 min,  0.007 sec
     gradient                   ...        0 min,  0.003 sec
 * total energy  :   -32.7336851 Eh     change       -0.1058775E-03 Eh
   gradient norm :     0.0075393 Eh/α   predicted    -0.6615489E-04 ( -37.52%)
   displ. norm   :     0.4137673 α      lambda       -0.3748557E-03
   maximum displ.:     0.2732718 α      in ANC's #1, #2, #3, ...

........................................................................
.............................. CYCLE   39 ..............................
........................................................................

 iter      E             dE          RMSdq      gap      omega  full diag
   1    -33.1125804 -0.331126E+02  0.202E-01    3.46       0.0  T
   2    -33.1125895 -0.905243E-05  0.117E-01    3.46       1.0  T
   3    -33.1125242  0.652923E-04  0.776E-02    3.48       1.0  T
   4    -33.1126120 -0.877896E-04  0.127E-02    3.47       1.8  T
   5    -33.1126122 -0.179093E-06  0.679E-03    3.47       3.4  T
   6    -33.1126122 -0.173975E-07  0.228E-03    3.47      10.0  T
   7    -33.1126122 -0.576701E-08  0.119E-03    3.47      19.3  T
   8    -33.1126122 -0.137810E-08  0.545E-04    3.47      42.1  T
   9    -33.1126122 -0.761844E-09  0.244E-04    3.47      94.2  T
     SCC iter.                  ...        0 min,  0.008 sec
     gradient                   ...        0 min,  0.003 sec
 * total energy  :   -32.7338907 Eh     change       -0.2056445E-03 Eh
   gradient norm :     0.0069132 Eh/α   predicted    -0.2195184E-03 (   6.75%)
   displ. norm   :     0.7711573 α      lambda       -0.3296315E-03
   maximum displ.:     0.4747125 α      in ANC's #1, #2, #4, ...

........................................................................
.............................. CYCLE   40 ..............................
........................................................................

 iter      E             dE          RMSdq      gap      omega  full diag
   1    -33.1059791 -0.331060E+02  0.349E-01    3.44       0.0  T
   2    -33.1059954 -0.162783E-04  0.194E-01    3.45       1.0  T
   3    -33.1059635  0.318431E-04  0.571E-02    3.45       1.0  T
   4    -33.1060011 -0.375626E-04  0.242E-02    3.45       1.0  T
   5    -33.1060029 -0.180587E-05  0.129E-02    3.45       1.8  T
   6    -33.1060035 -0.626385E-06  0.561E-03    3.45       4.1  T
   7    -33.1060036 -0.347322E-07  0.311E-03    3.45       7.4  T
   8    -33.1060036 -0.137004E-07  0.721E-04    3.45      31.8  T
   9    -33.1060036 -0.123326E-08  0.317E-04    3.45      72.3  T
     SCC iter.                  ...        0 min,  0.008 sec
     gradient                   ...        0 min,  0.003 sec
 * total energy  :   -32.7340140 Eh     change       -0.1232450E-03 Eh
   gradient norm :     0.0141085 Eh/α   predicted    -0.2628363E-03 ( 113.26%)
   displ. norm   :     0.0544610 α      lambda       -0.2584294E-03
   maximum displ.:     0.0260128 α      in ANC's #5, #1, #9, ...

........................................................................
.............................. CYCLE   41 ..............................
........................................................................

 iter      E             dE          RMSdq      gap      omega  full diag
   1    -33.1100710 -0.331101E+02  0.552E-02    3.47       0.0  T
   2    -33.1100766 -0.561413E-05  0.343E-02    3.47       1.0  T
   3    -33.1100768 -0.154340E-06  0.140E-02    3.47       1.6  T
   4    -33.1100772 -0.406694E-06  0.579E-03    3.47       4.0  T
   5    -33.1100773 -0.107182E-06  0.413E-03    3.47       5.6  T
   6    -33.1100774 -0.843539E-07  0.227E-03    3.47      10.1  T
   7    -33.1100774 -0.669464E-08  0.110E-03    3.47      20.9  T
   8    -33.1100774 -0.256559E-08  0.390E-04    3.47      58.9  T
   9    -33.1100774 -0.170417E-09  0.975E-05    3.47     235.3  T
     SCC iter.                  ...        0 min,  0.008 sec
     gradient                   ...        0 min,  0.003 sec
 * total energy  :   -32.7341685 Eh     change       -0.1544941E-03 Eh
   gradient norm :     0.0048008 Eh/α   predicted    -0.1295985E-03 ( -16.11%)
   displ. norm   :     0.4108471 α      lambda       -0.2249471E-03
   maximum displ.:     0.2831759 α      in ANC's #1, #2, #4, ...

........................................................................
.............................. CYCLE   42 ..............................
........................................................................

 iter      E             dE          RMSdq      gap      omega  full diag
   1    -33.1112813 -0.331113E+02  0.146E-01    3.46       0.0  T
   2    -33.1112848 -0.346066E-05  0.830E-02    3.46       1.0  T
   3    -33.1112772  0.751222E-05  0.254E-02    3.46       1.0  T
   4    -33.1112857 -0.843612E-05  0.895E-03    3.46       2.6  T
   5    -33.1112862 -0.501917E-06  0.415E-03    3.46       5.5  T
   6    -33.1112862 -0.253012E-07  0.101E-03    3.46      22.8  T
   7    -33.1112862 -0.404859E-08  0.657E-04    3.46      34.9  T
   8    -33.1112862 -0.425629E-09  0.226E-04    3.46     101.6  T
     SCC iter.                  ...        0 min,  0.009 sec
     gradient                   ...        0 min,  0.003 sec
 * total energy  :   -32.7343641 Eh     change       -0.1956540E-03 Eh
   gradient norm :     0.0053866 Eh/α   predicted    -0.1314596E-03 ( -32.81%)
   displ. norm   :     0.8646440 α      lambda       -0.4244029E-03
   maximum displ.:     0.5880064 α      in ANC's #1, #2, #4, ...
 * RMSD in coord.:     1.1072391 α      energy gain  -0.1468172E-02 Eh

generating ANC from exact Hessian ...
Using Lindh-Hessian (1995)
 Shifting diagonal of input Hessian by    9.7181224300160410E-003
 Lowest  eigenvalues of input Hessian
    0.000000    0.000000    0.000000    0.000000    0.000000    0.000000
    0.010000    0.010098    0.010736    0.010980    0.011073    0.012007
    0.013728    0.015682    0.019596    0.020796    0.021985    0.029974
 Highest eigenvalues
    1.333909    1.579457    1.928027    2.338162    2.841385    3.658699


........................................................................
.............................. CYCLE   43 ..............................
........................................................................

 iter      E             dE          RMSdq      gap      omega  full diag
   1    -33.1091085 -0.331091E+02  0.306E-01    3.46       0.0  T
   2    -33.1091136 -0.513266E-05  0.171E-01    3.46       1.0  T
   3    -33.1090997  0.139465E-04  0.401E-02    3.47       1.0  T
   4    -33.1091165 -0.167932E-04  0.192E-02    3.46       1.2  T
   5    -33.1091170 -0.551832E-06  0.770E-03    3.47       3.0  T
   6    -33.1091173 -0.243042E-06  0.407E-03    3.47       5.6  T
   7    -33.1091173 -0.219530E-07  0.209E-03    3.47      11.0  T
   8    -33.1091173 -0.612298E-08  0.473E-04    3.47      48.5  T
   9    -33.1091173 -0.311360E-09  0.277E-04    3.47      82.8  T
     SCC iter.                  ...        0 min,  0.009 sec
     gradient                   ...        0 min,  0.004 sec
 * total energy  :   -32.7347456 Eh     change       -0.3814872E-03 Eh
   gradient norm :     0.0171484 Eh/α   predicted     0.0000000E+00 (-100.00%)
   displ. norm   :     0.0962452 α      lambda       -0.3026040E-03
   maximum displ.:     0.0454851 α      in ANC's #6, #1, #7, ...

........................................................................
.............................. CYCLE   44 ..............................
........................................................................

 iter      E             dE          RMSdq      gap      omega  full diag
   1    -33.1107830 -0.331108E+02  0.792E-02    3.48       0.0  T
   2    -33.1107860 -0.291825E-05  0.450E-02    3.47       1.0  T
   3    -33.1107774  0.857573E-05  0.312E-02    3.48       1.0  T
   4    -33.1107903 -0.129100E-04  0.437E-03    3.47       5.3  T
   5    -33.1107904 -0.104747E-06  0.182E-03    3.47      12.6  T
   6    -33.1107904 -0.645541E-08  0.783E-04    3.47      29.3  T
   7    -33.1107904 -0.100438E-08  0.296E-04    3.47      77.4  T
     SCC iter.                  ...        0 min,  0.007 sec
     gradient                   ...        0 min,  0.003 sec
 * total energy  :   -32.7348695 Eh     change       -0.1238748E-03 Eh
   gradient norm :     0.0047933 Eh/α   predicted    -0.1529389E-03 (  23.46%)
   displ. norm   :     0.2173277 α      lambda       -0.5226474E-03
   maximum displ.:     0.0994050 α      in ANC's #1, #7, #6, ...

........................................................................
.............................. CYCLE   45 ..............................
........................................................................

 iter      E             dE          RMSdq      gap      omega  full diag
   1    -33.1142299 -0.331142E+02  0.176E-01    3.52       0.0  T
   2    -33.1142373 -0.736552E-05  0.983E-02    3.52       1.0  T
   3    -33.1142173  0.200174E-04  0.401E-02    3.52       1.0  T
   4    -33.1142412 -0.239367E-04  0.903E-03    3.52       2.5  T
   5    -33.1142415 -0.335510E-06  0.487E-03    3.52       4.7  T
   6    -33.1142416 -0.637365E-07  0.205E-03    3.52      11.2  T
   7    -33.1142416 -0.526467E-08  0.118E-03    3.52      19.4  T
   8    -33.1142416 -0.137150E-08  0.449E-04    3.52      51.1  T
   9    -33.1142416 -0.292836E-09  0.169E-04    3.52     135.4  T
     SCC iter.                  ...        0 min,  0.008 sec
     gradient                   ...        0 min,  0.003 sec
 * total energy  :   -32.7348557 Eh     change        0.1380886E-04 Eh
   gradient norm :     0.0232857 Eh/α   predicted    -0.2736688E-03 (*******%)
   displ. norm   :     0.0758385 α      lambda       -0.4504877E-03
   maximum displ.:     0.0452313 α      in ANC's #6, #7, #1, ...

........................................................................
.............................. CYCLE   46 ..............................
........................................................................

 iter      E             dE          RMSdq      gap      omega  full diag
   1    -33.1131653 -0.331132E+02  0.642E-02    3.51       0.0  T
   2    -33.1131666 -0.134067E-05  0.360E-02    3.51       1.0  T
   3    -33.1131665  0.987766E-07  0.770E-03    3.51       3.0  T
   4    -33.1131669 -0.375576E-06  0.396E-03    3.51       5.8  T
   5    -33.1131669  0.167802E-07  0.276E-03    3.51       8.3  T
   6    -33.1131669 -0.482920E-07  0.129E-03    3.51      17.8  T
   7    -33.1131669 -0.592232E-08  0.603E-04    3.51      38.0  T
   8    -33.1131669 -0.322075E-09  0.186E-04    3.51     123.4  T
     SCC iter.                  ...        0 min,  0.007 sec
     gradient                   ...        0 min,  0.003 sec
 * total energy  :   -32.7351579 Eh     change       -0.3022542E-03 Eh
   gradient norm :     0.0062495 Eh/α   predicted    -0.2265393E-03 ( -25.05%)
   displ. norm   :     0.2175213 α      lambda       -0.2631063E-03
   maximum displ.:     0.1322963 α      in ANC's #6, #1, #3, ...

........................................................................
.............................. CYCLE   47 ..............................
........................................................................

 iter      E             dE          RMSdq      gap      omega  full diag
   1    -33.1117772 -0.331118E+02  0.134E-01    3.51       0.0  T
   2    -33.1117789 -0.166132E-05  0.728E-02    3.51       1.0  T
   3    -33.1117675  0.113116E-04  0.298E-02    3.51       1.0  T
   4    -33.1117807 -0.131407E-04  0.773E-03    3.51       3.0  T
   5    -33.1117808 -0.125388E-06  0.367E-03    3.51       6.2  T
   6    -33.1117808 -0.282735E-07  0.152E-03    3.51      15.1  T
   7    -33.1117808 -0.303870E-08  0.953E-04    3.51      24.1  T
   8    -33.1117808 -0.108469E-08  0.206E-04    3.51     111.6  T
     SCC iter.                  ...        0 min,  0.007 sec
     gradient                   ...        0 min,  0.003 sec
 * total energy  :   -32.7353577 Eh     change       -0.1997149E-03 Eh
   gradient norm :     0.0100435 Eh/α   predicted    -0.1377776E-03 ( -31.01%)
   displ. norm   :     0.3483256 α      lambda       -0.2827873E-03
   maximum displ.:     0.1930722 α      in ANC's #6, #1, #3, ...

........................................................................
.............................. CYCLE   48 ..............................
........................................................................

 iter      E             dE          RMSdq      gap      omega  full diag
   1    -33.1098670 -0.331099E+02  0.198E-01    3.50       0.0  T
   2    -33.1098701 -0.309323E-05  0.108E-01    3.50       1.0  T
   3    -33.1098560  0.141432E-04  0.345E-02    3.51       1.0  T
   4    -33.1098724 -0.164079E-04  0.117E-02    3.50       2.0  T
   5    -33.1098727 -0.306115E-06  0.490E-03    3.50       4.7  T
   6    -33.1098728 -0.635731E-07  0.213E-03    3.50      10.8  T
   7    -33.1098728 -0.646951E-08  0.133E-03    3.50      17.2  T
   8    -33.1098728 -0.194501E-08  0.311E-04    3.50      73.8  T
   9    -33.1098728 -0.271640E-09  0.157E-04    3.50     145.9  T
     SCC iter.                  ...        0 min,  0.008 sec
     gradient                   ...        0 min,  0.003 sec
 * total energy  :   -32.7355405 Eh     change       -0.1828203E-03 Eh
   gradient norm :     0.0243452 Eh/α   predicted    -0.1585484E-03 ( -13.28%)
   displ. norm   :     0.2322684 α      lambda       -0.2674943E-03
   maximum displ.:     0.1444753 α      in ANC's #1, #3, #2, ...

........................................................................
.............................. CYCLE   49 ..............................
........................................................................

 iter      E             dE          RMSdq      gap      omega  full diag
   1    -33.1092199 -0.331092E+02  0.103E-01    3.50       0.0  T
   2    -33.1092215 -0.161903E-05  0.575E-02    3.50       1.0  T
   3    -33.1092217 -0.155701E-06  0.798E-03    3.50       2.9  T
   4    -33.1092218 -0.166049E-06  0.418E-03    3.50       5.5  T
   5    -33.1092218  0.420775E-07  0.250E-03    3.50       9.2  T
   6    -33.1092219 -0.814988E-07  0.632E-04    3.50      36.3  T
   7    -33.1092219 -0.187321E-08  0.353E-04    3.50      65.0  T
     SCC iter.                  ...        0 min,  0.006 sec
     gradient                   ...        0 min,  0.004 sec
 * total energy  :   -32.7357709 Eh     change       -0.2304376E-03 Eh
   gradient norm :     0.0181147 Eh/α   predicted    -0.1409628E-03 ( -38.83%)
   displ. norm   :     0.5015415 α      lambda       -0.6441267E-03
   maximum displ.:     0.3244838 α      in ANC's #1, #3, #2, ...

........................................................................
.............................. CYCLE   50 ..............................
........................................................................

 iter      E             dE          RMSdq      gap      omega  full diag
   1    -33.1102679 -0.331103E+02  0.196E-01    3.52       0.0  T
   2    -33.1102723 -0.434275E-05  0.107E-01    3.52       1.0  T
   3    -33.1102732 -0.901182E-06  0.136E-02    3.52       1.7  T
   4    -33.1102734 -0.222390E-06  0.684E-03    3.52       3.4  T
   5    -33.1102735 -0.955733E-07  0.260E-03    3.52       8.8  T
   6    -33.1102736 -0.651050E-07  0.122E-03    3.52      18.9  T
   7    -33.1102736 -0.120619E-07  0.513E-04    3.52      44.7  T
   8    -33.1102736 -0.164476E-09  0.125E-04    3.52     184.0  T
     SCC iter.                  ...        0 min,  0.008 sec
     gradient                   ...        0 min,  0.004 sec
 * total energy  :   -32.7362828 Eh     change       -0.5118740E-03 Eh
   gradient norm :     0.0079115 Eh/α   predicted    -0.4030752E-03 ( -21.26%)
   displ. norm   :     0.6859941 α      lambda       -0.6285553E-03
   maximum displ.:     0.4433488 α      in ANC's #1, #3, #2, ...

........................................................................
.............................. CYCLE   51 ..............................
........................................................................

 iter      E             dE          RMSdq      gap      omega  full diag
   1    -33.1088264 -0.331088E+02  0.265E-01    3.52       0.0  T
   2    -33.1088331 -0.673298E-05  0.146E-01    3.52       1.0  T
   3    -33.1088118  0.213388E-04  0.420E-02    3.53       1.0  T
   4    -33.1088369 -0.251576E-04  0.149E-02    3.52       1.5  T
   5    -33.1088376 -0.695267E-06  0.489E-03    3.53       4.7  T
   6    -33.1088377 -0.416040E-07  0.167E-03    3.53      13.7  T
   7    -33.1088377 -0.350263E-08  0.101E-03    3.53      22.8  T
   8    -33.1088377 -0.557705E-09  0.468E-04    3.53      49.0  T
   9    -33.1088377 -0.554181E-09  0.250E-04    3.53      91.6  T
     SCC iter.                  ...        0 min,  0.010 sec
     gradient                   ...        0 min,  0.003 sec
 * total energy  :   -32.7367489 Eh     change       -0.4660776E-03 Eh
   gradient norm :     0.0248488 Eh/α   predicted    -0.4621727E-03 (  -0.84%)
   displ. norm   :     0.5510699 α      lambda       -0.9547230E-03
   maximum displ.:     0.4080939 α      in ANC's #1, #3, #2, ...

........................................................................
.............................. CYCLE   52 ..............................
........................................................................

 iter      E             dE          RMSdq      gap      omega  full diag
   1    -33.1147375 -0.331147E+02  0.174E-01    3.56       0.0  T
   2    -33.1147547 -0.172428E-04  0.100E-01    3.56       1.0  T
   3    -33.1147521  0.257607E-05  0.247E-02    3.57       1.0  T
   4    -33.1147566 -0.451009E-05  0.113E-02    3.57       2.0  T
   5    -33.1147575 -0.895139E-06  0.650E-03    3.57       3.5  T
   6    -33.1147578 -0.241492E-06  0.299E-03    3.57       7.7  T
   7    -33.1147578 -0.460909E-08  0.194E-03    3.57      11.8  T
   8    -33.1147578 -0.553356E-08  0.832E-04    3.57      27.6  T
   9    -33.1147578 -0.814872E-09  0.152E-04    3.57     150.9  T
     SCC iter.                  ...        0 min,  0.009 sec
     gradient                   ...        0 min,  0.003 sec
 * total energy  :   -32.7372086 Eh     change       -0.4597707E-03 Eh
   gradient norm :     0.0155388 Eh/α   predicted    -0.6223236E-03 (  35.36%)
   displ. norm   :     0.6743567 α      lambda       -0.8810618E-03
   maximum displ.:     0.4770836 α      in ANC's #1, #3, #2, ...

........................................................................
.............................. CYCLE   53 ..............................
........................................................................

 iter      E             dE          RMSdq      gap      omega  full diag
   1    -33.1114163 -0.331114E+02  0.245E-01    3.56       0.0  T
   2    -33.1114243 -0.797491E-05  0.137E-01    3.56       1.0  T
   3    -33.1114010  0.233486E-04  0.435E-02    3.56       1.0  T
   4    -33.1114281 -0.271352E-04  0.154E-02    3.56       1.5  T
   5    -33.1114294 -0.129291E-05  0.733E-03    3.56       3.1  T
   6    -33.1114294 -0.579586E-07  0.278E-03    3.56       8.3  T
   7    -33.1114294 -0.357797E-08  0.184E-03    3.56      12.5  T
   8    -33.1114295 -0.501005E-08  0.780E-04    3.56      29.4  T
   9    -33.1114295 -0.718678E-09  0.312E-04    3.56      73.5  T
     SCC iter.                  ...        0 min,  0.008 sec
     gradient                   ...        0 min,  0.003 sec
 * total energy  :   -32.7378119 Eh     change       -0.6032557E-03 Eh
   gradient norm :     0.0236849 Eh/α   predicted    -0.6408625E-03 (   6.23%)
   displ. norm   :     0.4799125 α      lambda       -0.5109353E-03
   maximum displ.:     0.3695717 α      in ANC's #1, #3, #2, ...

........................................................................
.............................. CYCLE   54 ..............................
........................................................................

 iter      E             dE          RMSdq      gap      omega  full diag
   1    -33.1096848 -0.331097E+02  0.167E-01    3.54       0.0  T
   2    -33.1097084 -0.235587E-04  0.955E-02    3.55       1.0  T
   3    -33.1096911  0.172668E-04  0.430E-02    3.54       1.0  T
   4    -33.1097115 -0.204195E-04  0.161E-02    3.55       1.4  T
   5    -33.1097151 -0.354024E-05  0.470E-03    3.55       4.9  T
   6    -33.1097151 -0.231926E-07  0.157E-03    3.55      14.6  T
   7    -33.1097151 -0.736771E-08  0.582E-04    3.55      39.4  T
   8    -33.1097151 -0.611557E-09  0.224E-04    3.55     102.6  T
     SCC iter.                  ...        0 min,  0.007 sec
     gradient                   ...        0 min,  0.003 sec
 * total energy  :   -32.7381486 Eh     change       -0.3367006E-03 Eh
   gradient norm :     0.0203544 Eh/α   predicted    -0.3143045E-03 (  -6.65%)
   displ. norm   :     0.3990173 α      lambda       -0.6567963E-03
   maximum displ.:     0.3310220 α      in ANC's #1, #3, #2, ...

........................................................................
.............................. CYCLE   55 ..............................
........................................................................

 iter      E             dE          RMSdq      gap      omega  full diag
   1    -33.1168810 -0.331169E+02  0.115E-01    3.58       0.0  T
   2    -33.1168849 -0.384988E-05  0.639E-02    3.58       1.0  T
   3    -33.1168768  0.811718E-05  0.266E-02    3.58       1.0  T
   4    -33.1168864 -0.960822E-05  0.696E-03    3.58       3.3  T
   5    -33.1168867 -0.296015E-06  0.338E-03    3.58       6.8  T
   6    -33.1168867 -0.217694E-07  0.139E-03    3.58      16.5  T
   7    -33.1168867 -0.465035E-08  0.806E-04    3.58      28.5  T
   8    -33.1168867 -0.576691E-09  0.338E-04    3.58      67.9  T
     SCC iter.                  ...        0 min,  0.007 sec
     gradient                   ...        0 min,  0.003 sec
 * total energy  :   -32.7385888 Eh     change       -0.4401868E-03 Eh
   gradient norm :     0.0108037 Eh/α   predicted    -0.3806840E-03 ( -13.52%)
   displ. norm   :     0.7636836 α      lambda       -0.8693060E-03
   maximum displ.:     0.5779678 α      in ANC's #1, #3, #2, ...

........................................................................
.............................. CYCLE   56 ..............................
........................................................................

 iter      E             dE          RMSdq      gap      omega  full diag
   1    -33.1128977 -0.331129E+02  0.242E-01    3.60       0.0  T
   2    -33.1129206 -0.228673E-04  0.140E-01    3.59       1.0  T
   3    -33.1128524  0.681668E-04  0.994E-02    3.60       1.0  T
   4    -33.1129741 -0.121732E-03  0.182E-02    3.59       1.3  T
   5    -33.1129754 -0.125810E-05  0.769E-03    3.59       3.0  T
   6    -33.1129754 -0.223584E-07  0.217E-03    3.59      10.6  T
   7    -33.1129754 -0.160624E-07  0.116E-03    3.59      19.8  T
   8    -33.1129754 -0.178321E-08  0.699E-04    3.59      32.8  T
   9    -33.1129754 -0.586418E-09  0.315E-04    3.59      72.9  T
     SCC iter.                  ...        0 min,  0.008 sec
     gradient                   ...        0 min,  0.003 sec
 * total energy  :   -32.7390451 Eh     change       -0.4563425E-03 Eh
   gradient norm :     0.0217408 Eh/α   predicted    -0.6881465E-03 (  50.80%)
   displ. norm   :     0.4209669 α      lambda       -0.7682176E-03
   maximum displ.:     0.3366281 α      in ANC's #1, #3, #2, ...

........................................................................
.............................. CYCLE   57 ..............................
........................................................................

 iter      E             dE          RMSdq      gap      omega  full diag
   1    -33.1131319 -0.331131E+02  0.139E-01    3.56       0.0  T
   2    -33.1131525 -0.205539E-04  0.899E-02    3.56       1.0  T
   3    -33.1131868 -0.343079E-04  0.568E-02    3.57       1.0  T
   4    -33.1132083 -0.215472E-04  0.128E-02    3.57       1.8  T
   5    -33.1132094 -0.101807E-05  0.503E-03    3.57       4.6  T
   6    -33.1132094 -0.204950E-08  0.208E-03    3.57      11.0  T
   7    -33.1132094 -0.164785E-07  0.119E-03    3.57      19.3  T
   8    -33.1132094 -0.157948E-08  0.300E-04    3.57      76.5  T
   9    -33.1132094 -0.107846E-09  0.131E-04    3.57     175.3  T
     SCC iter.                  ...        0 min,  0.008 sec
     gradient                   ...        0 min,  0.003 sec
 * total energy  :   -32.7394448 Eh     change       -0.3996975E-03 Eh
   gradient norm :     0.0200271 Eh/α   predicted    -0.4521806E-03 (  13.13%)
   displ. norm   :     0.4339855 α      lambda       -0.7635469E-03
   maximum displ.:     0.3669192 α      in ANC's #1, #3, #4, ...

........................................................................
.............................. CYCLE   58 ..............................
........................................................................

 iter      E             dE          RMSdq      gap      omega  full diag
   1    -33.1119422 -0.331119E+02  0.194E-01    3.54       0.0  T
   2    -33.1119554 -0.132020E-04  0.108E-01    3.54       1.0  T
   3    -33.1119557 -0.310430E-06  0.171E-02    3.54       1.3  T
   4    -33.1119573 -0.164952E-05  0.807E-03    3.54       2.8  T
   5    -33.1119574 -0.631815E-07  0.385E-03    3.54       6.0  T
   6    -33.1119574 -0.129981E-07  0.195E-03    3.54      11.8  T
   7    -33.1119574 -0.488476E-08  0.152E-03    3.54      15.1  T
   8    -33.1119574 -0.132756E-07  0.721E-04    3.54      31.8  T
   9    -33.1119574 -0.897039E-09  0.173E-04    3.54     132.6  T
     SCC iter.                  ...        0 min,  0.009 sec
     gradient                   ...        0 min,  0.004 sec
 * total energy  :   -32.7397320 Eh     change       -0.2872213E-03 Eh
   gradient norm :     0.0188254 Eh/α   predicted    -0.4536774E-03 (  57.95%)
   displ. norm   :     0.5598132 α      lambda       -0.7622684E-03
   maximum displ.:     0.4578227 α      in ANC's #1, #3, #2, ...

........................................................................
.............................. CYCLE   59 ..............................
........................................................................

 iter      E             dE          RMSdq      gap      omega  full diag
   1    -33.1139769 -0.331140E+02  0.148E-01    3.56       0.0  T
   2    -33.1139847 -0.773872E-05  0.878E-02    3.56       1.0  T
   3    -33.1139589  0.257355E-04  0.613E-02    3.55       1.0  T
   4    -33.1140054 -0.464699E-04  0.944E-03    3.56       2.4  T
   5    -33.1140060 -0.566945E-06  0.423E-03    3.56       5.4  T
   6    -33.1140060 -0.133128E-07  0.117E-03    3.56      19.7  T
   7    -33.1140060 -0.225965E-08  0.734E-04    3.56      31.2  T
   8    -33.1140060 -0.101055E-08  0.389E-04    3.56      58.9  T
     SCC iter.                  ...        0 min,  0.010 sec
     gradient                   ...        0 min,  0.004 sec
 * total energy  :   -32.7398453 Eh     change       -0.1132531E-03 Eh
   gradient norm :     0.0385926 Eh/α   predicted    -0.5005823E-03 ( 342.00%)
   displ. norm   :     0.1266022 α      lambda       -0.8709307E-03
   maximum displ.:     0.0493324 α      in ANC's #9, #11, #10, ...

........................................................................
.............................. CYCLE   60 ..............................
........................................................................

 iter      E             dE          RMSdq      gap      omega  full diag
   1    -33.1166113 -0.331166E+02  0.147E-01    3.56       0.0  T
   2    -33.1166259 -0.145625E-04  0.999E-02    3.56       1.0  T
   3    -33.1166149  0.109855E-04  0.660E-02    3.57       1.0  T
   4    -33.1166520 -0.371807E-04  0.135E-02    3.57       1.7  T
   5    -33.1166534 -0.138041E-05  0.711E-03    3.57       3.2  T
   6    -33.1166535 -0.479880E-07  0.396E-03    3.57       5.8  T
   7    -33.1166535 -0.117821E-07  0.231E-03    3.57       9.9  T
   8    -33.1166535 -0.867010E-08  0.107E-03    3.57      21.4  T
   9    -33.1166535 -0.137644E-08  0.189E-04    3.57     121.2  T
  10    -33.1166535 -0.801350E-10  0.753E-05    3.57     304.8  T
     SCC iter.                  ...        0 min,  0.010 sec
     gradient                   ...        0 min,  0.004 sec
 * total energy  :   -32.7401009 Eh     change       -0.2556383E-03 Eh
   gradient norm :     0.0136964 Eh/α   predicted    -0.4424490E-03 (  73.08%)
   displ. norm   :     0.3791071 α      lambda       -0.5864578E-03
   maximum displ.:     0.2988727 α      in ANC's #1, #3, #5, ...

........................................................................
.............................. CYCLE   61 ..............................
........................................................................

 iter      E             dE          RMSdq      gap      omega  full diag
   1    -33.1106846 -0.331107E+02  0.210E-01    3.56       0.0  T
   2    -33.1107022 -0.176789E-04  0.127E-01    3.55       1.0  T
   3    -33.1106432  0.590169E-04  0.744E-02    3.55       1.0  T
   4    -33.1107171 -0.738623E-04  0.187E-02    3.55       1.2  T
   5    -33.1107202 -0.312662E-05  0.929E-03    3.55       2.5  T
   6    -33.1107203 -0.622743E-07  0.363E-03    3.55       6.3  T
   7    -33.1107203 -0.104786E-07  0.234E-03    3.55       9.8  T
   8    -33.1107203 -0.755256E-08  0.925E-04    3.55      24.8  T
   9    -33.1107203 -0.170817E-08  0.167E-04    3.55     137.6  T
     SCC iter.                  ...        0 min,  0.008 sec
     gradient                   ...        0 min,  0.003 sec
 * total energy  :   -32.7402188 Eh     change       -0.1179083E-03 Eh
   gradient norm :     0.0129637 Eh/α   predicted    -0.3353779E-03 ( 184.44%)
   displ. norm   :     0.1178612 α      lambda       -0.4184984E-03
   maximum displ.:     0.0646664 α      in ANC's #1, #5, #6, ...

........................................................................
.............................. CYCLE   62 ..............................
........................................................................

 iter      E             dE          RMSdq      gap      omega  full diag
   1    -33.1179824 -0.331180E+02  0.868E-02    3.54       0.0  T
   2    -33.1179874 -0.492818E-05  0.535E-02    3.55       1.0  T
   3    -33.1179775  0.981287E-05  0.373E-02    3.55       1.0  T
   4    -33.1179945 -0.169139E-04  0.617E-03    3.55       3.7  T
   5    -33.1179946 -0.186437E-06  0.295E-03    3.55       7.8  T
   6    -33.1179947 -0.725859E-08  0.157E-03    3.55      14.6  T
   7    -33.1179947 -0.449641E-08  0.940E-04    3.55      24.4  T
   8    -33.1179947 -0.145340E-08  0.356E-04    3.55      64.4  T
     SCC iter.                  ...        0 min,  0.007 sec
     gradient                   ...        0 min,  0.003 sec
 * total energy  :   -32.7403717 Eh     change       -0.1528144E-03 Eh
   gradient norm :     0.0113514 Eh/α   predicted    -0.2121563E-03 (  38.83%)
   displ. norm   :     0.3879623 α      lambda       -0.4024498E-03
   maximum displ.:     0.3179514 α      in ANC's #1, #2, #3, ...

........................................................................
.............................. CYCLE   63 ..............................
........................................................................

 iter      E             dE          RMSdq      gap      omega  full diag
   1    -33.1127540 -0.331128E+02  0.135E-01    3.53       0.0  T
   2    -33.1127671 -0.131508E-04  0.798E-02    3.54       1.0  T
   3    -33.1127449  0.221921E-04  0.543E-02    3.53       1.0  T
   4    -33.1127806 -0.356090E-04  0.103E-02    3.54       2.2  T
   5    -33.1127814 -0.877572E-06  0.347E-03    3.54       6.6  T
   6    -33.1127814 -0.107777E-07  0.112E-03    3.54      20.5  T
   7    -33.1127814 -0.122670E-08  0.578E-04    3.54      39.7  T
   8    -33.1127814 -0.269679E-09  0.199E-04    3.54     115.2  T
     SCC iter.                  ...        0 min,  0.007 sec
     gradient                   ...        0 min,  0.003 sec
 * total energy  :   -32.7403684 Eh     change        0.3216452E-05 Eh
   gradient norm :     0.0193078 Eh/α   predicted    -0.2315171E-03 (*******%)
   displ. norm   :     0.0901607 α      lambda       -0.3897462E-03
   maximum displ.:     0.0575730 α      in ANC's #2, #1, #3, ...

........................................................................
.............................. CYCLE   64 ..............................
........................................................................

 iter      E             dE          RMSdq      gap      omega  full diag
   1    -33.1150317 -0.331150E+02  0.702E-02    3.55       0.0  T
   2    -33.1150380 -0.622247E-05  0.447E-02    3.54       1.0  T
   3    -33.1150411 -0.317853E-05  0.291E-02    3.55       1.0  T
   4    -33.1150482 -0.705848E-05  0.659E-03    3.55       3.5  T
   5    -33.1150485 -0.272456E-06  0.242E-03    3.55       9.5  T
   6    -33.1150485 -0.480944E-08  0.687E-04    3.55      33.4  T
   7    -33.1150485 -0.497181E-09  0.357E-04    3.55      64.2  T
     SCC iter.                  ...        0 min,  0.007 sec
     gradient                   ...        0 min,  0.003 sec
 * total energy  :   -32.7405815 Eh     change       -0.2130073E-03 Eh
   gradient norm :     0.0091303 Eh/α   predicted    -0.1964599E-03 (  -7.77%)
   displ. norm   :     0.1747198 α      lambda       -0.2127004E-03
   maximum displ.:     0.1318227 α      in ANC's #1, #3, #2, ...

........................................................................
.............................. CYCLE   65 ..............................
........................................................................

 iter      E             dE          RMSdq      gap      omega  full diag
   1    -33.1163857 -0.331164E+02  0.864E-02    3.55       0.0  T
   2    -33.1163886 -0.295830E-05  0.480E-02    3.55       1.0  T
   3    -33.1163860  0.265610E-05  0.161E-02    3.55       1.4  T
   4    -33.1163888 -0.288777E-05  0.700E-03    3.54       3.3  T
   5    -33.1163893 -0.459873E-06  0.294E-03    3.54       7.8  T
   6    -33.1163893 -0.756262E-08  0.634E-04    3.54      36.2  T
   7    -33.1163893 -0.335191E-09  0.441E-04    3.54      52.0  T
     SCC iter.                  ...        0 min,  0.006 sec
     gradient                   ...        0 min,  0.003 sec
 * total energy  :   -32.7406604 Eh     change       -0.7899582E-04 Eh
   gradient norm :     0.0077397 Eh/α   predicted    -0.1096028E-03 (  38.75%)
   displ. norm   :     0.2745680 α      lambda       -0.1957172E-03
   maximum displ.:     0.2353284 α      in ANC's #1, #3, #5, ...

........................................................................
.............................. CYCLE   66 ..............................
........................................................................

 iter      E             dE          RMSdq      gap      omega  full diag
   1    -33.1159728 -0.331160E+02  0.946E-02    3.54       0.0  T
   2    -33.1159739 -0.109194E-05  0.516E-02    3.54       1.0  T
   3    -33.1159689  0.504251E-05  0.188E-02    3.54       1.2  T
   4    -33.1159747 -0.582185E-05  0.457E-03    3.54       5.0  T
   5    -33.1159748 -0.716878E-07  0.188E-03    3.54      12.2  T
   6    -33.1159748 -0.165757E-08  0.330E-04    3.54      69.4  T
   7    -33.1159748 -0.356366E-09  0.139E-04    3.54     164.6  T
     SCC iter.                  ...        0 min,  0.007 sec
     gradient                   ...        0 min,  0.004 sec
 * total energy  :   -32.7408192 Eh     change       -0.1587293E-03 Eh
   gradient norm :     0.0064018 Eh/α   predicted    -0.1052440E-03 ( -33.70%)
   displ. norm   :     0.4783124 α      lambda       -0.3241166E-03
   maximum displ.:     0.3971251 α      in ANC's #1, #5, #3, ...
 * RMSD in coord.:     1.7504690 α      energy gain  -0.6455037E-02 Eh

generating ANC from exact Hessian ...
Using Lindh-Hessian (1995)
 Shifting diagonal of input Hessian by    9.7513489280862224E-003
 Lowest  eigenvalues of input Hessian
    0.000000    0.000000    0.000000    0.000000    0.000000    0.000000
    0.010000    0.010198    0.010474    0.010955    0.011096    0.011159
    0.013666    0.015947    0.019403    0.020998    0.022365    0.030135
 Highest eigenvalues
    1.400085    1.591163    1.962412    2.383579    2.948570    3.248945


........................................................................
.............................. CYCLE   67 ..............................
........................................................................

 iter      E             dE          RMSdq      gap      omega  full diag
   1    -33.1151490 -0.331151E+02  0.179E-01    3.53       0.0  T
   2    -33.1151530 -0.395803E-05  0.981E-02    3.53       1.0  T
   3    -33.1151487  0.423863E-05  0.207E-02    3.53       1.1  T
   4    -33.1151538 -0.505771E-05  0.955E-03    3.53       2.4  T
   5    -33.1151545 -0.741500E-06  0.409E-03    3.53       5.6  T
   6    -33.1151546 -0.250858E-07  0.103E-03    3.53      22.2  T
   7    -33.1151546 -0.750596E-09  0.681E-04    3.53      33.7  T
   8    -33.1151546 -0.382670E-09  0.246E-04    3.53      93.4  T
     SCC iter.                  ...        0 min,  0.008 sec
     gradient                   ...        0 min,  0.004 sec
 * total energy  :   -32.7410191 Eh     change       -0.1999171E-03 Eh
   gradient norm :     0.0086887 Eh/α   predicted     0.0000000E+00 (-100.00%)
   displ. norm   :     0.0784373 α      lambda        0.3264068E-04
   maximum displ.:     0.0487047 α      in ANC's #9, #6, #3, ...

........................................................................
.............................. CYCLE   68 ..............................
........................................................................

 iter      E             dE          RMSdq      gap      omega  full diag
   1    -33.1159540 -0.331160E+02  0.821E-02    3.53       0.0  T
   2    -33.1159552 -0.120830E-05  0.480E-02    3.52       1.0  T
   3    -33.1159465  0.874010E-05  0.356E-02    3.53       1.0  T
   4    -33.1159625 -0.160142E-04  0.319E-03    3.52       7.2  T
   5    -33.1159625 -0.184924E-07  0.148E-03    3.52      15.5  T
   6    -33.1159625 -0.585814E-09  0.405E-04    3.52      56.7  T
   7    -33.1159625 -0.275151E-09  0.154E-04    3.52     149.2  T
     SCC iter.                  ...        0 min,  0.008 sec
     gradient                   ...        0 min,  0.004 sec
 * total energy  :   -32.7410391 Eh     change       -0.2005535E-04 Eh
   gradient norm :     0.0041521 Eh/α   predicted    -0.6762517E-04 ( 237.19%)
   displ. norm   :     0.1396599 α      lambda       -0.2508872E-03
   maximum displ.:     0.0790239 α      in ANC's #6, #7, #9, ...

........................................................................
.............................. CYCLE   69 ..............................
........................................................................

 iter      E             dE          RMSdq      gap      omega  full diag
   1    -33.1178613 -0.331179E+02  0.114E-01    3.54       0.0  T
   2    -33.1178631 -0.179049E-05  0.623E-02    3.54       1.0  T
   3    -33.1178622  0.886987E-06  0.120E-02    3.54       1.9  T
   4    -33.1178633 -0.108702E-05  0.574E-03    3.54       4.0  T
   5    -33.1178635 -0.211695E-06  0.292E-03    3.54       7.9  T
   6    -33.1178635 -0.278522E-07  0.106E-03    3.54      21.6  T
   7    -33.1178635 -0.132613E-08  0.625E-04    3.54      36.7  T
   8    -33.1178635 -0.180073E-09  0.294E-04    3.54      77.9  T
     SCC iter.                  ...        0 min,  0.007 sec
     gradient                   ...        0 min,  0.003 sec
 * total energy  :   -32.7411035 Eh     change       -0.6431212E-04 Eh
   gradient norm :     0.0111151 Eh/α   predicted    -0.1278949E-03 (  98.87%)
   displ. norm   :     0.0706250 α      lambda       -0.1801489E-03
   maximum displ.:     0.0441649 α      in ANC's #6, #3, #13, ...

........................................................................
.............................. CYCLE   70 ..............................
........................................................................

 iter      E             dE          RMSdq      gap      omega  full diag
   1    -33.1174271 -0.331174E+02  0.600E-02    3.54       0.0  T
   2    -33.1174277 -0.580204E-06  0.340E-02    3.54       1.0  T
   3    -33.1174273  0.436888E-06  0.722E-03    3.54       3.2  T
   4    -33.1174278 -0.535622E-06  0.367E-03    3.54       6.2  T
   5    -33.1174279 -0.588355E-07  0.187E-03    3.54      12.3  T
   6    -33.1174279 -0.111135E-07  0.420E-04    3.54      54.6  T
   7    -33.1174279 -0.502602E-09  0.288E-04    3.54      79.7  T
     SCC iter.                  ...        0 min,  0.007 sec
     gradient                   ...        0 min,  0.003 sec
 * total energy  :   -32.7412074 Eh     change       -0.1039899E-03 Eh
   gradient norm :     0.0041453 Eh/α   predicted    -0.9052546E-04 ( -12.95%)
   displ. norm   :     0.1133133 α      lambda       -0.9151778E-04
   maximum displ.:     0.0754760 α      in ANC's #6, #3, #9, ...

........................................................................
.............................. CYCLE   71 ..............................
........................................................................

 iter      E             dE          RMSdq      gap      omega  full diag
   1    -33.1165343 -0.331165E+02  0.727E-02    3.54       0.0  T
   2    -33.1165350 -0.613627E-06  0.399E-02    3.54       1.0  T
   3    -33.1165304  0.454186E-05  0.181E-02    3.54       1.3  T
   4    -33.1165356 -0.522096E-05  0.385E-03    3.54       6.0  T
   5    -33.1165357 -0.337833E-07  0.178E-03    3.54      12.9  T
   6    -33.1165357 -0.168240E-08  0.417E-04    3.54      55.0  T
   7    -33.1165357 -0.222300E-09  0.266E-04    3.54      86.4  T
     SCC iter.                  ...        0 min,  0.006 sec
     gradient                   ...        0 min,  0.003 sec
 * total energy  :   -32.7412768 Eh     change       -0.6936856E-04 Eh
   gradient norm :     0.0049135 Eh/α   predicted    -0.4635678E-04 ( -33.17%)
   displ. norm   :     0.2056916 α      lambda       -0.1076144E-03
   maximum displ.:     0.1275851 α      in ANC's #6, #3, #9, ...

........................................................................
.............................. CYCLE   72 ..............................
........................................................................

 iter      E             dE          RMSdq      gap      omega  full diag
   1    -33.1156903 -0.331157E+02  0.124E-01    3.54       0.0  T
   2    -33.1156916 -0.137256E-05  0.683E-02    3.54       1.0  T
   3    -33.1156753  0.163785E-04  0.341E-02    3.54       1.0  T
   4    -33.1156942 -0.189560E-04  0.518E-03    3.54       4.4  T
   5    -33.1156943 -0.635291E-07  0.221E-03    3.54      10.4  T
   6    -33.1156943 -0.289667E-08  0.225E-04    3.54     101.9  T
   7    -33.1156943 -0.165912E-09  0.976E-05    3.54     235.1  T
     SCC iter.                  ...        0 min,  0.006 sec
     gradient                   ...        0 min,  0.004 sec
 * total energy  :   -32.7413528 Eh     change       -0.7594634E-04 Eh
   gradient norm :     0.0094866 Eh/α   predicted    -0.5608668E-04 ( -26.15%)
   displ. norm   :     0.1959681 α      lambda       -0.9117441E-04
   maximum displ.:     0.1121232 α      in ANC's #6, #3, #1, ...

........................................................................
.............................. CYCLE   73 ..............................
........................................................................

 iter      E             dE          RMSdq      gap      omega  full diag
   1    -33.1155492 -0.331155E+02  0.109E-01    3.54       0.0  T
   2    -33.1155502 -0.993520E-06  0.598E-02    3.53       1.0  T
   3    -33.1155426  0.755894E-05  0.231E-02    3.54       1.0  T
   4    -33.1155512 -0.861908E-05  0.465E-03    3.53       4.9  T
   5    -33.1155513 -0.610294E-07  0.198E-03    3.53      11.6  T
   6    -33.1155513 -0.287838E-08  0.453E-04    3.53      50.6  T
   7    -33.1155513 -0.189715E-09  0.268E-04    3.53      85.5  T
     SCC iter.                  ...        0 min,  0.006 sec
     gradient                   ...        0 min,  0.003 sec
 * total energy  :   -32.7414198 Eh     change       -0.6706649E-04 Eh
   gradient norm :     0.0090496 Eh/α   predicted    -0.4734188E-04 ( -29.41%)
   displ. norm   :     0.1854943 α      lambda       -0.1056002E-03
   maximum displ.:     0.1002190 α      in ANC's #6, #3, #1, ...

........................................................................
.............................. CYCLE   74 ..............................
........................................................................

 iter      E             dE          RMSdq      gap      omega  full diag
   1    -33.1165698 -0.331166E+02  0.100E-01    3.53       0.0  T
   2    -33.1165705 -0.656414E-06  0.550E-02    3.53       1.0  T
   3    -33.1165701  0.447942E-06  0.880E-03    3.53       2.6  T
   4    -33.1165707 -0.623674E-06  0.485E-03    3.53       4.7  T
   5    -33.1165708 -0.804407E-07  0.236E-03    3.53       9.7  T
   6    -33.1165708 -0.185215E-07  0.103E-03    3.53      22.4  T
   7    -33.1165708 -0.949520E-09  0.537E-04    3.53      42.7  T
   8    -33.1165708 -0.439542E-09  0.130E-04    3.53     177.0  T
     SCC iter.                  ...        0 min,  0.008 sec
     gradient                   ...        0 min,  0.004 sec
 * total energy  :   -32.7414974 Eh     change       -0.7756915E-04 Eh
   gradient norm :     0.0042252 Eh/α   predicted    -0.5461755E-04 ( -29.59%)
   displ. norm   :     0.2701040 α      lambda       -0.9317420E-04
   maximum displ.:     0.1677754 α      in ANC's #6, #3, #1, ...

........................................................................
.............................. CYCLE   75 ..............................
........................................................................

 iter      E             dE          RMSdq      gap      omega  full diag
   1    -33.1168506 -0.331169E+02  0.158E-01    3.54       0.0  T
   2    -33.1168521 -0.151028E-05  0.857E-02    3.53       1.0  T
   3    -33.1168491  0.293689E-05  0.168E-02    3.54       1.4  T
   4    -33.1168526 -0.345615E-05  0.680E-03    3.54       3.4  T
   5    -33.1168528 -0.218289E-06  0.298E-03    3.54       7.7  T
   6    -33.1168528 -0.210666E-07  0.698E-04    3.54      32.9  T
   7    -33.1168528 -0.138995E-08  0.479E-04    3.54      47.9  T
     SCC iter.                  ...        0 min,  0.007 sec
     gradient                   ...        0 min,  0.003 sec
 * total energy  :   -32.7415476 Eh     change       -0.5017400E-04 Eh
   gradient norm :     0.0093284 Eh/α   predicted    -0.4998788E-04 (  -0.37%)
   displ. norm   :     0.1415805 α      lambda       -0.1136594E-03
   maximum displ.:     0.0778704 α      in ANC's #6, #2, #1, ...

........................................................................
.............................. CYCLE   76 ..............................
........................................................................

 iter      E             dE          RMSdq      gap      omega  full diag
   1    -33.1188127 -0.331188E+02  0.839E-02    3.53       0.0  T
   2    -33.1188139 -0.115581E-05  0.478E-02    3.53       1.0  T
   3    -33.1188138  0.201811E-07  0.657E-03    3.54       3.5  T
   4    -33.1188141 -0.256649E-06  0.381E-03    3.54       6.0  T
   5    -33.1188141  0.586127E-08  0.267E-03    3.54       8.6  T
   6    -33.1188142 -0.552539E-07  0.118E-03    3.54      19.4  T
   7    -33.1188142 -0.144233E-08  0.777E-04    3.54      29.5  T
   8    -33.1188142 -0.889308E-09  0.203E-04    3.54     113.0  T
     SCC iter.                  ...        0 min,  0.009 sec
     gradient                   ...        0 min,  0.004 sec
 * total energy  :   -32.7416066 Eh     change       -0.5898962E-04 Eh
   gradient norm :     0.0034814 Eh/α   predicted    -0.5797052E-04 (  -1.73%)
   displ. norm   :     0.2765472 α      lambda       -0.7340703E-04
   maximum displ.:     0.1753468 α      in ANC's #6, #2, #1, ...

........................................................................
.............................. CYCLE   77 ..............................
........................................................................

 iter      E             dE          RMSdq      gap      omega  full diag
   1    -33.1171004 -0.331171E+02  0.159E-01    3.53       0.0  T
   2    -33.1171026 -0.223883E-05  0.872E-02    3.53       1.0  T
   3    -33.1170854  0.172033E-04  0.348E-02    3.53       1.0  T
   4    -33.1171052 -0.197550E-04  0.670E-03    3.53       3.4  T
   5    -33.1171053 -0.108127E-06  0.283E-03    3.53       8.1  T
   6    -33.1171053 -0.117287E-07  0.558E-04    3.53      41.1  T
   7    -33.1171053 -0.202559E-08  0.262E-04    3.53      87.5  T
     SCC iter.                  ...        0 min,  0.007 sec
     gradient                   ...        0 min,  0.003 sec
 * total energy  :   -32.7416547 Eh     change       -0.4815532E-04 Eh
   gradient norm :     0.0059834 Eh/α   predicted    -0.3951113E-04 ( -17.95%)
   displ. norm   :     0.1365862 α      lambda       -0.5906003E-04
   maximum displ.:     0.0946967 α      in ANC's #6, #2, #1, ...

........................................................................
.............................. CYCLE   78 ..............................
........................................................................

 iter      E             dE          RMSdq      gap      omega  full diag
   1    -33.1170533 -0.331171E+02  0.875E-02    3.53       0.0  T
   2    -33.1170539 -0.577614E-06  0.482E-02    3.53       1.0  T
   3    -33.1170421  0.118021E-04  0.306E-02    3.53       1.0  T
   4    -33.1170566 -0.145440E-04  0.353E-03    3.53       6.5  T
   5    -33.1170566 -0.150473E-07  0.160E-03    3.53      14.4  T
   6    -33.1170566 -0.337157E-08  0.262E-04    3.53      87.6  T
   7    -33.1170566 -0.309079E-09  0.134E-04    3.53     171.4  T
     SCC iter.                  ...        0 min,  0.006 sec
     gradient                   ...        0 min,  0.003 sec
 * total energy  :   -32.7416979 Eh     change       -0.4322173E-04 Eh
   gradient norm :     0.0072379 Eh/α   predicted    -0.3008114E-04 ( -30.40%)
   displ. norm   :     0.1742662 α      lambda       -0.1297893E-03
   maximum displ.:     0.1201373 α      in ANC's #3, #5, #6, ...

........................................................................
.............................. CYCLE   79 ..............................
........................................................................

 iter      E             dE          RMSdq      gap      omega  full diag
   1    -33.1181206 -0.331181E+02  0.104E-01    3.53       0.0  T
   2    -33.1181217 -0.107316E-05  0.594E-02    3.53       1.0  T
   3    -33.1181053  0.164001E-04  0.432E-02    3.53       1.0  T
   4    -33.1181312 -0.259323E-04  0.434E-03    3.53       5.3  T
   5    -33.1181312 -0.985062E-08  0.197E-03    3.53      11.6  T
   6    -33.1181312 -0.183108E-08  0.449E-04    3.53      51.1  T
   7    -33.1181312 -0.111008E-09  0.298E-04    3.53      77.0  T
     SCC iter.                  ...        0 min,  0.006 sec
     gradient                   ...        0 min,  0.003 sec
 * total energy  :   -32.7417483 Eh     change       -0.5031768E-04 Eh
   gradient norm :     0.0071506 Eh/α   predicted    -0.6686650E-04 (  32.89%)
   displ. norm   :     0.2679630 α      lambda       -0.9082004E-04
   maximum displ.:     0.1781734 α      in ANC's #6, #1, #2, ...

........................................................................
.............................. CYCLE   80 ..............................
........................................................................

 iter      E             dE          RMSdq      gap      omega  full diag
   1    -33.1160670 -0.331161E+02  0.158E-01    3.53       0.0  T
   2    -33.1160690 -0.208804E-05  0.865E-02    3.53       1.0  T
   3    -33.1160533  0.157784E-04  0.334E-02    3.53       1.0  T
   4    -33.1160714 -0.180937E-04  0.679E-03    3.53       3.4  T
   5    -33.1160714 -0.740578E-07  0.256E-03    3.53       8.9  T
   6    -33.1160714 -0.858419E-08  0.484E-04    3.53      47.4  T
   7    -33.1160714 -0.203645E-08  0.216E-04    3.53     106.2  T
     SCC iter.                  ...        0 min,  0.006 sec
     gradient                   ...        0 min,  0.003 sec
 * total energy  :   -32.7417826 Eh     change       -0.3434853E-04 Eh
   gradient norm :     0.0071992 Eh/α   predicted    -0.4868625E-04 (  41.74%)
   displ. norm   :     0.0795374 α      lambda       -0.6509310E-04
   maximum displ.:     0.0489562 α      in ANC's #6, #5, #2, ...

........................................................................
.............................. CYCLE   81 ..............................
........................................................................

 iter      E             dE          RMSdq      gap      omega  full diag
   1    -33.1180153 -0.331180E+02  0.497E-02    3.53       0.0  T
   2    -33.1180159 -0.628227E-06  0.295E-02    3.53       1.0  T
   3    -33.1180121  0.380765E-05  0.212E-02    3.53       1.1  T
   4    -33.1180179 -0.582401E-05  0.333E-03    3.53       6.9  T
   5    -33.1180180 -0.172422E-07  0.182E-03    3.53      12.6  T
   6    -33.1180180 -0.226286E-08  0.772E-04    3.53      29.7  T
   7    -33.1180180 -0.143476E-08  0.457E-04    3.53      50.2  T
     SCC iter.                  ...        0 min,  0.006 sec
     gradient                   ...        0 min,  0.004 sec
 * total energy  :   -32.7418146 Eh     change       -0.3201489E-04 Eh
   gradient norm :     0.0046237 Eh/α   predicted    -0.3275415E-04 (   2.31%)
   displ. norm   :     0.0627956 α      lambda       -0.2848546E-04
   maximum displ.:     0.0290977 α      in ANC's #1, #6, #3, ...

........................................................................
.............................. CYCLE   82 ..............................
........................................................................

 iter      E             dE          RMSdq      gap      omega  full diag
   1    -33.1178942 -0.331179E+02  0.349E-02    3.53       0.0  T
   2    -33.1178944 -0.177952E-06  0.197E-02    3.53       1.2  T
   3    -33.1178941  0.271878E-06  0.494E-03    3.53       4.6  T
   4    -33.1178944 -0.303542E-06  0.223E-03    3.53      10.3  T
   5    -33.1178945 -0.361358E-07  0.116E-03    3.53      19.8  T
   6    -33.1178945 -0.166107E-08  0.483E-04    3.53      47.5  T
   7    -33.1178945 -0.190461E-09  0.223E-04    3.53     102.7  T
     SCC iter.                  ...        0 min,  0.006 sec
     gradient                   ...        0 min,  0.003 sec
 * total energy  :   -32.7418358 Eh     change       -0.2122558E-04 Eh
   gradient norm :     0.0020186 Eh/α   predicted    -0.1430049E-04 ( -32.63%)
   displ. norm   :     0.1820642 α      lambda       -0.4426591E-04
   maximum displ.:     0.1056453 α      in ANC's #6, #1, #3, ...

........................................................................
.............................. CYCLE   83 ..............................
........................................................................

 iter      E             dE          RMSdq      gap      omega  full diag
   1    -33.1174756 -0.331175E+02  0.104E-01    3.53       0.0  T
   2    -33.1174764 -0.814906E-06  0.575E-02    3.53       1.0  T
   3    -33.1174673  0.906714E-05  0.251E-02    3.53       1.0  T
   4    -33.1174778 -0.104247E-04  0.428E-03    3.53       5.4  T
   5    -33.1174778 -0.275310E-07  0.159E-03    3.53      14.5  T
   6    -33.1174778 -0.340057E-08  0.386E-04    3.53      59.4  T
   7    -33.1174778 -0.300830E-09  0.244E-04    3.53      94.0  T
     SCC iter.                  ...        0 min,  0.007 sec
     gradient                   ...        0 min,  0.004 sec
 * total energy  :   -32.7418578 Eh     change       -0.2192239E-04 Eh
   gradient norm :     0.0040865 Eh/α   predicted    -0.2287220E-04 (   4.33%)
   displ. norm   :     0.0359852 α      lambda       -0.1615038E-04
   maximum displ.:     0.0216091 α      in ANC's #1, #5, #4, ...

........................................................................
.............................. CYCLE   84 ..............................
........................................................................

 iter      E             dE          RMSdq      gap      omega  full diag
   1    -33.1174777 -0.331175E+02  0.194E-02    3.53       0.0  T
   2    -33.1174778 -0.119921E-06  0.110E-02    3.53       2.1  T
   3    -33.1174775  0.364910E-06  0.529E-03    3.53       4.3  T
   4    -33.1174779 -0.444640E-06  0.103E-03    3.53      22.2  T
   5    -33.1174779 -0.604003E-08  0.458E-04    3.53      50.1  T
   6    -33.1174779 -0.184038E-09  0.207E-04    3.53     110.9  T
     SCC iter.                  ...        0 min,  0.006 sec
     gradient                   ...        0 min,  0.004 sec
 * total energy  :   -32.7418683 Eh     change       -0.1050609E-04 Eh
   gradient norm :     0.0019344 Eh/α   predicted    -0.8088327E-05 ( -23.01%)
   displ. norm   :     0.0848012 α      lambda       -0.1729000E-04
   maximum displ.:     0.0548623 α      in ANC's #5, #1, #8, ...

........................................................................
.............................. CYCLE   85 ..............................
........................................................................

 iter      E             dE          RMSdq      gap      omega  full diag
   1    -33.1178318 -0.331178E+02  0.461E-02    3.53       0.0  T
   2    -33.1178323 -0.559114E-06  0.255E-02    3.53       1.0  T
   3    -33.1178315  0.816043E-06  0.813E-03    3.53       2.8  T
   4    -33.1178326 -0.104866E-05  0.241E-03    3.53       9.5  T
   5    -33.1178326 -0.344988E-07  0.109E-03    3.53      21.1  T
   6    -33.1178326 -0.191525E-08  0.418E-04    3.53      54.8  T
   7    -33.1178326 -0.369681E-09  0.214E-04    3.53     107.3  T
     SCC iter.                  ...        0 min,  0.008 sec
     gradient                   ...        0 min,  0.003 sec
 * total energy  :   -32.7418818 Eh     change       -0.1355964E-04 Eh
   gradient norm :     0.0025996 Eh/α   predicted    -0.8675371E-05 ( -36.02%)
   displ. norm   :     0.1125196 α      lambda       -0.1794828E-04
   maximum displ.:     0.0646410 α      in ANC's #1, #6, #10, ...

........................................................................
.............................. CYCLE   86 ..............................
........................................................................

 iter      E             dE          RMSdq      gap      omega  full diag
   1    -33.1172876 -0.331173E+02  0.541E-02    3.53       0.0  T
   2    -33.1172881 -0.488111E-06  0.293E-02    3.53       1.0  T
   3    -33.1172860  0.210994E-05  0.129E-02    3.53       1.8  T
   4    -33.1172885 -0.246874E-05  0.301E-03    3.53       7.6  T
   5    -33.1172885 -0.378720E-07  0.145E-03    3.53      15.8  T
   6    -33.1172885 -0.693042E-09  0.504E-04    3.53      45.5  T
   7    -33.1172885 -0.446931E-09  0.315E-04    3.53      72.9  T
     SCC iter.                  ...        0 min,  0.007 sec
     gradient                   ...        0 min,  0.004 sec
 * total energy  :   -32.7418897 Eh     change       -0.7814349E-05 Eh
   gradient norm :     0.0026066 Eh/α   predicted    -0.9095500E-05 (  16.39%)
   displ. norm   :     0.0260690 α      lambda       -0.1086097E-04
   maximum displ.:     0.0158078 α      in ANC's #3, #5, #11, ...

........................................................................
.............................. CYCLE   87 ..............................
........................................................................

 iter      E             dE          RMSdq      gap      omega  full diag
   1    -33.1175823 -0.331176E+02  0.135E-02    3.52       0.0  T
   2    -33.1175824 -0.888723E-07  0.761E-03    3.53       3.0  T
   3    -33.1175823  0.132870E-06  0.352E-03    3.52       6.5  T
   4    -33.1175824 -0.156780E-06  0.116E-03    3.52      19.7  T
   5    -33.1175825 -0.140824E-07  0.524E-04    3.52      43.8  T
   6    -33.1175825 -0.239332E-09  0.221E-04    3.52     103.6  T
     SCC iter.                  ...        0 min,  0.005 sec
     gradient                   ...        0 min,  0.003 sec
 * total energy  :   -32.7418969 Eh     change       -0.7225151E-05 Eh
   gradient norm :     0.0018288 Eh/α   predicted    -0.5435998E-05 ( -24.76%)
   displ. norm   :     0.0764979 α      lambda       -0.9698883E-05
   maximum displ.:     0.0389166 α      in ANC's #1, #10, #6, ...

........................................................................
.............................. CYCLE   88 ..............................
........................................................................

 iter      E             dE          RMSdq      gap      omega  full diag
   1    -33.1175392 -0.331175E+02  0.359E-02    3.52       0.0  T
   2    -33.1175396 -0.404275E-06  0.204E-02    3.52       1.1  T
   3    -33.1175396 -0.905634E-08  0.332E-03    3.52       6.9  T
   4    -33.1175397 -0.430024E-07  0.179E-03    3.52      12.8  T
   5    -33.1175397  0.481724E-08  0.126E-03    3.52      18.2  T
   6    -33.1175397 -0.127371E-07  0.555E-04    3.52      41.3  T
   7    -33.1175397 -0.515257E-09  0.365E-04    3.52      62.9  T
     SCC iter.                  ...        0 min,  0.006 sec
     gradient                   ...        0 min,  0.004 sec
 * total energy  :   -32.7419041 Eh     change       -0.7243103E-05 Eh
   gradient norm :     0.0014632 Eh/α   predicted    -0.4863934E-05 ( -32.85%)
   displ. norm   :     0.0786733 α      lambda       -0.6429271E-05
   maximum displ.:     0.0474605 α      in ANC's #1, #6, #10, ...

........................................................................
.............................. CYCLE   89 ..............................
........................................................................

 iter      E             dE          RMSdq      gap      omega  full diag
   1    -33.1175510 -0.331176E+02  0.337E-02    3.52       0.0  T
   2    -33.1175512 -0.185595E-06  0.181E-02    3.52       1.3  T
   3    -33.1175511  0.929299E-07  0.387E-03    3.52       5.9  T
   4    -33.1175512 -0.998949E-07  0.182E-03    3.52      12.6  T
   5    -33.1175512 -0.306428E-07  0.841E-04    3.52      27.3  T
   6    -33.1175512 -0.141650E-08  0.302E-04    3.52      76.1  T
     SCC iter.                  ...        0 min,  0.005 sec
     gradient                   ...        0 min,  0.004 sec
 * total energy  :   -32.7419109 Eh     change       -0.6790934E-05 Eh
   gradient norm :     0.0015772 Eh/α   predicted    -0.3227702E-05 ( -52.47%)
   displ. norm   :     0.0975601 α      lambda       -0.7845884E-05
   maximum displ.:     0.0547587 α      in ANC's #1, #10, #6, ...

........................................................................
.............................. CYCLE   90 ..............................
........................................................................

 iter      E             dE          RMSdq      gap      omega  full diag
   1    -33.1176364 -0.331176E+02  0.444E-02    3.52       0.0  T
   2    -33.1176366 -0.234274E-06  0.241E-02    3.52       1.0  T
   3    -33.1176363  0.318567E-06  0.572E-03    3.52       4.0  T
   4    -33.1176367 -0.383652E-06  0.221E-03    3.52      10.4  T
   5    -33.1176367 -0.354521E-07  0.996E-04    3.52      23.0  T
   6    -33.1176367 -0.125863E-08  0.401E-04    3.52      57.3  T
     SCC iter.                  ...        0 min,  0.006 sec
     gradient                   ...        0 min,  0.003 sec
 * total energy  :   -32.7419179 Eh     change       -0.6992119E-05 Eh
   gradient norm :     0.0009787 Eh/α   predicted    -0.3941913E-05 ( -43.62%)
   displ. norm   :     0.0824347 α      lambda       -0.3622813E-05
   maximum displ.:     0.0474231 α      in ANC's #1, #6, #10, ...

........................................................................
.............................. CYCLE   91 ..............................
........................................................................

 iter      E             dE          RMSdq      gap      omega  full diag
   1    -33.1174879 -0.331175E+02  0.379E-02    3.52       0.0  T
   2    -33.1174880 -0.137064E-06  0.206E-02    3.52       1.1  T
   3    -33.1174879  0.144172E-06  0.410E-03    3.52       5.6  T
   4    -33.1174880 -0.171277E-06  0.179E-03    3.52      12.8  T
   5    -33.1174880 -0.216774E-07  0.862E-04    3.52      26.6  T
   6    -33.1174880 -0.145468E-08  0.346E-04    3.52      66.3  T
     SCC iter.                  ...        0 min,  0.005 sec
     gradient                   ...        0 min,  0.004 sec
 * total energy  :   -32.7419213 Eh     change       -0.3360149E-05 Eh
   gradient norm :     0.0016359 Eh/α   predicted    -0.1818123E-05 ( -45.89%)
   displ. norm   :     0.0555163 α      lambda       -0.4066974E-05
   maximum displ.:     0.0321097 α      in ANC's #2, #3, #10, ...

........................................................................
.............................. CYCLE   92 ..............................
........................................................................

 iter      E             dE          RMSdq      gap      omega  full diag
   1    -33.1179043 -0.331179E+02  0.257E-02    3.52       0.0  T
   2    -33.1179044 -0.876860E-07  0.140E-02    3.52       1.6  T
   3    -33.1179043  0.145063E-06  0.408E-03    3.52       5.6  T
   4    -33.1179045 -0.192204E-06  0.149E-03    3.52      15.4  T
   5    -33.1179045 -0.626619E-08  0.949E-04    3.52      24.2  T
   6    -33.1179045 -0.745274E-09  0.369E-04    3.52      62.1  T
     SCC iter.                  ...        0 min,  0.005 sec
     gradient                   ...        0 min,  0.003 sec
 * total energy  :   -32.7419241 Eh     change       -0.2804213E-05 Eh
   gradient norm :     0.0011146 Eh/α   predicted    -0.2040798E-05 ( -27.22%)
   displ. norm   :     0.0866959 α      lambda       -0.4054349E-05
   maximum displ.:     0.0505473 α      in ANC's #1, #6, #10, ...
 * RMSD in coord.:     0.5687983 α      energy gain  -0.1104890E-02 Eh

generating ANC from exact Hessian ...
Using Lindh-Hessian (1995)
 Shifting diagonal of input Hessian by    9.7514942525687032E-003
 Lowest  eigenvalues of input Hessian
    0.000000    0.000000    0.000000    0.000000    0.000000    0.000000
    0.010000    0.010145    0.010188    0.010446    0.010880    0.010942
    0.011020    0.016891    0.017197    0.021072    0.022176    0.030191
 Highest eigenvalues
    1.414197    1.590244    1.960363    2.389995    2.983762    3.209839


........................................................................
.............................. CYCLE   93 ..............................
........................................................................

 iter      E             dE          RMSdq      gap      omega  full diag
   1    -33.1175545 -0.331176E+02  0.404E-02    3.52       0.0  T
   2    -33.1175546 -0.186912E-06  0.222E-02    3.52       1.0  T
   3    -33.1175543  0.376074E-06  0.565E-03    3.52       4.1  T
   4    -33.1175547 -0.430351E-06  0.197E-03    3.52      11.7  T
   5    -33.1175547 -0.191810E-07  0.983E-04    3.52      23.3  T
   6    -33.1175547 -0.123615E-08  0.429E-04    3.52      53.5  T
     SCC iter.                  ...        0 min,  0.006 sec
     gradient                   ...        0 min,  0.004 sec
 * total energy  :   -32.7419279 Eh     change       -0.3882909E-05 Eh
   gradient norm :     0.0014476 Eh/α   predicted     0.0000000E+00 (-100.00%)
   displ. norm   :     0.0202151 α      lambda       -0.2837479E-06
   maximum displ.:     0.0107789 α      in ANC's #5, #6, #2, ...

........................................................................
.............................. CYCLE   94 ..............................
........................................................................

 iter      E             dE          RMSdq      gap      omega  full diag
   1    -33.1177660 -0.331178E+02  0.156E-02    3.51       0.0  T
   2    -33.1177660 -0.494861E-07  0.896E-03    3.51       2.6  T
   3    -33.1177657  0.324701E-06  0.500E-03    3.51       4.6  T
   4    -33.1177661 -0.386435E-06  0.875E-04    3.51      26.2  T
   5    -33.1177661 -0.314491E-08  0.533E-04    3.51      43.0  T
     SCC iter.                  ...        0 min,  0.007 sec
     gradient                   ...        0 min,  0.004 sec
 * total energy  :   -32.7419320 Eh     change       -0.4037714E-05 Eh
   gradient norm :     0.0007039 Eh/α   predicted    -0.2216260E-05 ( -45.11%)
   displ. norm   :     0.0451471 α      lambda       -0.5037400E-05
   maximum displ.:     0.0226295 α      in ANC's #4, #6, #2, ...

........................................................................
.............................. CYCLE   95 ..............................
........................................................................

 iter      E             dE          RMSdq      gap      omega  full diag
   1    -33.1179214 -0.331179E+02  0.328E-02    3.51       0.0  T
   2    -33.1179216 -0.130252E-06  0.184E-02    3.51       1.2  T
   3    -33.1179202  0.142954E-05  0.105E-02    3.51       2.2  T
   4    -33.1179218 -0.169850E-05  0.165E-03    3.51      13.9  T
   5    -33.1179219 -0.597571E-08  0.975E-04    3.51      23.5  T
   6    -33.1179219 -0.104584E-08  0.409E-04    3.51      56.1  T
     SCC iter.                  ...        0 min,  0.006 sec
     gradient                   ...        0 min,  0.004 sec
 * total energy  :   -32.7419330 Eh     change       -0.9837825E-06 Eh
   gradient norm :     0.0015819 Eh/α   predicted    -0.2525359E-05 ( 156.70%)
   displ. norm   :     0.1431490 α      lambda       -0.1829290E-04
   maximum displ.:     0.0879894 α      in ANC's #5, #6, #2, ...

........................................................................
.............................. CYCLE   96 ..............................
........................................................................

 iter      E             dE          RMSdq      gap      omega  full diag
   1    -33.1178445 -0.331178E+02  0.117E-01    3.51       0.0  T
   2    -33.1178464 -0.183411E-05  0.651E-02    3.51       1.0  T
   3    -33.1178281  0.182308E-04  0.371E-02    3.51       1.0  T
   4    -33.1178500 -0.218605E-04  0.461E-03    3.51       5.0  T
   5    -33.1178501 -0.551330E-07  0.256E-03    3.51       9.0  T
   6    -33.1178501 -0.743976E-08  0.936E-04    3.51      24.5  T
   7    -33.1178501 -0.803986E-09  0.651E-04    3.51      35.3  T
     SCC iter.                  ...        0 min,  0.006 sec
     gradient                   ...        0 min,  0.003 sec
 * total energy  :   -32.7419213 Eh     change        0.1164845E-04 Eh
   gradient norm :     0.0034446 Eh/α   predicted    -0.9232119E-05 (-179.26%)
   displ. norm   :     0.0233101 α      lambda       -0.3379701E-04
   maximum displ.:     0.0156190 α      in ANC's #5, #9, #2, ...

........................................................................
.............................. CYCLE   97 ..............................
........................................................................

 iter      E             dE          RMSdq      gap      omega  full diag
   1    -33.1179024 -0.331179E+02  0.285E-02    3.51       0.0  T
   2    -33.1179027 -0.251434E-06  0.158E-02    3.51       1.5  T
   3    -33.1179018  0.855786E-06  0.856E-03    3.51       2.7  T
   4    -33.1179029 -0.107360E-05  0.138E-03    3.51      16.6  T
   5    -33.1179029 -0.157024E-07  0.690E-04    3.51      33.3  T
   6    -33.1179029 -0.583825E-09  0.229E-04    3.51     100.2  T
     SCC iter.                  ...        0 min,  0.005 sec
     gradient                   ...        0 min,  0.004 sec
 * total energy  :   -32.7419439 Eh     change       -0.2256484E-04 Eh
   gradient norm :     0.0017825 Eh/α   predicted    -0.1690801E-04 ( -25.07%)
   displ. norm   :     0.0300792 α      lambda       -0.1258722E-04
   maximum displ.:     0.0158839 α      in ANC's #6, #3, #4, ...

........................................................................
.............................. CYCLE   98 ..............................
........................................................................

 iter      E             dE          RMSdq      gap      omega  full diag
   1    -33.1177781 -0.331178E+02  0.332E-02    3.51       0.0  T
   2    -33.1177784 -0.328670E-06  0.179E-02    3.51       1.3  T
   3    -33.1177774  0.964168E-06  0.921E-03    3.51       2.5  T
   4    -33.1177786 -0.120048E-05  0.188E-03    3.51      12.2  T
   5    -33.1177787 -0.307718E-07  0.866E-04    3.51      26.5  T
   6    -33.1177787 -0.823064E-09  0.239E-04    3.51      96.1  T
     SCC iter.                  ...        0 min,  0.005 sec
     gradient                   ...        0 min,  0.004 sec
 * total energy  :   -32.7419514 Eh     change       -0.7538033E-05 Eh
   gradient norm :     0.0007541 Eh/α   predicted    -0.6296820E-05 ( -16.47%)
   displ. norm   :     0.0549431 α      lambda       -0.5238521E-05
   maximum displ.:     0.0315926 α      in ANC's #6, #3, #5, ...

........................................................................
.............................. CYCLE   99 ..............................
........................................................................

 iter      E             dE          RMSdq      gap      omega  full diag
   1    -33.1178090 -0.331178E+02  0.413E-02    3.51       0.0  T
   2    -33.1178091 -0.756097E-07  0.224E-02    3.51       1.0  T
   3    -33.1178085  0.592924E-06  0.660E-03    3.51       3.5  T
   4    -33.1178092 -0.682130E-06  0.165E-03    3.51      13.9  T
   5    -33.1178092 -0.389557E-08  0.625E-04    3.51      36.7  T
   6    -33.1178092 -0.501373E-09  0.254E-04    3.51      90.4  T
     SCC iter.                  ...        0 min,  0.005 sec
     gradient                   ...        0 min,  0.004 sec
 * total energy  :   -32.7419567 Eh     change       -0.5273793E-05 Eh
   gradient norm :     0.0008447 Eh/α   predicted    -0.2624546E-05 ( -50.23%)
   displ. norm   :     0.0955477 α      lambda       -0.6997157E-05
   maximum displ.:     0.0546836 α      in ANC's #6, #3, #5, ...

........................................................................
.............................. CYCLE  100 ..............................
........................................................................

 iter      E             dE          RMSdq      gap      omega  full diag
   1    -33.1178783 -0.331179E+02  0.704E-02    3.51       0.0  T
   2    -33.1178785 -0.187210E-06  0.378E-02    3.51       1.0  T
   3    -33.1178770  0.149151E-05  0.106E-02    3.51       2.2  T
   4    -33.1178787 -0.172142E-05  0.276E-03    3.51       8.3  T
   5    -33.1178787 -0.109269E-07  0.101E-03    3.51      22.7  T
   6    -33.1178787 -0.137089E-08  0.495E-04    3.51      46.3  T
   7    -33.1178787 -0.149463E-09  0.270E-04    3.51      84.9  T
     SCC iter.                  ...        0 min,  0.006 sec
     gradient                   ...        0 min,  0.003 sec
 * total energy  :   -32.7419641 Eh     change       -0.7416133E-05 Eh
   gradient norm :     0.0014253 Eh/α   predicted    -0.3515895E-05 ( -52.59%)
   displ. norm   :     0.1618508 α      lambda       -0.8479090E-05
   maximum displ.:     0.0906395 α      in ANC's #3, #6, #4, ...

........................................................................
.............................. CYCLE  101 ..............................
........................................................................

 iter      E             dE          RMSdq      gap      omega  full diag
   1    -33.1175941 -0.331176E+02  0.117E-01    3.51       0.0  T
   2    -33.1175948 -0.641542E-06  0.626E-02    3.51       1.0  T
   3    -33.1175933  0.150283E-05  0.119E-02    3.51       1.9  T
   4    -33.1175951 -0.180821E-05  0.464E-03    3.51       4.9  T
   5    -33.1175952 -0.818768E-07  0.174E-03    3.51      13.2  T
   6    -33.1175952 -0.571990E-08  0.710E-04    3.51      32.3  T
   7    -33.1175952 -0.363841E-09  0.458E-04    3.51      50.1  T
     SCC iter.                  ...        0 min,  0.006 sec
     gradient                   ...        0 min,  0.004 sec
 * total energy  :   -32.7419735 Eh     change       -0.9406220E-05 Eh
   gradient norm :     0.0027051 Eh/α   predicted    -0.4290598E-05 ( -54.39%)
   displ. norm   :     0.1404501 α      lambda       -0.1249847E-04
   maximum displ.:     0.0846302 α      in ANC's #3, #6, #4, ...

........................................................................
.............................. CYCLE  102 ..............................
........................................................................

 iter      E             dE          RMSdq      gap      omega  full diag
   1    -33.1175712 -0.331176E+02  0.982E-02    3.51       0.0  T
   2    -33.1175717 -0.519098E-06  0.529E-02    3.51       1.0  T
   3    -33.1175710  0.760330E-06  0.922E-03    3.51       2.5  T
   4    -33.1175720 -0.987020E-06  0.395E-03    3.51       5.8  T
   5    -33.1175720 -0.524831E-07  0.159E-03    3.51      14.4  T
   6    -33.1175720 -0.557984E-08  0.757E-04    3.51      30.3  T
   7    -33.1175720 -0.362760E-09  0.425E-04    3.51      54.0  T
     SCC iter.                  ...        0 min,  0.007 sec
     gradient                   ...        0 min,  0.004 sec
 * total energy  :   -32.7419857 Eh     change       -0.1221577E-04 Eh
   gradient norm :     0.0027513 Eh/α   predicted    -0.6376164E-05 ( -47.80%)
   displ. norm   :     0.1574897 α      lambda       -0.1475559E-04
   maximum displ.:     0.0907258 α      in ANC's #3, #6, #4, ...

........................................................................
.............................. CYCLE  103 ..............................
........................................................................

 iter      E             dE          RMSdq      gap      omega  full diag
   1    -33.1171699 -0.331172E+02  0.109E-01    3.51       0.0  T
   2    -33.1171706 -0.673731E-06  0.582E-02    3.50       1.0  T
   3    -33.1171691  0.149421E-05  0.118E-02    3.51       1.9  T
   4    -33.1171709 -0.178817E-05  0.442E-03    3.50       5.2  T
   5    -33.1171710 -0.860484E-07  0.184E-03    3.50      12.5  T
   6    -33.1171710 -0.625207E-08  0.482E-04    3.50      47.6  T
   7    -33.1171710 -0.106276E-09  0.318E-04    3.50      72.1  T
     SCC iter.                  ...        0 min,  0.008 sec
     gradient                   ...        0 min,  0.004 sec
 * total energy  :   -32.7419999 Eh     change       -0.1416689E-04 Eh
   gradient norm :     0.0058213 Eh/α   predicted    -0.7563783E-05 ( -46.61%)
   displ. norm   :     0.7525838 α      lambda       -0.8724111E-04
   maximum displ.:     0.4434314 α      in ANC's #3, #6, #4, ...

........................................................................
.............................. CYCLE  104 ..............................
........................................................................

 iter      E             dE          RMSdq      gap      omega  full diag
   1    -33.1107679 -0.331108E+02  0.491E-01    3.50       0.0  T
   2    -33.1107895 -0.215618E-04  0.264E-01    3.49       1.0  T
   3    -33.1107550  0.345103E-04  0.602E-02    3.49       1.0  T
   4    -33.1107919 -0.369348E-04  0.268E-02    3.49       1.0  T
   5    -33.1107992 -0.730917E-05  0.116E-02    3.49       2.0  T
   6    -33.1107994 -0.189227E-06  0.179E-03    3.49      12.9  T
   7    -33.1107994 -0.165599E-08  0.126E-03    3.49      18.2  T
   8    -33.1107994 -0.110040E-08  0.593E-04    3.49      38.7  T
   9    -33.1107994 -0.483332E-09  0.334E-04    3.49      68.6  T
     SCC iter.                  ...        0 min,  0.009 sec
     gradient                   ...        0 min,  0.004 sec
 * total energy  :   -32.7412987 Eh     change        0.7011714E-03 Eh
   gradient norm :     0.0441026 Eh/α   predicted    -0.6832326E-04 (-109.74%)
   displ. norm   :     0.4189054 α      lambda       -0.1590930E-02
   maximum displ.:     0.2363074 α      in ANC's #6, #3, #4, ...

........................................................................
.............................. CYCLE  105 ..............................
........................................................................

 iter      E             dE          RMSdq      gap      omega  full diag
   1    -33.1163631 -0.331164E+02  0.296E-01    3.48       0.0  T
   2    -33.1163727 -0.960308E-05  0.165E-01    3.49       1.0  T
   3    -33.1163470  0.257354E-04  0.472E-02    3.49       1.0  T
   4    -33.1163746 -0.275658E-04  0.183E-02    3.50       1.3  T
   5    -33.1163779 -0.331057E-05  0.876E-03    3.50       2.6  T
   6    -33.1163780 -0.857627E-07  0.326E-03    3.50       7.0  T
   7    -33.1163780 -0.454739E-08  0.202E-03    3.50      11.3  T
   8    -33.1163780 -0.349988E-08  0.441E-04    3.50      52.0  T
   9    -33.1163780 -0.651220E-09  0.170E-04    3.50     134.6  T
     SCC iter.                  ...        0 min,  0.008 sec
     gradient                   ...        0 min,  0.004 sec
 * total energy  :   -32.7420359 Eh     change       -0.7371187E-03 Eh
   gradient norm :     0.0055591 Eh/α   predicted    -0.9351197E-03 (  26.86%)
   displ. norm   :     0.0348422 α      lambda       -0.2844177E-04
   maximum displ.:     0.0185411 α      in ANC's #3, #6, #2, ...

........................................................................
.............................. CYCLE  106 ..............................
........................................................................

 iter      E             dE          RMSdq      gap      omega  full diag
   1    -33.1178136 -0.331178E+02  0.232E-02    3.50       0.0  T
   2    -33.1178138 -0.182884E-06  0.141E-02    3.50       1.6  T
   3    -33.1178131  0.697217E-06  0.942E-03    3.50       2.4  T
   4    -33.1178141 -0.102151E-05  0.203E-03    3.50      11.3  T
   5    -33.1178141 -0.268668E-07  0.125E-03    3.50      18.4  T
   6    -33.1178141 -0.953257E-09  0.513E-04    3.50      44.8  T
   7    -33.1178141 -0.233939E-09  0.282E-04    3.50      81.5  T
     SCC iter.                  ...        0 min,  0.006 sec
     gradient                   ...        0 min,  0.003 sec
 * total energy  :   -32.7420540 Eh     change       -0.1812954E-04 Eh
   gradient norm :     0.0035497 Eh/α   predicted    -0.1424010E-04 ( -21.45%)
   displ. norm   :     0.0290109 α      lambda       -0.1150873E-04
   maximum displ.:     0.0191676 α      in ANC's #7, #2, #5, ...

........................................................................
.............................. CYCLE  107 ..............................
........................................................................

 iter      E             dE          RMSdq      gap      omega  full diag
   1    -33.1182259 -0.331182E+02  0.150E-02    3.50       0.0  T
   2    -33.1182260 -0.762394E-07  0.958E-03    3.50       2.4  T
   3    -33.1182258  0.223440E-06  0.485E-03    3.50       4.7  T
   4    -33.1182261 -0.260917E-06  0.163E-03    3.50      14.1  T
   5    -33.1182261 -0.324776E-07  0.854E-04    3.50      26.9  T
   6    -33.1182261 -0.640028E-09  0.384E-04    3.50      59.7  T
     SCC iter.                  ...        0 min,  0.006 sec
     gradient                   ...        0 min,  0.003 sec
 * total energy  :   -32.7420615 Eh     change       -0.7501107E-05 Eh
   gradient norm :     0.0008657 Eh/α   predicted    -0.5763700E-05 ( -23.16%)
   displ. norm   :     0.0512847 α      lambda       -0.5797609E-05
   maximum displ.:     0.0342339 α      in ANC's #7, #11, #9, ...

........................................................................
.............................. CYCLE  108 ..............................
........................................................................

 iter      E             dE          RMSdq      gap      omega  full diag
   1    -33.1183405 -0.331183E+02  0.229E-02    3.50       0.0  T
   2    -33.1183406 -0.806241E-07  0.132E-02    3.50       1.7  T
   3    -33.1183406  0.177553E-07  0.267E-03    3.50       8.6  T
   4    -33.1183406 -0.323712E-07  0.184E-03    3.50      12.5  T
   5    -33.1183406 -0.174808E-07  0.103E-03    3.50      22.2  T
   6    -33.1183406 -0.320613E-08  0.394E-04    3.50      58.2  T
   7    -33.1183406 -0.802345E-10  0.188E-04    3.50     121.8  T
     SCC iter.                  ...        0 min,  0.006 sec
     gradient                   ...        0 min,  0.003 sec
 * total energy  :   -32.7420676 Eh     change       -0.6126924E-05 Eh
   gradient norm :     0.0021927 Eh/α   predicted    -0.2907204E-05 ( -52.55%)
   displ. norm   :     0.0703626 α      lambda       -0.8930313E-05
   maximum displ.:     0.0439490 α      in ANC's #7, #11, #3, ...

........................................................................
.............................. CYCLE  109 ..............................
........................................................................

 iter      E             dE          RMSdq      gap      omega  full diag
   1    -33.1181296 -0.331181E+02  0.361E-02    3.50       0.0  T
   2    -33.1181297 -0.107963E-06  0.198E-02    3.50       1.2  T
   3    -33.1181297  0.305308E-07  0.284E-03    3.50       8.1  T
   4    -33.1181298 -0.611363E-07  0.161E-03    3.50      14.2  T
   5    -33.1181298 -0.132615E-07  0.595E-04    3.50      38.6  T
   6    -33.1181298 -0.122819E-08  0.285E-04    3.50      80.6  T
     SCC iter.                  ...        0 min,  0.006 sec
     gradient                   ...        0 min,  0.003 sec
 * total energy  :   -32.7420750 Eh     change       -0.7412539E-05 Eh
   gradient norm :     0.0022277 Eh/α   predicted    -0.4488976E-05 ( -39.44%)
   displ. norm   :     0.1667442 α      lambda       -0.1684658E-04
   maximum displ.:     0.1023860 α      in ANC's #7, #11, #3, ...

........................................................................
.............................. CYCLE  110 ..............................
........................................................................

 iter      E             dE          RMSdq      gap      omega  full diag
   1    -33.1173293 -0.331173E+02  0.869E-02    3.49       0.0  T
   2    -33.1173300 -0.683361E-06  0.473E-02    3.49       1.0  T
   3    -33.1173302 -0.205900E-06  0.518E-03    3.49       4.4  T
   4    -33.1173302 -0.124323E-07  0.273E-03    3.49       8.4  T
   5    -33.1173302 -0.171863E-08  0.743E-04    3.49      30.9  T
   6    -33.1173302 -0.290626E-09  0.491E-04    3.49      46.7  T
     SCC iter.                  ...        0 min,  0.006 sec
     gradient                   ...        0 min,  0.004 sec
 * total energy  :   -32.7420840 Eh     change       -0.9023587E-05 Eh
   gradient norm :     0.0014874 Eh/α   predicted    -0.8663677E-05 (  -3.99%)
   displ. norm   :     0.0370391 α      lambda       -0.4209161E-05
   maximum displ.:     0.0183580 α      in ANC's #7, #6, #10, ...

........................................................................
.............................. CYCLE  111 ..............................
........................................................................

 iter      E             dE          RMSdq      gap      omega  full diag
   1    -33.1176506 -0.331177E+02  0.214E-02    3.49       0.0  T
   2    -33.1176507 -0.507997E-07  0.114E-02    3.49       2.0  T
   3    -33.1176505  0.186051E-06  0.407E-03    3.49       5.6  T
   4    -33.1176507 -0.216472E-06  0.117E-03    3.49      19.5  T
   5    -33.1176507 -0.100930E-07  0.487E-04    3.49      47.1  T
   6    -33.1176507 -0.120451E-09  0.111E-04    3.49     206.9  T
     SCC iter.                  ...        0 min,  0.006 sec
     gradient                   ...        0 min,  0.004 sec
 * total energy  :   -32.7420887 Eh     change       -0.4693233E-05 Eh
   gradient norm :     0.0012654 Eh/α   predicted    -0.2108127E-05 ( -55.08%)
   displ. norm   :     0.1258401 α      lambda       -0.8402898E-05
   maximum displ.:     0.0709007 α      in ANC's #7, #6, #10, ...

........................................................................
.............................. CYCLE  112 ..............................
........................................................................

 iter      E             dE          RMSdq      gap      omega  full diag
   1    -33.1174314 -0.331174E+02  0.678E-02    3.49       0.0  T
   2    -33.1174320 -0.577823E-06  0.374E-02    3.49       1.0  T
   3    -33.1174303  0.165407E-05  0.115E-02    3.49       2.0  T
   4    -33.1174323 -0.200322E-05  0.304E-03    3.49       7.5  T
   5    -33.1174323 -0.290253E-07  0.137E-03    3.49      16.8  T
   6    -33.1174323 -0.267600E-08  0.444E-04    3.49      51.7  T
   7    -33.1174323 -0.599194E-09  0.273E-04    3.49      83.9  T
     SCC iter.                  ...        0 min,  0.009 sec
     gradient                   ...        0 min,  0.003 sec
 * total energy  :   -32.7420942 Eh     change       -0.5498467E-05 Eh
   gradient norm :     0.0016688 Eh/α   predicted    -0.4226790E-05 ( -23.13%)
   displ. norm   :     0.0345127 α      lambda       -0.6234387E-05
   maximum displ.:     0.0159777 α      in ANC's #4, #3, #10, ...

........................................................................
.............................. CYCLE  113 ..............................
........................................................................

 iter      E             dE          RMSdq      gap      omega  full diag
   1    -33.1182929 -0.331183E+02  0.205E-02    3.50       0.0  T
   2    -33.1182930 -0.657081E-07  0.113E-02    3.50       2.0  T
   3    -33.1182924  0.604463E-06  0.715E-03    3.50       3.2  T
   4    -33.1182931 -0.752815E-06  0.128E-03    3.50      17.9  T
   5    -33.1182931 -0.220736E-08  0.647E-04    3.50      35.5  T
   6    -33.1182931 -0.166665E-09  0.238E-04    3.50      96.4  T
     SCC iter.                  ...        0 min,  0.006 sec
     gradient                   ...        0 min,  0.004 sec
 * total energy  :   -32.7420975 Eh     change       -0.3263143E-05 Eh
   gradient norm :     0.0014879 Eh/α   predicted    -0.3126051E-05 (  -4.20%)
   displ. norm   :     0.0969266 α      lambda       -0.4936260E-05
   maximum displ.:     0.0540144 α      in ANC's #7, #10, #11, ...

........................................................................
.............................. CYCLE  114 ..............................
........................................................................

 iter      E             dE          RMSdq      gap      omega  full diag
   1    -33.1176008 -0.331176E+02  0.468E-02    3.50       0.0  T
   2    -33.1176010 -0.193636E-06  0.257E-02    3.50       1.0  T
   3    -33.1176008  0.180555E-06  0.465E-03    3.50       4.9  T
   4    -33.1176010 -0.241329E-06  0.212E-03    3.50      10.8  T
   5    -33.1176010 -0.189391E-07  0.765E-04    3.50      30.0  T
   6    -33.1176010 -0.132312E-08  0.239E-04    3.50      95.8  T
     SCC iter.                  ...        0 min,  0.005 sec
     gradient                   ...        0 min,  0.003 sec
 * total energy  :   -32.7420994 Eh     change       -0.1923717E-05 Eh
   gradient norm :     0.0021657 Eh/α   predicted    -0.2491539E-05 (  29.52%)
   displ. norm   :     0.0199845 α      lambda       -0.4264241E-05
   maximum displ.:     0.0112921 α      in ANC's #7, #3, #2, ...

........................................................................
.............................. CYCLE  115 ..............................
........................................................................

 iter      E             dE          RMSdq      gap      omega  full diag
   1    -33.1177721 -0.331178E+02  0.108E-02    3.49       0.0  T
   2    -33.1177722 -0.339259E-07  0.621E-03    3.49       3.7  T
   3    -33.1177720  0.151743E-06  0.444E-03    3.49       5.2  T
   4    -33.1177723 -0.250421E-06  0.596E-04    3.49      38.5  T
   5    -33.1177723 -0.144313E-08  0.325E-04    3.49      70.5  T
     SCC iter.                  ...        0 min,  0.005 sec
     gradient                   ...        0 min,  0.003 sec
 * total energy  :   -32.7421023 Eh     change       -0.2917110E-05 Eh
   gradient norm :     0.0011120 Eh/α   predicted    -0.2120970E-05 ( -27.29%)
   displ. norm   :     0.0272721 α      lambda       -0.2670465E-05
   maximum displ.:     0.0123902 α      in ANC's #2, #10, #6, ...

........................................................................
.............................. CYCLE  116 ..............................
........................................................................

 iter      E             dE          RMSdq      gap      omega  full diag
   1    -33.1178846 -0.331179E+02  0.121E-02    3.49       0.0  T
   2    -33.1178846 -0.496785E-07  0.730E-03    3.49       3.1  T
   3    -33.1178845  0.167910E-06  0.535E-03    3.49       4.3  T
   4    -33.1178848 -0.324159E-06  0.923E-04    3.49      24.8  T
   5    -33.1178848 -0.196134E-08  0.622E-04    3.49      36.9  T
     SCC iter.                  ...        0 min,  0.004 sec
     gradient                   ...        0 min,  0.003 sec
 * total energy  :   -32.7421045 Eh     change       -0.2110037E-05 Eh
   gradient norm :     0.0006599 Eh/α   predicted    -0.1343765E-05 ( -36.32%)
   displ. norm   :     0.0289051 α      lambda       -0.1232133E-05
   maximum displ.:     0.0164549 α      in ANC's #10, #6, #11, ...

........................................................................
.............................. CYCLE  117 ..............................
........................................................................

 iter      E             dE          RMSdq      gap      omega  full diag
   1    -33.1179599 -0.331180E+02  0.133E-02    3.49       0.0  T
   2    -33.1179599 -0.178210E-07  0.738E-03    3.49       3.1  T
   3    -33.1179599 -0.253661E-08  0.905E-04    3.49      25.3  T
   4    -33.1179599 -0.120426E-08  0.550E-04    3.49      41.7  T
     SCC iter.                  ...        0 min,  0.004 sec
     gradient                   ...        0 min,  0.004 sec
 * total energy  :   -32.7421059 Eh     change       -0.1481166E-05 Eh
   gradient norm :     0.0005477 Eh/α   predicted    -0.6194340E-06 ( -58.18%)
   displ. norm   :     0.0580447 α      lambda       -0.1960733E-05
   maximum displ.:     0.0334131 α      in ANC's #10, #11, #6, ...

........................................................................
.............................. CYCLE  118 ..............................
........................................................................

 iter      E             dE          RMSdq      gap      omega  full diag
   1    -33.1178089 -0.331178E+02  0.274E-02    3.49       0.0  T
   2    -33.1178089 -0.673899E-07  0.151E-02    3.49       1.5  T
   3    -33.1178084  0.562236E-06  0.644E-03    3.49       3.6  T
   4    -33.1178090 -0.655415E-06  0.128E-03    3.49      17.9  T
   5    -33.1178090 -0.821835E-09  0.517E-04    3.49      44.4  T
   6    -33.1178090 -0.273758E-09  0.184E-04    3.49     124.9  T
     SCC iter.                  ...        0 min,  0.006 sec
     gradient                   ...        0 min,  0.004 sec
 * total energy  :   -32.7421074 Eh     change       -0.1442673E-05 Eh
   gradient norm :     0.0005352 Eh/α   predicted    -0.9902181E-06 ( -31.36%)
   displ. norm   :     0.0140165 α      lambda       -0.6027898E-06
   maximum displ.:     0.0099293 α      in ANC's #7, #5, #1, ...

........................................................................
.............................. CYCLE  119 ..............................
........................................................................

 iter      E             dE          RMSdq      gap      omega  full diag
   1    -33.1179989 -0.331180E+02  0.883E-03    3.49       0.0  T
   2    -33.1179989 -0.278812E-07  0.493E-03    3.49       4.7  T
   3    -33.1179989  0.426207E-07  0.199E-03    3.49      11.5  T
   4    -33.1179989 -0.543280E-07  0.573E-04    3.49      40.0  T
   5    -33.1179989 -0.124223E-08  0.298E-04    3.49      77.0  T
     SCC iter.                  ...        0 min,  0.005 sec
     gradient                   ...        0 min,  0.003 sec
 * total energy  :   -32.7421079 Eh     change       -0.5028365E-06 Eh
   gradient norm :     0.0002762 Eh/α   predicted    -0.3044857E-06 ( -39.45%)
   displ. norm   :     0.0097714 α      lambda       -0.2919676E-06
   maximum displ.:     0.0062475 α      in ANC's #7, #2, #1, ...

   *** GEOMETRY OPTIMIZATION CONVERGED AFTER 119 ITERATIONS ***

------------------------------------------------------------------------
 total energy gain   :        -0.1811562 Eh     -113.6772 kcal/mol
 total RMSD          :         3.0981484 a0        1.6395 Å
 total power (kW/mol):        -3.9968535 (step) -296.0066 (real)
------------------------------------------------------------------------

 ANCopt (total)                0 d,  0 h,  0 min,  1.607 sec
 optimizer setup                ...        0 min,  0.000 sec (  0.021%)
 model hessian                  ...        0 min,  0.017 sec (  1.029%)
 ANC generation                 ...        0 min,  0.003 sec (  0.168%)
 coordinate transformation      ...        0 min,  0.001 sec (  0.067%)
 single point calculation       ...        0 min,  1.525 sec ( 94.908%)
 optimization log               ...        0 min,  0.021 sec (  1.279%)
 hessian update                 ...        0 min,  0.013 sec (  0.780%)
 rational function              ...        0 min,  0.021 sec (  1.324%)

================
 final structure:
================
19
 xtb: 6.7.1 (edcfbbe)
C           -0.94816821774481       -1.22695055000863       -0.62023288300812
N            0.17258383457109       -0.35727976630022       -0.34928182821312
C            0.37247814380520        0.00499408224756        1.03143486690039
C            1.06097521960913       -0.09665369099430       -1.30385714270833
O            0.97245915420409       -0.45520804949325       -2.48027328722085
C            2.18229808630591        0.73935555084364       -0.92079106378460
N            3.18226984683731        1.28921369846550       -1.13728614798619
O            4.18724502098788        1.92875873618217       -1.15958443915837
H           -0.82675618862848       -2.16884213838154       -0.08287500449794
H           -0.98142714806165       -1.42585686023016       -1.68935966129105
H           -1.86834173126687       -0.73976132334272       -0.30037454623556
H            0.68756835739140       -0.86976280585192        1.60562901394936
H           -0.56155926028187        0.38970241656886        1.43803940629157
H            1.15136881892305        0.76106717306181        1.10486879441062
C            3.39513469774472       -2.82199071082098       -2.24261082831479
Se           3.55520607184134       -2.53146843793566       -0.30563732496747
H            4.36252466403261       -2.58938268777386       -2.67231199148052
H            2.62144642632451       -2.15301379429625       -2.60461408943902
H            3.13039420341019       -3.86388484195081       -2.37895184323865

 Bond Distances (Angstroems)
 ---------------------------
C1-N2=1.4442         C1-H9=1.0912         C1-H10=1.0880        C1-H11=1.0892        N2-C1=1.4442         N2-C3=1.4414         
N2-C4=1.3298         C3-N2=1.4414         C3-H12=1.0928        C3-H13=1.0889        C3-H14=1.0880        C4-N2=1.3298         
C4-O5=1.2330         C4-C6=1.4502         O5-C4=1.2330         C6-C4=1.4502         C6-N7=1.1615         N7-C6=1.1615         
N7-O8=1.1914         O8-N7=1.1914         H9-C1=1.0912         H10-C1=1.0880        H11-C1=1.0892        H12-C3=1.0928        
H13-C3=1.0889        H14-C3=1.0880        C15-Se16=1.9652      C15-H17=1.0838       C15-H18=1.0850       C15-H19=1.0836       
Se16-C15=1.9652      H17-C15=1.0838       H18-C15=1.0850       H19-C15=1.0836       
 C  H  Rav=1.0878 sigma=0.0030  Rmin=1.0836  Rmax=1.0928     9
 C  C  Rav=1.4502 sigma=0.0000  Rmin=1.4502  Rmax=1.4502     1
 N  C  Rav=1.3442 sigma=0.1151  Rmin=1.1615  Rmax=1.4442     4
 O  C  Rav=1.2330 sigma=0.0000  Rmin=1.2330  Rmax=1.2330     1
 O  N  Rav=1.1914 sigma=0.0000  Rmin=1.1914  Rmax=1.1914     1
 Se C  Rav=1.9652 sigma=0.0000  Rmin=1.9652  Rmax=1.9652     1

 selected bond angles (degree)
 --------------------
H9-C1-N2=109.94                H10-C1-N2=108.55               H10-C1-H9=109.24               H11-C1-N2=109.34               
H11-C1-H9=109.60               H11-C1-H10=110.15              C3-N2-C1=116.02                C4-N2-C1=120.12                
C4-N2-C3=123.07                H12-C3-N2=110.01               H13-C3-N2=109.12               H13-C3-H12=109.51              
H14-C3-N2=109.79               H14-C3-H12=108.32              H14-C3-H13=110.08              O5-C4-N2=125.45                
C6-C4-N2=116.10                C6-C4-O5=118.37                N7-C6-C4=152.79                O8-N7-C6=169.67                

 selected dihedral angles (degree)
 ---------------------------------
C3-N2-C1-H9=299.80            C3-N2-C1-H10=180.36           C3-N2-C1-H11= 60.17           C4-N2-C1-H9=109.93            
C4-N2-C1-H10=350.49           C4-N2-C1-H11=230.30           H12-C3-N2-C1= 68.48           H12-C3-N2-C4=258.67           
H13-C3-N2-C1=308.32           H13-C3-N2-C4=138.51           H14-C3-N2-C1=187.60           H14-C3-N2-C4= 17.78           
O5-C4-N2-C1=  6.02            O5-C4-N2-C3=175.43            C6-C4-N2-C1=182.61            C6-C4-N2-C3=352.02            
N7-C6-C4-N2=178.46            N7-C6-C4-O5=355.30            O8-N7-C6-C4=175.97            

 CMA Distance (Angstroems)
 ---------------------------
R(CMA):  3.5316
           -------------------------------------------------
          |                Final Singlepoint                |
           -------------------------------------------------

          ...................................................
          :                      SETUP                      :
          :.................................................:
          :  # basis functions                  55          :
          :  # atomic orbitals                  54          :
          :  # shells                           30          :
          :  # electrons                        58          :
          :  max. iterations                   250          :
          :  Hamiltonian                  GFN2-xTB          :
          :  restarted?                      false          :
          :  GBSA solvation                   true          :
          :  PC potential                    false          :
          :  electronic temp.          300.0000000     K    :
          :  accuracy                    1.0000000          :
          :  -> integral cutoff          0.2500000E+02      :
          :  -> integral neglect         0.1000000E-07      :
          :  -> SCF convergence          0.1000000E-05 Eh   :
          :  -> wf. convergence          0.1000000E-03 e    :
          :  Broyden damping             0.4000000          :
          :  net charge                         -1          :
          :  unpaired electrons                  0          :
          ...................................................

 iter      E             dE          RMSdq      gap      omega  full diag
   1    -33.1179989 -0.331180E+02  0.928E-05    3.49       0.0  T
   2    -33.1179989 -0.805045E-11  0.553E-05    3.49     414.7  T
   3    -33.1179989  0.779465E-11  0.473E-05    3.49     485.2  T

   *** convergence criteria satisfied after 3 iterations ***

         #    Occupation            Energy/Eh            Energy/eV
      -------------------------------------------------------------
         1        2.0000           -0.7523567             -20.4727
       ...           ...                  ...                  ...
        23        2.0000           -0.4660806             -12.6827
        24        2.0000           -0.4388356             -11.9413
        25        2.0000           -0.4279005             -11.6438
        26        2.0000           -0.4142462             -11.2722
        27        2.0000           -0.3998157             -10.8795
        28        2.0000           -0.3963820             -10.7861
        29        2.0000           -0.3954812             -10.7616 (HOMO)
        30                         -0.2671038              -7.2683 (LUMO)
        31                         -0.2319566              -6.3119
        32                         -0.1937811              -5.2731
        33                         -0.1423137              -3.8726
        34                         -0.0149900              -0.4079
       ...                                ...                  ...
        54                          1.2258413              33.3568
      -------------------------------------------------------------
                  HL-Gap            0.1283775 Eh            3.4933 eV
             Fermi-level           -0.3312925 Eh           -9.0149 eV

 SCC (total)                   0 d,  0 h,  0 min,  0.011 sec
 SCC setup                      ...        0 min,  0.001 sec (  4.828%)
 Dispersion                     ...        0 min,  0.000 sec (  2.898%)
 classical contributions        ...        0 min,  0.000 sec (  0.747%)
 integral evaluation            ...        0 min,  0.002 sec ( 15.006%)
 iterations                     ...        0 min,  0.004 sec ( 36.636%)
 molecular gradient             ...        0 min,  0.004 sec ( 37.016%)
 printout                       ...        0 min,  0.000 sec (  2.607%)

         :::::::::::::::::::::::::::::::::::::::::::::::::::::
         ::                     SUMMARY                     ::
         :::::::::::::::::::::::::::::::::::::::::::::::::::::
         :: total energy             -32.742107876991 Eh    ::
         :: total w/o Gsasa/hb       -32.736088342667 Eh    ::
         :: gradient norm              0.000280386630 Eh/a0 ::
         :: HOMO-LUMO gap              3.493328257485 eV    ::
         ::.................................................::
         :: SCC energy               -33.117858004694 Eh    ::
         :: -> isotropic ES            0.199314293360 Eh    ::
         :: -> anisotropic ES         -0.001806070401 Eh    ::
         :: -> anisotropic XC          0.017257213590 Eh    ::
         :: -> dispersion             -0.015285339413 Eh    ::
         :: -> Gsolv                  -0.127704761690 Eh    ::
         ::    -> Gelec               -0.121685227367 Eh    ::
         ::    -> Gsasa                0.002479640409 Eh    ::
         ::    -> Ghb                 -0.009579934430 Eh    ::
         ::    -> Gshift               0.001080759698 Eh    ::
         :: repulsion energy           0.375749999229 Eh    ::
         :: add. restraining           0.000000128474 Eh    ::
         :: total charge              -1.000000000000 e     ::
         :::::::::::::::::::::::::::::::::::::::::::::::::::::

========================================================================
 RELAXED SCAN
------------------------------------------------------------------------
 output written to xtbscan.log
 scaning constraint 1
... step 1 ...
      ----------------------------------------------------------- 
     |                   =====================                   |
     |                        A N C O P T                        |
     |                   =====================                   |
     |               Approximate Normal Coordinate               |
     |                Rational Function Optimizer                |
      ----------------------------------------------------------- 
 current energy:         -32.74210788
    bias energy:           0.00000013
unbiased energy:         -32.74210801
... step 2 ...
      ----------------------------------------------------------- 
     |                   =====================                   |
     |                        A N C O P T                        |
     |                   =====================                   |
     |               Approximate Normal Coordinate               |
     |                Rational Function Optimizer                |
      ----------------------------------------------------------- 
 current energy:         -32.74197064
    bias energy:           0.00000039
unbiased energy:         -32.74197103
... step 3 ...
      ----------------------------------------------------------- 
     |                   =====================                   |
     |                        A N C O P T                        |
     |                   =====================                   |
     |               Approximate Normal Coordinate               |
     |                Rational Function Optimizer                |
      ----------------------------------------------------------- 
 current energy:         -32.74235559
    bias energy:           0.00000087
unbiased energy:         -32.74235646
... step 4 ...
      ----------------------------------------------------------- 
     |                   =====================                   |
     |                        A N C O P T                        |
     |                   =====================                   |
     |               Approximate Normal Coordinate               |
     |                Rational Function Optimizer                |
      ----------------------------------------------------------- 
 current energy:         -32.74208479
    bias energy:           0.00000168
unbiased energy:         -32.74208648
... step 5 ...
      ----------------------------------------------------------- 
     |                   =====================                   |
     |                        A N C O P T                        |
     |                   =====================                   |
     |               Approximate Normal Coordinate               |
     |                Rational Function Optimizer                |
      ----------------------------------------------------------- 
 current energy:         -32.74167678
    bias energy:           0.00000317
unbiased energy:         -32.74167995
... step 6 ...
      ----------------------------------------------------------- 
     |                   =====================                   |
     |                        A N C O P T                        |
     |                   =====================                   |
     |               Approximate Normal Coordinate               |
     |                Rational Function Optimizer                |
      ----------------------------------------------------------- 
 current energy:         -32.74112641
    bias energy:           0.00000583
unbiased energy:         -32.74113224
... step 7 ...
      ----------------------------------------------------------- 
     |                   =====================                   |
     |                        A N C O P T                        |
     |                   =====================                   |
     |               Approximate Normal Coordinate               |
     |                Rational Function Optimizer                |
      ----------------------------------------------------------- 
 current energy:         -32.74038628
    bias energy:           0.00001019
unbiased energy:         -32.74039646
... step 8 ...
      ----------------------------------------------------------- 
     |                   =====================                   |
     |                        A N C O P T                        |
     |                   =====================                   |
     |               Approximate Normal Coordinate               |
     |                Rational Function Optimizer                |
      ----------------------------------------------------------- 
 current energy:         -32.73943972
    bias energy:           0.00001646
unbiased energy:         -32.73945618
... step 9 ...
      ----------------------------------------------------------- 
     |                   =====================                   |
     |                        A N C O P T                        |
     |                   =====================                   |
     |               Approximate Normal Coordinate               |
     |                Rational Function Optimizer                |
      ----------------------------------------------------------- 
 current energy:         -32.73822412
    bias energy:           0.00002669
unbiased energy:         -32.73825081
... step 10 ...
      ----------------------------------------------------------- 
     |                   =====================                   |
     |                        A N C O P T                        |
     |                   =====================                   |
     |               Approximate Normal Coordinate               |
     |                Rational Function Optimizer                |
      ----------------------------------------------------------- 
 current energy:         -32.73670487
    bias energy:           0.00004071
unbiased energy:         -32.73674558
... step 11 ...
      ----------------------------------------------------------- 
     |                   =====================                   |
     |                        A N C O P T                        |
     |                   =====================                   |
     |               Approximate Normal Coordinate               |
     |                Rational Function Optimizer                |
      ----------------------------------------------------------- 
 current energy:         -32.73485012
    bias energy:           0.00005778
unbiased energy:         -32.73490790
... step 12 ...
      ----------------------------------------------------------- 
     |                   =====================                   |
     |                        A N C O P T                        |
     |                   =====================                   |
     |               Approximate Normal Coordinate               |
     |                Rational Function Optimizer                |
      ----------------------------------------------------------- 
 current energy:         -32.73267379
    bias energy:           0.00007918
unbiased energy:         -32.73275297
... step 13 ...
      ----------------------------------------------------------- 
     |                   =====================                   |
     |                        A N C O P T                        |
     |                   =====================                   |
     |               Approximate Normal Coordinate               |
     |                Rational Function Optimizer                |
      ----------------------------------------------------------- 
 current energy:         -32.73047234
    bias energy:           0.00009756
unbiased energy:         -32.73056990
... step 14 ...
      ----------------------------------------------------------- 
     |                   =====================                   |
     |                        A N C O P T                        |
     |                   =====================                   |
     |               Approximate Normal Coordinate               |
     |                Rational Function Optimizer                |
      ----------------------------------------------------------- 
 current energy:         -32.72770276
    bias energy:           0.00011883
unbiased energy:         -32.72782159
... step 15 ...
      ----------------------------------------------------------- 
     |                   =====================                   |
     |                        A N C O P T                        |
     |                   =====================                   |
     |               Approximate Normal Coordinate               |
     |                Rational Function Optimizer                |
      ----------------------------------------------------------- 
 current energy:         -32.72475400
    bias energy:           0.00012362
unbiased energy:         -32.72487762
... step 16 ...
      ----------------------------------------------------------- 
     |                   =====================                   |
     |                        A N C O P T                        |
     |                   =====================                   |
     |               Approximate Normal Coordinate               |
     |                Rational Function Optimizer                |
      ----------------------------------------------------------- 
 current energy:         -32.72193671
    bias energy:           0.00009858
unbiased energy:         -32.72203529
... step 17 ...
      ----------------------------------------------------------- 
     |                   =====================                   |
     |                        A N C O P T                        |
     |                   =====================                   |
     |               Approximate Normal Coordinate               |
     |                Rational Function Optimizer                |
      ----------------------------------------------------------- 
 current energy:         -32.71963414
    bias energy:           0.00005437
unbiased energy:         -32.71968851
... step 18 ...
      ----------------------------------------------------------- 
     |                   =====================                   |
     |                        A N C O P T                        |
     |                   =====================                   |
     |               Approximate Normal Coordinate               |
     |                Rational Function Optimizer                |
      ----------------------------------------------------------- 
 current energy:         -32.71850891
    bias energy:           0.00001333
unbiased energy:         -32.71852223
... step 19 ...
      ----------------------------------------------------------- 
     |                   =====================                   |
     |                        A N C O P T                        |
     |                   =====================                   |
     |               Approximate Normal Coordinate               |
     |                Rational Function Optimizer                |
      ----------------------------------------------------------- 
 current energy:         -32.71787768
    bias energy:           0.00000213
unbiased energy:         -32.71787981
... step 20 ...
      ----------------------------------------------------------- 
     |                   =====================                   |
     |                        A N C O P T                        |
     |                   =====================                   |
     |               Approximate Normal Coordinate               |
     |                Rational Function Optimizer                |
      ----------------------------------------------------------- 
 current energy:         -32.71754051
    bias energy:           0.00000279
unbiased energy:         -32.71754330
... step 21 ...
      ----------------------------------------------------------- 
     |                   =====================                   |
     |                        A N C O P T                        |
     |                   =====================                   |
     |               Approximate Normal Coordinate               |
     |                Rational Function Optimizer                |
      ----------------------------------------------------------- 
 current energy:         -32.71666110
    bias energy:           0.00003144
unbiased energy:         -32.71669254
... step 22 ...
      ----------------------------------------------------------- 
     |                   =====================                   |
     |                        A N C O P T                        |
     |                   =====================                   |
     |               Approximate Normal Coordinate               |
     |                Rational Function Optimizer                |
      ----------------------------------------------------------- 
 current energy:         -32.71422103
    bias energy:           0.00018094
unbiased energy:         -32.71440197
           -------------------------------------------------
          |                Property Printout                |
           -------------------------------------------------

    * Orbital Energies and Occupations

         #    Occupation            Energy/Eh            Energy/eV
      -------------------------------------------------------------
         1        2.0000           -0.7412016             -20.1691
       ...           ...                  ...                  ...
        17        2.0000           -0.4864701             -13.2375
        18        2.0000           -0.4827163             -13.1354
        19        2.0000           -0.4808298             -13.0840
        20        2.0000           -0.4788750             -13.0309
        21        2.0000           -0.4707274             -12.8091
        22        2.0000           -0.4644256             -12.6377
        23        2.0000           -0.4459115             -12.1339
        24        2.0000           -0.4258273             -11.5874
        25        2.0000           -0.3900559             -10.6140
        26        2.0000           -0.3874360             -10.5427
        27        2.0000           -0.3684277             -10.0254
        28        2.0000           -0.3488886              -9.4937
        29        2.0000           -0.3233023              -8.7975 (HOMO)
        30                         -0.2421574              -6.5894 (LUMO)
        31                         -0.1897493              -5.1633
        32                         -0.1861491              -5.0654
        33                         -0.1251593              -3.4058
        34                          0.0014146               0.0385
        35                          0.0412788               1.1233
        36                          0.0564753               1.5368
        37                          0.0758204               2.0632
        38                          0.1166464               3.1741
        39                          0.1305655               3.5529
        40                          0.1423068               3.8724
       ...                                ...                  ...
        54                          0.7998750              21.7657
      -------------------------------------------------------------
                  HL-Gap            0.0811449 Eh            2.2081 eV
             Fermi-level           -0.2827298 Eh           -7.6935 eV

     #   Z          covCN         q      C6AA      α(0)
     1   6 C        3.704    -0.062    21.854     6.684
     2   7 N        2.732    -0.078    22.758     7.085
     3   6 C        3.698    -0.054    21.715     6.665
     4   6 C        2.799     0.257    22.673     7.800
     5   8 O        0.859    -0.560    25.163     6.726
     6   6 C        2.876     0.054    26.783     8.484
     7   7 N        1.878    -0.137    24.742     7.374
     8   8 O        0.931    -0.615    26.449     6.897
     9   1 H        0.925     0.082     1.959     2.189
    10   1 H        0.925     0.077     2.010     2.217
    11   1 H        0.924     0.075     2.031     2.228
    12   1 H        0.924     0.086     1.921     2.167
    13   1 H        0.925     0.093     1.854     2.129
    14   1 H        0.924     0.062     2.174     2.306
    15   6 C        3.742    -0.029    21.164     6.563
    16  34 Se       2.011    -0.436   250.883    27.600
    17   1 H        0.925     0.055     2.256     2.349
    18   1 H        0.925     0.050     2.320     2.382
    19   1 H        0.925     0.080     1.980     2.200

 Mol. C6AA /au·bohr⁶  :       5214.824042
 Mol. C8AA /au·bohr⁸  :     157180.853793
 Mol. α(0) /au        :        112.045024


Wiberg/Mayer (AO) data.
largest (>0.10) Wiberg bond orders for each atom

 ---------------------------------------------------------------------------
     #   Z sym  total        # sym  WBO       # sym  WBO       # sym  WBO
 ---------------------------------------------------------------------------
     1   6 C    3.951 --     2 N    0.985    10 H    0.977     9 H    0.973
                            11 H    0.973
     2   7 N    3.532 --     4 C    1.299     3 C    0.996     1 C    0.985
                             5 O    0.188
     3   6 C    3.960 --     2 N    0.996    13 H    0.970    14 H    0.959
                            12 H    0.958
     4   6 C    3.953 --     5 O    1.545     2 N    1.299     6 C    0.987
     5   8 O    1.886 --     4 C    1.545     2 N    0.188
     6   6 C    3.932 --     7 N    1.701     4 C    0.987    16 Se   0.922
                             8 O    0.232
     7   7 N    3.138 --     6 C    1.701     8 O    1.255    16 Se   0.120
     8   8 O    1.679 --     7 N    1.255     6 C    0.232    16 Se   0.110
     9   1 H    0.992 --     1 C    0.973
    10   1 H    0.994 --     1 C    0.977
    11   1 H    0.993 --     1 C    0.973
    12   1 H    0.993 --     3 C    0.958
    13   1 H    0.990 --     3 C    0.970
    14   1 H    0.996 --     3 C    0.959
    15   6 C    3.982 --    16 Se   1.046    17 H    0.973    18 H    0.967
                            19 H    0.960
    16  34 Se   2.404 --    15 C    1.046     6 C    0.922     7 N    0.120
                             8 O    0.110
    17   1 H    0.997 --    15 C    0.973
    18   1 H    0.997 --    15 C    0.967
    19   1 H    0.993 --    15 C    0.960
 ---------------------------------------------------------------------------

Topologies differ in total number of bonds
Writing topology from bond orders to xtbtopo.mol

molecular dipole:
                 x           y           z       tot (Debye)
 q only:       -7.229      -0.809       3.962
   full:       -6.956      -0.718       3.612      20.006
molecular quadrupole (traceless):
                xx          xy          yy          xz          yz          zz
 q only:      -39.240      -6.796      27.018      20.462       7.070      12.222
  q+dip:      -37.857      -6.538      25.484      16.299      10.740      12.373
   full:      -38.314      -7.389      25.345      16.421      10.966      12.969

           -------------------------------------------------
          |                Geometry Summary                 |
           -------------------------------------------------

      molecular mass/u    :      208.0967511
   center of mass at/Å    :        2.0970153      -0.9253823      -0.8767271
  moments of inertia/u·Å² :        0.3422466E+03   0.7184291E+03   0.8569936E+03
rotational constants/cm⁻¹ :        0.4925580E-01   0.2346457E-01   0.1967066E-01

 * 14 selected distances

     #   Z          #   Z                                           value/Å
     1   6 C        2   7 N                                       1.4477780 (max)
     2   7 N        3   6 C                                       1.4435272
     2   7 N        4   6 C                                       1.3424727
     4   6 C        5   8 O                                       1.2393607
     6   6 C        7   7 N                                       1.2764196
     1   6 C        9   1 H                                       1.0897255
     1   6 C       10   1 H                                       1.0879025
Note: The following floating-point exceptions are signalling: IEEE_DIVIDE_BY_ZERO IEEE_UNDERFLOW_FLAG IEEE_DENORMAL
normal termination of xtb
     1   6 C       11   1 H                                       1.0905208
     3   6 C       12   1 H                                       1.0944161
     3   6 C       13   1 H                                       1.0895353
     3   6 C       14   1 H                                       1.0912765
    15   6 C       17   1 H                                       1.0866015
    15   6 C       18   1 H                                       1.0882768
    15   6 C       19   1 H                                       1.0857387 (min)

 * 3 distinct bonds (by element types)

   Z      Z             #   av. dist./Å        max./Å        min./Å
   1 H    6 C           9     1.0893326     1.0944161     1.0857387
   6 C    7 N           4     1.3775494     1.4477780     1.2764196
   6 C    8 O           1     1.2393607     1.2393607     1.2393607


optimized geometry written to: xtbopt.xyz


           -------------------------------------------------
          | TOTAL ENERGY              -32.742107876991 Eh   |
          | GRADIENT NORM               0.000280386630 Eh/α |
          | HOMO-LUMO GAP               2.208065131641 eV   |
           -------------------------------------------------

------------------------------------------------------------------------
 * finished run on 2026/08/28 at 23:25:54.412     
------------------------------------------------------------------------
 total:
 * wall-time:     0 d,  0 h,  0 min,  6.685 sec
 *  cpu-time:     0 d,  0 h,  0 min, 42.891 sec
 * ratio c/w:     6.416 speedup
 SCF:
 * wall-time:     0 d,  0 h,  0 min,  0.033 sec
 *  cpu-time:     0 d,  0 h,  0 min,  0.359 sec
 * ratio c/w:    11.058 speedup
 ANC optimizer:
 * wall-time:     0 d,  0 h,  0 min,  6.630 sec
 *  cpu-time:     0 d,  0 h,  0 min, 42.516 sec
 * ratio c/w:     6.413 speedup

