19
 energy: -32.762020550378 gnorm: 0.000416450773 xtb: 6.7.1 (edcfbbe)
C           -1.43858816732753       -0.83978224413594       -0.60185741925201
N           -0.03680707034359       -0.50895202025251       -0.46071291570233
C            0.41359965179112       -0.28986965838933        0.89249178044602
C            0.75688509722719       -0.45338253284821       -1.53484314680130
O            0.32589407409840       -0.59610559011221       -2.68790137344146
C            2.20529220878071       -0.25644939785702       -1.30370251247075
N            2.84640746622999        0.67218305813236       -1.86245996836244
O            4.14642744296240        0.84317182714062       -1.77630470436776
H           -1.66323997709419       -1.72674329798440       -0.00984756240070
H           -1.63497830337543       -1.03464011970425       -1.65395225559009
H           -2.05255151704299       -0.00517245533306       -0.26314066482457
H            0.52249013139630       -1.24167398161627        1.41589279546338
H           -0.31537410204842        0.33434823073228        1.40777663305508
H            1.37888951862320        0.21148189666838        0.88700717011273
C            4.14033430470993       -2.26418537507304       -1.60222716727234
S            2.97538979035380       -1.69388298684285       -0.33564550803001
H            4.73174150146172       -1.40937595049272       -1.92290877445825
H            4.76628570635873       -3.02038448073604       -1.14263789727576
H            3.57677324324395       -2.67115592130416       -2.43792450882996
