58

C      7.172772    3.855521   -1.214660
C      6.177698    2.770431   -1.123023
O      5.743008    2.447889    0.125381
N      4.823662    1.417633    0.047081
C      4.696392    1.125193   -1.261301
C      3.896848    0.001408   -1.751000
O      4.382601   -0.749050   -2.597158
N      2.603413   -0.193007   -1.253564
C      1.991974    0.600845   -0.184798
C      0.451277    0.591583   -0.238205
N     -0.116540   -0.778902   -0.303704
C     -1.611903   -0.738720   -0.361846
C     -2.253711   -2.127043   -0.497584
C     -1.868456   -3.203764    0.322456
C     -2.474511   -4.455842    0.194275
C     -3.475200   -4.636152   -0.753603
O     -4.093892   -5.840730   -0.913313
C     -3.878620   -3.588170   -1.570938
C     -3.273417   -2.336520   -1.442709
C     -2.252016   -0.000362    0.820831
C     -3.273107    0.933415    0.595194
C     -3.878523    1.610124    1.662681
C     -3.511687    1.353688    2.987269
N     -4.030801    2.048781    4.085822
C     -5.319873    2.705970    3.965694
C     -2.468230    0.444443    3.204844
C     -1.858736   -0.236614    2.145198
C      0.444748   -1.431856   -1.514856
C      1.981229   -1.494586   -1.487173
C      5.535103    1.962423   -2.029345
N      5.677122    2.003459   -3.439893
O      4.648551    1.847785   -4.107035
O      6.804717    2.255036   -3.881836
H      8.158625    3.448993   -1.459829
H      6.891575    4.574342   -1.990436
H      7.255491    4.399430   -0.268383
H      2.324799    1.640509   -0.252294
H      2.338062    0.186493    0.769717
H      0.124855    1.174597   -1.110379
H      0.103643    1.122683    0.653689
H     -1.868179   -0.174027   -1.271115
H     -1.082685   -3.067867    1.062291
H     -2.153699   -5.267946    0.838406
H     -3.722129   -6.464770   -0.268812
H     -4.665207   -3.743742   -2.303705
H     -3.606672   -1.524794   -2.084891
H     -3.606626    1.150979   -0.416803
H     -4.645399    2.341868    1.428839
H     -3.948705    1.503599    4.940776
H     -5.275785    3.549493    3.269516
H     -5.609367    3.107742    4.942080
H     -6.098439    2.004140    3.648781
H     -2.114570    0.254511    4.215194
H     -1.058401   -0.940506    2.360335
H      0.125344   -0.893159   -2.417337
H      0.088323   -2.462755   -1.608267
H      2.314854   -2.157594   -0.678873
H      2.338401   -1.926531   -2.428276
