58
 energy: -96.885238471513 gnorm: 0.000485582445 xtb: 6.7.1 (edcfbbe)
C            5.76227930671308        4.17264423555649       -1.42371974833820
C            5.44293388510358        2.76795809642853       -1.14761369327036
O            6.16470492440589        2.08437853971508       -0.27141032662876
N            5.71521690747472        0.79790433259719       -0.16597145702297
C            4.69474173570217        0.67445309319100       -0.96190349851312
C            4.02537267333195       -0.62440207151619       -1.29653491154805
O            4.44205788936752       -1.23084769513144       -2.28207577052510
N            3.05162008218685       -1.03844892837000       -0.49537656715868
C            2.43185149844756       -0.23217530411469        0.53211799590545
C            1.05496945942459        0.22349515913983        0.04315329735390
N            0.24601781458464       -0.94730327758203       -0.23924671834685
C           -1.13907485926875       -0.59817542278355       -0.54200922522395
C           -1.97493349244045       -1.83295984285895       -0.79561580834685
C           -1.84937776180409       -2.95590901780910        0.01202028019903
C           -2.64551539481375       -4.06680021029398       -0.18861104611238
C           -3.59609964728414       -4.07005469491587       -1.20342359223598
O           -4.40561824883350       -5.13739124437362       -1.44397334130462
C           -3.73221335346439       -2.94660735222186       -2.01249820301998
C           -2.92657185270108       -1.84401425556040       -1.80649016975819
C           -1.79120694206551        0.13336532055774        0.61033084082674
C           -2.71236500954429        1.14293618207379        0.37063490737406
C           -3.36585844316145        1.78182866080016        1.40606711702593
C           -3.10985878118491        1.42662212465088        2.73418936139487
N           -3.68906743687902        2.06909136255865        3.79578390485592
C           -4.83345900584372        2.93665358569982        3.65526694880637
C           -2.17818526451825        0.40623021941723        2.97122753058354
C           -1.53889378801372       -0.22808458456125        1.93057252775585
C            0.86831435757844       -1.70720339604652       -1.31072071010094
C            2.24548360173896       -2.18796624374781       -0.85518829793708
C            4.45879587178014        1.91408282942859       -1.63807435230519
N            3.42774376261005        2.18151041306032       -2.53746224939732
O            2.55667333070453        1.32807947963681       -2.67837838468940
O            3.42298176796324        3.25809114764765       -3.12098034256871
H            6.52868233278040        4.22056528570515       -2.19793392629469
H            4.88099021234544        4.68850581392929       -1.79593292068276
H            6.15663996628109        4.64439573731755       -0.52799228143772
H            3.06059812161441        0.62369910493524        0.77218097568765
H            2.31020896944173       -0.85386452342223        1.42146043260545
H            1.17968374338269        0.84671943118859       -0.86319555738321
H            0.56693193838806        0.82002685984492        0.81433726035480
H           -1.18253952929172        0.04734310602762       -1.44195652392470
H           -1.10986159905342       -2.96036319603624        0.79570070480690
H           -2.52920895707138       -4.93353256879933        0.44552157601246
H           -4.21192480757292       -5.85607457114796       -0.82311208381549
H           -4.47123532296870       -2.95871475463873       -2.79813453410817
H           -3.04034654889944       -0.98053392172188       -2.44596800697994
H           -2.92801417688735        1.43612947858564       -0.64781285093228
H           -4.07719923667634        2.55881760802201        1.17763504772662
H           -3.61161258382876        1.58842572467992        4.67803018610182
H           -4.57438888237969        3.79609074738946        3.03566056039098
H           -5.11979704052376        3.29778871700310        4.63906924719972
H           -5.69028539877886        2.42555766859499        3.20134145581782
H           -1.96482457003662        0.11604502909840        3.98964820758946
H           -0.82386232831159       -1.00876133074439        2.13441780213555
H            0.98855535747115       -1.09060225186523       -2.22083541331343
H            0.24299741039547       -2.56644800983301       -1.55337232858434
H            2.14501579342871       -2.82669813923663        0.02379352589062
H            2.75133854938907       -2.72550128505972       -1.65723085267503
