60
 energy: -100.666656209018 gnorm: 0.000628465954 xtb: 6.7.1 (edcfbbe)
C            7.40348279847684        1.62793954449133       -0.96016453845885
C            6.48502282753522        0.89139739966532       -0.08668124549939
O            6.63739272390417        0.93914093514308        1.22759202745789
N            5.69430902537656        0.17633374845982        1.85795237764824
C            4.92989818297534       -0.33621599133226        0.93997183490183
C            3.90283518505422       -1.40226257534640        1.17513714583437
O            4.27164920233169       -2.56747282071287        1.03571313620523
N            2.68335722069096       -1.02135413560696        1.53172819299566
C            1.60857847585814       -1.99037859432390        1.60938958341108
C            0.66532227820801       -1.78223430256931        0.42580690144888
N            0.14334997809504       -0.42594979680534        0.46756850988542
C           -0.90227910215945       -0.19911319366986       -0.52378435219953
C           -2.04085639480648       -1.18357706121280       -0.36442622639445
C           -2.54262858410263       -1.48638402610631        0.89602025911401
C           -3.60485974581143       -2.35805680659897        1.03883792348722
C           -4.20061998967934       -2.93271331603225       -0.07680986437094
C           -5.36962547264824       -3.87634353012970        0.06759485708394
O           -5.34925493363534       -4.95244575250742       -0.84840224475985
C           -3.70760484131109       -2.62088030249542       -1.33634781075780
C           -2.63564855497050       -1.75850825187243       -1.47832002381080
C           -1.52359825757828        1.17266562630649       -0.37242707045753
C           -1.99112176853136        1.85125298810019       -1.48956452486354
C           -2.63397879985019        3.06771719423977       -1.35502437100942
C           -2.82875277418715        3.62841539374192       -0.09960915227112
C           -3.54596851018868        4.94956009119709        0.03539791483739
O           -4.64259297373905        5.09090547371834       -0.84532676825876
C           -2.35373740036995        2.95413046495838        1.01759469921031
C           -1.70854716337332        1.73929562791478        0.88279356058873
C            1.24425821811962        0.50859182089304        0.32034036964013
C            2.19993956447315        0.34062265373652        1.50459088586272
C            5.38380986128143        0.08153066355426       -0.35222112600495
N            4.78961954460091       -0.22649186633247       -1.57688014805766
O            3.69665493984463       -0.77723611634581       -1.55559731883874
O            5.37135399124967        0.08859636684895       -2.60339588767737
H            6.92316515516427        1.84451624582190       -1.91074539333334
H            7.74084569084597        2.53334161779544       -0.46361009487931
H            8.27726661519217        1.00792778688467       -1.16344497766762
H            1.07052378653016       -1.83487670889956        2.54589967851621
H            2.04427142402594       -2.98926660312975        1.58581113451981
H            1.21997121218637       -1.97078308189726       -0.51173179096864
H           -0.16045281861496       -2.49032786940329        0.49054027215351
H           -0.49224615270922       -0.29557667719734       -1.54810731063712
H           -2.08185047947680       -1.04732245032305        1.76546094482336
H           -3.97864345959380       -2.59306552852730        2.02430598032295
H           -5.42417203583241       -4.25065438173551        1.09839744645415
H           -6.29974440513316       -3.33890729503867       -0.14703794929965
H           -4.56461248471625       -5.49286625350971       -0.68303323970949
H           -4.16716112528736       -3.06724055200432       -2.20600339665519
H           -2.25983453207807       -1.53330446823294       -2.46607840995076
H           -1.85317872251859        1.42566084300819       -2.47309630120150
H           -2.99961607130990        3.59095406022256       -2.22631849147307
H           -2.86439419802604        5.76586786846773       -0.22750213159254
H           -3.86786216185885        5.09699926123650        1.07482777040939
H           -5.30031317999069        4.41172229511377       -0.64171193076045
H           -2.49394217806849        3.38181122132876        1.99921288908895
H           -1.34030684439661        1.22172525845361        1.75342609705775
H            0.85389338129526        1.52656905196300        0.30475710112000
H            1.79721758285689        0.32514841693123       -0.62046696728694
H            1.65780713483118        0.52537062004120        2.43429500025247
H            3.03421111554708        1.03610176968007        1.42847156463208
