60

C      8.345684    1.526199    0.132389
C      7.022578    0.906334    0.335465
O      6.199199    1.510897    1.234412
N      5.007099    0.814438    1.316487
C      5.110811   -0.212754    0.451763
C      4.093556   -1.258290    0.332010
O      4.452059   -2.435437    0.302363
N      2.742866   -0.901101    0.249729
C      1.754177   -1.950285    0.489225
C      0.415083   -1.688906   -0.220661
N     -0.140609   -0.347416    0.095612
C     -1.444048   -0.128661   -0.606713
C     -2.509051   -1.179634   -0.261658
C     -2.769769   -1.560645    1.065276
C     -3.757384   -2.503686    1.359521
C     -4.518069   -3.077236    0.334537
C     -5.563059   -4.114351    0.644985
O     -5.018448   -5.422407    0.534640
C     -4.259876   -2.707593   -0.990921
C     -3.271769   -1.764590   -1.285587
C     -2.030639    1.273361   -0.386737
C     -2.540742    1.996701   -1.477104
C     -3.096572    3.265698   -1.295481
C     -3.152363    3.842256   -0.020867
C     -3.787102    5.192150    0.175808
O     -5.195216    5.066765    0.320218
C     -2.662679    3.119750    1.072929
C     -2.107485    1.850888    0.891722
C      0.867731    0.657967   -0.324987
C      2.232145    0.466715    0.367040
C      6.369411   -0.182850   -0.188153
N      6.864734   -1.058974   -1.187422
O      6.057987   -1.437894   -2.043566
O      8.073851   -1.317626   -1.155823
H      8.565256    1.629478   -0.934720
H      8.390150    2.523439    0.581443
H      9.128161    0.912905    0.589419
H      1.599577   -2.001838    1.574428
H      2.143262   -2.923537    0.171109
H      0.559193   -1.792389   -1.304738
H     -0.269200   -2.483577    0.093522
H     -1.232259   -0.224257   -1.682509
H     -2.192273   -1.127419    1.879146
H     -3.929087   -2.785819    2.396321
H     -5.952353   -3.984868    1.660326
H     -6.411408   -4.028726   -0.042191
H     -4.060071   -5.333747    0.394893
H     -4.831535   -3.152365   -1.803391
H     -3.103334   -1.488318   -2.324129
H     -2.516551    1.572825   -2.478624
H     -3.494509    3.801408   -2.155347
H     -3.579029    5.846952   -0.676944
H     -3.388744    5.684627    1.069124
H     -5.404538    4.118026    0.372635
H     -2.713430    3.537890    2.076236
H     -1.726965    1.311099    1.756269
H      0.536078    1.674212   -0.088851
H      1.014098    0.609411   -1.412815
H      2.147010    0.693980    1.436454
H      2.938411    1.170827   -0.081952
