60
 energy: -105.529616777230 gnorm: 0.000726114226 xtb: 6.7.1 (edcfbbe)
C            7.44040032103857        1.62856738508832        0.33133150825355
C            6.48249558665746        0.80861697986870       -0.41575986054572
O            6.55931184418188        0.73018433976524       -1.73443358429980
N            5.58725155009211       -0.09208975334136       -2.23305216745873
C            4.88062353961212       -0.51569643101490       -1.22771300862286
C            3.84770618032021       -1.59979855216007       -1.30180507826594
O            4.23121302408558       -2.74704521365643       -1.08086853264120
N            2.60602283849056       -1.25262657729921       -1.61378652459768
C            2.11897414467608        0.10674541196990       -1.67718840118560
C            1.26059493518844        0.38750848082265       -0.44127838021771
N            0.15386915033066       -0.55317943695744       -0.41041366678258
C           -0.79642781084966       -0.23759917317076        0.65005482079201
C           -1.41116539740472        1.13161642568418        0.45449301986462
C           -1.71323368950752        1.60141588550167       -0.81908258432722
C           -2.31133534410297        2.83429550508556       -0.98294636530221
C           -2.64780904081327        3.61174315004869        0.12222327910260
C           -3.28775638830303        4.93636279580254       -0.11317208905993
N           -4.12793524586847        5.36564927190758        0.84052929079009
O           -3.05914587241737        5.59601944234422       -1.12665574504861
C           -2.34550794843658        3.14285040418591        1.39710795480860
C           -1.72823784757113        1.91589199868496        1.55600675665849
C           -1.95893617750771       -1.20584802968377        0.66406204030547
C           -2.53499608192973       -1.63950229590123       -0.52487490968609
C           -3.62404154568654       -2.48879687550195       -0.51248675421318
C           -4.16617804177282       -2.91562553498843        0.69768057728796
C           -5.32893921767094       -3.84285018064476        0.78230748128808
N           -6.18572863600911       -3.82331772744000       -0.24922889298937
O           -5.49699566981546       -4.58352670186382        1.75165925694497
C           -3.58256183819407       -2.48861883404243        1.88665717948004
C           -2.49403268014099       -1.63866050124084        1.87022561958850
C            0.68379798031360       -1.90297692645313       -0.29007361331876
C            1.53064790438236       -2.21994675334434       -1.52152528469121
C            5.40487800094057        0.02519138090227       -0.01029861472970
N            4.89380326155629       -0.16488730537574        1.27381241899485
O            3.81130418020091       -0.72731783821555        1.37834764868603
O            5.53410320167572        0.25802794553076        2.22377513120268
H            6.96662096539746        2.04161685908311        1.21866816094641
H            7.84088997261038        2.40731376683172       -0.31055592817875
H            8.26386747545827        0.99867774367693        0.66984344367372
H            2.95235018790764        0.80515653395884       -1.73463278722931
H            1.50401177124185        0.20422165897715       -2.57417528117491
H            0.87124960645164        1.40469835149440       -0.49079079473692
H            1.88717328960286        0.28972099903943        0.46487686040311
H           -0.29879977693080       -0.26831514562277        1.63830008426566
H           -1.45897278417948        1.00173724572680       -1.67720078109966
H           -2.53324152188014        3.21865502452747       -1.96718630513000
H           -4.37170288223877        4.78690813602387        1.62489541978162
H           -4.59863543525804        6.24651710992022        0.71068550152478
H           -2.55483390061224        3.74387595233285        2.26839929630356
H           -1.48660878138094        1.56574472907357        2.54858999274012
H           -2.10978947329841       -1.31821901847008       -1.46128309252786
H           -4.02617983923954       -2.84055784034654       -1.44940596336166
H           -6.09271044398007       -3.16256613880059       -1.00045415756969
H           -6.99182904231574       -4.42600360799548       -0.21562813182309
H           -3.99833956432035       -2.84052859465812        2.81915033707512
H           -2.05250821411819       -1.31809665090861        2.80204826452371
H            1.31286084311051       -2.00757480441222        0.61231453540458
H           -0.13990895875975       -2.61324741475029       -0.22336820812045
H            0.92095523342811       -2.14528642860362       -2.42324471111497
H            1.96805010355046       -3.21522462697568       -1.44348068066156
