60

C      7.713759    1.609086    0.366129
C      6.607592    0.822507   -0.211459
O      6.415208    0.937612   -1.554245
N      5.346256    0.148327   -1.941813
C      4.897265   -0.448328   -0.821746
C      3.837554   -1.455148   -0.834432
O      3.966405   -2.476919   -0.161573
N      2.708857   -1.229256   -1.630682
C      2.173289    0.111434   -1.872919
C      1.099972    0.451625   -0.812404
N      0.000044   -0.553692   -0.761718
C     -0.970455   -0.232920    0.331000
C     -1.574370    1.176284    0.226300
C     -2.073870    1.679243   -0.987486
C     -2.634078    2.957172   -1.055314
C     -2.721910    3.750154    0.093356
C     -3.326077    5.103318   -0.028454
N     -3.847765    5.665287    1.104275
O     -3.390384    5.685796   -1.103423
C     -2.224775    3.263805    1.307516
C     -1.660766    1.985269    1.372748
C     -2.109126   -1.256107    0.456289
C     -2.840889   -1.688690   -0.663901
C     -3.888357   -2.605236   -0.528522
C     -4.229359   -3.096876    0.735792
C     -5.334863   -4.071694    0.936176
N     -6.307137   -4.132082   -0.023995
O     -5.401533   -4.773193    1.937614
C     -3.500672   -2.681819    1.856027
C     -2.454565   -1.765198    1.719117
C      0.596939   -1.907645   -0.554365
C      1.660790   -2.244682   -1.618552
C      5.658975   -0.034209    0.291101
N      5.469832   -0.378157    1.653307
O      4.299534   -0.460875    2.044788
O      6.485181   -0.499411    2.348372
H      7.377692    2.156833    1.251921
H      8.100098    2.338746   -0.352498
H      8.537780    0.950902    0.657792
H      2.949393    0.877851   -1.845917
H      1.732062    0.119027   -2.876742
H      0.709346    1.442295   -1.065033
H      1.583911    0.526597    0.170850
H     -0.397434   -0.267434    1.269935
H     -2.015452    1.079427   -1.893327
H     -3.005236    3.331510   -2.007586
H     -4.082662    5.109599    1.913908
H     -4.371311    6.520579    0.964623
H     -2.246233    3.872479    2.206663
H     -1.283715    1.625059    2.328142
H     -2.582442   -1.322445   -1.655528
H     -4.406129   -2.940239   -1.422026
H     -6.445100   -3.389015   -0.693248
H     -7.109922   -4.705813    0.202296
H     -3.749518   -3.070000    2.842235
H     -1.910634   -1.454512    2.608726
H      1.052824   -1.968155    0.442910
H     -0.172984   -2.683289   -0.615652
H      1.205796   -2.267651   -2.616292
H      2.083371   -3.237133   -1.429061
