52
 energy: -94.308962250830 gnorm: 0.000801319079 xtb: 6.7.1 (edcfbbe)
C            6.45892966903673        2.22088194891723       -0.65080507318801
C            5.57747019884577        1.45979988800626        0.23990788090626
O            5.64524596874095        1.63207484796581        1.55089621550493
N            4.74941922508978        0.82531061690609        2.19697099128531
C            4.09968902702236        0.15842811823825        1.28995777693159
C            3.16495988435230       -0.98120131678885        1.56698177313689
O            3.64948874658206       -2.11154848783401        1.56705441794177
N            1.89285096535180       -0.69027994958649        1.80495172275311
C            0.90183566518169       -1.74434785599888        1.89192534016960
C            0.04943281243464       -1.73029762207594        0.62359308789652
N           -0.58444456717420       -0.42783273825921        0.48586899614670
C           -1.54064514905109       -0.39547669134864       -0.61521544897077
C           -2.62922933637270       -1.43222909454158       -0.43543265985282
C           -3.19887363657830       -1.65039757535356        0.81362358861100
C           -4.22601392926227       -2.56165578126258        0.97303853294601
C           -4.69247932230944       -3.25323814591286       -0.13236163858988
Cl          -5.99046351930552       -4.40186142867433        0.05685905473802
C           -4.14317857597209       -3.04959010163744       -1.38557720273772
C           -3.11127014557725       -2.13804700884605       -1.52878165990819
C           -2.25353440974827        0.93837204346473       -0.69216003373570
C           -2.61451353368404        1.61959837274012        0.46451716600563
C           -3.31044414429289        2.81229122702120        0.39523914827223
C           -3.65645747736977        3.32089298021447       -0.84535720736799
Cl          -4.53893986026672        4.82147810433152       -0.94417385990209
C           -3.31228744473366        2.65748363949452       -2.00971060184724
C           -2.60985467024437        1.46779822726682       -1.92489610635351
C            0.44488145007814        0.58658930709972        0.34176264438807
C            1.29432593092278        0.61169092148179        1.61478925410776
C            4.58532790475534        0.51515448017356       -0.00908793593536
N            4.10803417265994        0.04380010957582       -1.23280249250176
O            3.08802176112931       -0.63268060265883       -1.22280724917160
O            4.71275146634440        0.34612809186240       -2.25032780919290
H            5.98098336690679        2.36160677086477       -1.61742986616108
H            7.37578080205762        1.65381870510747       -0.81963288408821
H            6.72236958548271        3.16824493292205       -0.18981808093090
H            1.42090182590703       -2.69705104846923        1.99709627669916
H            0.27550550957048       -1.55807287948043        2.76560689529373
H           -0.71707303925018       -2.50148513495352        0.69385638668902
H            0.69739929553105       -1.95335364458371       -0.24303324923072
H           -1.02966155000306       -0.58221796779223       -1.57815203743768
H           -2.82363430496332       -1.11135657549935        1.66711301665620
H           -4.66387888895966       -2.73460961268728        1.94243813644523
H           -4.51432677690637       -3.59713867344022       -2.23671006213735
H           -2.67934225455651       -1.98248041598786       -2.50557164150890
H           -2.33563999323122        1.21649997540866        1.42360598982665
H           -3.58527459639802        3.34250169175035        1.29231398227538
H           -3.58747769870163        3.06552392453711       -2.96876521713609
H           -2.33857933352075        0.95097755511215       -2.83267292739320
H            1.09671510171657        0.36825280146376       -0.52439360039349
H           -0.02248416649872        1.55989835352107        0.19342588665805
H            2.06580740652312        1.37739902349167        1.55195552915124
H            0.65187158270653        0.81595169473222        2.47358685416061
