52

C      7.416899    2.260164    0.361217
C      6.140061    1.557331    0.588891
O      5.214289    2.207526    1.345073
N      4.081631    1.423839    1.471101
C      4.324943    0.296069    0.776489
C      3.407896   -0.844584    0.764461
O      3.864199   -1.975875    0.928647
N      2.039669   -0.628329    0.563600
C      1.129040   -1.717351    0.910302
C     -0.180099   -1.686470    0.103583
N     -0.865200   -0.369537    0.184731
C     -2.134969   -0.376983   -0.605242
C     -3.129939   -1.457073   -0.153886
C     -3.433057   -1.661897    1.204715
C     -4.356074   -2.635835    1.592822
C     -4.990272   -3.411082    0.626043
Cl    -6.127131   -4.611321    1.102608
C     -4.710597   -3.220934   -0.725036
C     -3.786980   -2.247034   -1.113974
C     -2.849505    0.983015   -0.628382
C     -3.053770    1.730846    0.545786
C     -3.722513    2.956532    0.505991
C     -4.199537    3.444307   -0.707440
Cl    -5.022019    4.954615   -0.758333
C     -4.015091    2.717332   -1.881044
C     -3.345703    1.491290   -1.842033
C      0.081424    0.651261   -0.332350
C      1.410826    0.689292    0.447828
C      5.614208    0.348496    0.202488
N      6.242225   -0.613723   -0.628884
O      5.524617   -1.184816   -1.457361
O      7.464356   -0.753121   -0.499493
H      7.693366    2.227817   -0.697140
H      8.217736    1.793822    0.942991
H      7.349773    3.311666    0.657780
H      1.616869   -2.686925    0.762897
H      0.911621   -1.623200    1.981781
H     -0.814251   -2.486005    0.499858
H      0.039799   -1.933780   -0.943890
H     -1.851373   -0.611121   -1.642521
H     -2.940610   -1.065023    1.969572
H     -4.574292   -2.781583    2.647213
H     -5.209406   -3.823594   -1.479347
H     -3.586717   -2.107281   -2.174083
H     -2.682098    1.361511    1.499348
H     -3.867698    3.521006    1.423010
H     -4.392597    3.096311   -2.827021
H     -3.218166    0.933155   -2.767097
H      0.299361    0.457304   -1.391611
H     -0.347794    1.656448   -0.269853
H      2.082762    1.382112   -0.066640
H      1.239885    1.061408    1.465095
