19

C      -2.103951     1.492032     1.245158
N      -1.295590     0.395046     0.765097
C      -1.993506    -0.798050     0.311772
C      -0.008204     0.698540     0.276345
O       0.538131     1.789195     0.444184
C       0.703577    -0.399354    -0.515002
N       0.305350    -0.768162    -1.694666
O       0.962354    -1.821828    -2.274711
S       1.966885    -0.943303     0.551917
C       3.371390    -0.486599    -0.482958
H      -1.485042     2.274323     1.693522
H      -2.657711     1.918076     0.403130
H      -2.804317     1.123991     2.000302
H      -2.391733    -0.618882    -0.691133
H      -2.816531    -1.017835     0.998401
H      -1.327876    -1.664114     0.297469
H       3.487701    -1.172332    -1.325002
H       3.265071     0.535623    -0.857118
H       4.284003    -0.536367     0.117700
