19

C      -1.825498    -0.007688    -1.049295
N      -1.496054    -0.141918     0.361208
C      -2.567002     0.049729     1.311796
C      -0.177733     0.077701     0.810821
O       0.119094     0.198075     1.999762
C       0.905745     0.187704    -0.262590
N       0.975944     1.201773    -1.070643
O       1.932347     1.154244    -2.051126
S       1.811826    -1.290454    -0.106988
C       3.397115    -0.556871     0.341222
H      -2.787801    -0.491004    -1.242991
H      -1.074494    -0.490836    -1.678498
H      -1.892708     1.054847    -1.300297
H      -2.868009     1.101576     1.297944
H      -2.250251    -0.214185     2.324750
H      -3.415981    -0.581734     1.034850
H       3.882076    -0.094330    -0.521138
H       4.058049    -1.344282     0.714415
H       3.273334     0.187653     1.132802
