19

C      -1.692545     1.221335    -0.467210
N      -1.653717    -0.170659    -0.068935
C      -2.867449    -0.994635    -0.126152
C      -0.456205    -0.784920     0.386369
O      -0.440588    -2.016486     0.734281
C       0.783252     0.006390     0.458754
N       0.774008     1.243810     0.110704
O       1.952696     1.942312     0.194654
Se      2.397311    -0.852051     1.080875
C       3.844361    -0.342024    -0.147624
H      -1.087337     1.451881    -1.350804
H      -1.488576     1.919721     0.372358
H      -2.752742     1.465618    -0.769161
H      -3.148871    -1.353955     0.881674
H      -2.729953    -1.775797    -0.874377
H      -3.714935    -0.345136    -0.488735
H       3.550945    -0.492701    -1.201003
H       4.775192    -0.875648     0.115011
H       3.955152     0.752944    -0.013076
