19

C      -1.703572     0.941963    -0.789488
N      -1.714472     0.003856     0.316655
C      -2.972981    -0.493500     0.893434
C      -0.490062    -0.485313     0.903023
O      -0.522555    -1.307943     1.872598
C       0.792890    -0.033725     0.380771
N       0.849295     0.799523    -0.601077
O       2.057565     1.201746    -1.065702
Se      2.414205    -0.698187     1.176838
C       3.909785    -0.480757    -0.038567
H      -2.786224     1.119006    -1.054999
H      -1.227156     0.516548    -1.713121
H      -1.243997     1.914928    -0.543558
H      -3.806696     0.099820     0.452026
H      -3.000818    -0.255718     1.980406
H      -3.087971    -1.594123     0.692728
H       3.639517    -0.825991    -1.062193
H       4.773332    -1.036220     0.374156
H       4.119913     0.614087    -0.127927
