19

C      -2.275309     1.272125     1.038216
N      -1.501404     0.214129     0.457505
C      -2.093960    -0.757414    -0.448578
C      -0.123045     0.118608     0.779469
O       0.317198     1.011163     1.582231
C       0.757280    -0.915477     0.247244
N       0.361775    -1.837065    -0.564763
O       1.204302    -2.800072    -1.053907
Se      2.598854    -0.916232     0.773654
C       3.572021     0.530700    -0.098159
H      -2.004769     2.234940     0.517656
H      -3.370550     1.126086     0.871450
H      -2.074395     1.381968     2.123998
H      -1.956770    -1.797514    -0.035661
H      -3.174664    -0.600314    -0.577495
H      -1.564383    -0.735995    -1.422317
H       2.971413     1.013220    -0.893196
H       3.824427     1.284859     0.690243
H       4.531978     0.172285    -0.550786
