19

C      -2.880673    -1.008556     0.298516
N      -1.703184    -0.184894     0.002574
C      -1.830156     1.116722    -0.624082
C      -0.449050    -0.738369     0.365023
O      -0.492765    -1.894609     0.909147
C       0.819893    -0.064841     0.147520
N       0.899359     1.099131    -0.397417
O       2.037224     1.801558    -0.639089
Se      2.436770    -0.915515     0.679674
C       3.940990    -0.142727    -0.263375
H      -3.699836    -0.804768    -0.421396
H      -2.613912    -2.060974     0.240026
H      -3.203745    -0.667374     1.318419
H      -1.198833     1.260820    -1.509251
H      -2.885145     1.176604    -1.023745
H      -1.754606     1.898205     0.152602
H       4.839526    -0.793560    -0.206266
H       3.605920     0.043284    -1.315717
H       4.132224     0.879865     0.160442
