19

C      -2.217023     0.657018     1.691640
N      -1.213732     0.269484     0.718822
C      -1.025340     1.068416    -0.477433
C      -0.452245    -0.894390     0.991622
O      -0.692834    -1.517207     2.056958
C       0.586893    -1.417169     0.125258
N       1.190902    -2.492361     0.518237
O       0.928771    -3.161645     1.668015
Se      1.114338    -0.644690    -1.520750
C       2.791479     0.318891    -1.388914
H      -3.027228     1.258269     1.191248
H      -2.660557    -0.278447     2.095410
H      -1.703201     1.263169     2.464876
H      -1.734153     1.925752    -0.509002
H      -1.256883     0.487621    -1.399998
H       0.006864     1.518995    -0.514865
H       2.642824     1.318283    -1.841846
H       3.625126    -0.164628    -1.925936
H       3.095998     0.484637    -0.334142
