19

C      -2.468073    -1.396315    -0.026237
N      -1.441258    -0.421271     0.260511
C      -1.872906     0.942602     0.524326
C      -0.143454    -0.677966    -0.227506
O       0.205481    -1.770140    -0.676480
C       0.844495     0.488874    -0.201428
N       0.717237     1.518223    -0.982746
O       1.608238     2.545594    -0.812629
S       1.962903     0.072471     1.065817
C       3.449794    -0.035059     0.051045
H      -3.232094    -1.360008     0.755533
H      -2.054667    -2.408078    -0.064897
H      -2.918494    -1.160864    -0.995185
H      -2.108620     1.432034    -0.425094
H      -1.100037     1.507117     1.050959
H      -2.765142     0.922975     1.157313
H       3.268437    -0.634493    -0.845626
H       3.808664     0.954803    -0.239106
H       4.239497    -0.520499     0.631432
