19

C       2.240060    -0.125317    -1.840019
N       1.259102    -0.167033    -0.743759
C       1.206668    -1.318860     0.134166
C       0.414190     0.957731    -0.627013
O       0.562565     1.889082    -1.453025
C      -0.618978     1.119472     0.381783
N      -1.306693     2.211525     0.350698
O      -1.064406     3.172840    -0.599056
Se     -0.993944    -0.191608     1.725992
C      -2.900528    -0.469225     1.948558
H       1.732456    -0.481443    -2.761195
H       3.086869    -0.814453    -1.641865
H       2.643205     0.890360    -1.909270
H       0.196670    -1.784149     0.008680
H       1.927670    -2.090683    -0.259454
H       1.414888    -1.092732     1.186466
H      -3.117050    -1.570872     1.961758
H      -3.503198    -0.007223     1.168896
H      -3.179546    -0.127411     2.967659
