19

C      -1.890286     0.938557    -0.349094
N      -1.479951    -0.361298     0.158909
C      -2.491195    -1.170715     0.798847
C      -0.135312    -0.598538     0.511061
O       0.232064    -1.587150     1.146559
C       0.884316     0.457826     0.083637
N       0.917349     1.640856     0.618018
O       1.813966     2.536899     0.096964
S       1.782725    -0.309327    -1.194828
C       3.399058    -0.298952    -0.395118
H      -2.867217     0.845262    -0.832875
H      -1.961216     1.641612     0.485880
H      -1.182540     1.314356    -1.091528
H      -2.781692    -0.694594     1.740173
H      -3.361408    -1.251902     0.141311
H      -2.118215    -2.176536     1.011605
H       3.837248     0.701433    -0.391405
H       4.072664    -0.957317    -0.950944
H       3.329641    -0.670472     0.631232
