19

C      -1.796256     1.155505     0.261624
N      -1.673619    -0.303727     0.181973
C      -2.882202    -1.072738     0.007701
C      -0.398145    -0.921530     0.275277
O      -0.350748    -2.196651     0.199323
C       0.806539    -0.126774     0.450820
N       0.828349     1.141026     0.533541
O       1.984565     1.862875     0.699408
Se      2.500524    -1.057108     0.567695
C       3.845155     0.083782    -0.283214
H      -2.834998     1.478992     0.095617
H      -1.415073     1.437145     1.262641
H      -1.216849     1.617886    -0.580327
H      -3.217234    -1.579467     0.948486
H      -3.717018    -0.452962    -0.336143
H      -2.753924    -1.875700    -0.766867
H       3.443042     0.481772    -1.248295
H       4.756708    -0.556437    -0.468425
H       4.091184     0.884112     0.417566
