19

C      -1.674068     1.148859     0.679049
N      -1.499084    -0.189569     0.136776
C      -2.683981    -0.878122    -0.320603
C      -0.262940    -0.579241    -0.418608
O      -0.115184    -1.603596    -1.085723
C       0.924328     0.353622    -0.176946
N       1.005486     1.524932    -0.731615
O       2.068865     2.312634    -0.375148
S       1.921889    -0.510921     0.957770
C       3.381423    -0.685828    -0.086904
H      -1.796821     1.855163    -0.147127
H      -0.819544     1.441410     1.293492
H      -2.565978     1.168122     1.312502
H      -3.442264    -0.858998     0.467338
H      -2.465539    -1.920085    -0.570911
H      -3.064617    -0.372165    -1.212960
H       3.108401    -1.047241    -1.082435
H       3.923625     0.257831    -0.178127
H       4.056004    -1.416806     0.367782
