19

C      -2.087676     1.875801     0.077269
N      -0.948898     0.987438     0.134473
C       0.344984     1.589221     0.413717
C      -1.200289    -0.361257     0.473046
O      -2.333813    -0.840586     0.501920
C       0.018484    -1.223259     0.828843
N       0.716640    -0.998008     1.901123
O       1.801208    -1.798593     2.138112
S       0.147277    -2.332676    -0.506718
C       1.889582    -2.140530    -0.916147
H      -1.866575     2.707979    -0.597160
H      -2.977018     1.355884    -0.290147
H      -2.290253     2.257243     1.082614
H       0.418677     1.798366     1.484842
H       0.438040     2.523380    -0.148339
H       1.160497     0.931907     0.106145
H       2.043339    -2.471655    -1.947485
H       2.518833    -2.764089    -0.277047
H       2.206962    -1.096567    -0.849862
