19

C      -2.424769     1.487709    -0.571825
N      -1.575988     0.288797    -0.277796
C      -2.271977    -0.874854     0.126589
C      -0.204282     0.522102    -0.453412
O       0.035086     1.753080    -0.839981
C       0.946816    -0.301999    -0.295835
N       1.069170    -1.508593     0.055268
O       0.138667    -2.379623     0.387177
Se      2.670574     0.552175    -0.683866
C       4.056836    -0.189273     0.430094
H      -1.977673     2.018682    -1.426889
H      -2.380647     2.164310     0.306526
H      -3.429236     1.148380    -0.833696
H      -3.393300    -0.631323     0.158009
H      -2.219615    -1.733404    -0.596416
H      -2.085662    -1.212038     1.175549
H       4.688270     0.589003     0.900750
H       4.729366    -0.861546    -0.154530
H       3.628364    -0.831585     1.249487
