19

C      -2.540665    -1.232203     0.149876
N      -1.475385    -0.256491     0.170991
C      -1.839928     1.132730    -0.059757
C      -0.170504    -0.709184    -0.113097
O       0.137457    -1.900748    -0.151988
C       0.881287     0.362157    -0.403274
N       0.856744     1.077534    -1.486715
O       1.795962     2.068925    -1.602140
S       1.903627     0.348732     1.005549
C       3.434086    -0.145338     0.189605
H      -2.923745    -1.315344    -0.871648
H      -2.185781    -2.214073     0.475524
H      -3.342180    -0.909620     0.820492
H      -1.995136     1.287452    -1.131424
H      -2.764544     1.357947     0.480149
H      -1.064763     1.810728     0.304622
H       3.865400     0.677799    -0.384164
H       3.266427    -1.001311    -0.470275
H       4.161643    -0.439691     0.951280
