19

C      -2.125831     1.771968     0.547921
N      -1.322894     0.756319    -0.093198
C      -2.027305    -0.341203    -0.737650
C      -0.000132     0.585330     0.364417
O       0.567130     1.388295     1.105793
C       0.725063    -0.683199    -0.086318
N       0.387518    -1.860839     0.344304
O       1.046717    -2.935312    -0.193540
S       1.905577    -0.115106    -1.232532
C       3.382422    -0.628431    -0.333865
H      -1.512079     2.617574     0.870904
H      -2.615309     1.335151     1.423578
H      -2.880764     2.135664    -0.154944
H      -2.359219    -1.049731     0.026757
H      -1.387880    -0.850008    -1.462621
H      -2.896156     0.052470    -1.273615
H       3.528691    -1.709354    -0.388723
H       4.255537    -0.149203    -0.785682
H       3.328914    -0.320385     0.714219
