14

C       0.141201     1.278930     0.005525
N      -0.440558    -0.039882    -0.189658
C      -1.816728    -0.100638    -0.630265
C       0.127998    -1.180222     0.386244
O      -0.416967    -2.281587     0.375778
C       1.415369    -1.030224     1.037764
N       2.706365    -0.747301     1.677722
O       3.952189    -0.434075     2.290530
H       1.232778     1.240421     0.028460
H      -0.226848     1.687311     0.951398
H      -0.160023     1.932575    -0.818476
H      -1.936287     0.515579    -1.526030
H      -2.458349     0.283368     0.168438
H      -2.120142    -1.124255    -0.866161
