14

C      -1.902174    -0.542154     0.314072
N      -0.525084    -0.274767    -0.037777
C      -0.275211     0.785836    -1.001359
C       0.484360    -0.743732     0.808621
O       0.276016    -1.521908     1.736594
C       1.832420    -0.262258     0.573634
N       3.145208     0.307887     0.245328
O       4.399963     0.884104    -0.100047
H      -1.992456    -1.431399     0.943827
H      -2.298793     0.319381     0.859521
H      -2.483929    -0.698712    -0.598868
H      -1.004950     0.715835    -1.813484
H      -0.380352     1.750182    -0.495500
H       0.724983     0.711705    -1.434561
