14

C       0.654293    -0.907359     0.666781
N      -0.397091    -0.394728    -0.197860
C      -1.655269    -1.107845    -0.208804
C      -0.367403     0.916213    -0.683504
O      -1.307791     1.432597    -1.282769
C       0.834003     1.692514    -0.442083
N       2.092804     2.377519    -0.122006
O       3.323985     3.009705     0.210043
H       0.430554    -0.619507     1.698282
H       1.635218    -0.516327     0.386728
H       0.686758    -1.998160     0.588889
H      -2.130818    -0.995832     0.770160
H      -2.331330    -0.721752    -0.976510
H      -1.467913    -2.167039    -0.407347
