14

C      -0.123423    -0.623151     1.225729
N      -0.558817    -0.000465    -0.014634
C      -1.970666    -0.051511    -0.324060
C       0.342406     0.275739    -1.047496
O      -0.008635     0.653395    -2.162955
C       1.753925     0.083736    -0.773545
N       3.146737    -0.163231    -0.379407
O       4.483635    -0.417510     0.037449
H      -0.098961    -1.707581     1.083167
H       0.867445    -0.275446     1.527108
H      -0.829821    -0.373570     2.023023
H      -2.540616     0.332443     0.526909
H      -2.212353     0.547283    -1.206403
H      -2.250856    -1.091773    -0.514887
