14

C      -0.410383    -1.001643    -0.554317
N      -0.477835    -0.024937     0.521462
C      -1.791361     0.356953     0.991011
C       0.607013     0.804363     0.822564
O       0.536996     1.742419     1.613291
C       1.861524     0.538235     0.144564
N       3.065930     0.178835    -0.614711
O       4.211742    -0.196498    -1.370993
H      -0.651300    -0.501282    -1.496924
H      -1.136247    -1.798175    -0.365566
H       0.581071    -1.454524    -0.628233
H      -2.359746    -0.542705     1.243925
H      -1.733477     0.995325     1.876803
H      -2.303928     0.903636     0.193842
