14

C      -1.632221    -0.968114    -0.639881
N      -0.503516    -0.314459    -0.015037
C      -0.631352     1.104396     0.278752
C       0.747219    -0.936753    -0.075934
O       0.906288    -2.088846    -0.472770
C       1.901557    -0.161378     0.337103
N       2.988639     0.728360     0.764751
O       4.015879     1.620765     1.182017
H      -1.755519    -0.566330    -1.650045
H      -2.533875    -0.770332    -0.053099
H      -1.486869    -2.049842    -0.704954
H       0.110525     1.434863     1.009477
H      -1.626137     1.300349     0.689813
H      -0.500618     1.667320    -0.650193
