14

C      -1.565652     0.711327     1.026444
N      -0.476768     0.315356     0.160875
C      -0.710488    -0.804248    -0.737828
C       0.817923     0.736403     0.479916
O       1.058483     1.569806     1.350359
C       1.916806     0.134917    -0.251503
N       2.939858    -0.556091    -1.046572
O       3.902788    -1.249100    -1.832846
H      -1.748225    -0.089188     1.749567
H      -1.335445     1.632213     1.569095
H      -2.464088     0.874630     0.424317
H      -0.650734    -1.733028    -0.162754
H       0.021871    -0.832635    -1.548008
H      -1.706328    -0.710360    -1.181059
