14

C      -0.237053     1.069604    -0.704096
N      -0.524781    -0.239983    -0.140183
C      -1.914357    -0.584734     0.064502
C       0.452872    -0.971160     0.541631
O       0.209207    -2.002496     1.163783
C       1.810453    -0.460681     0.515396
N       3.136396     0.164247     0.428202
O       4.404954     0.801298     0.325007
H      -0.354871     1.822312     0.081055
H      -0.938897     1.275029    -1.517841
H       0.777018     1.122840    -1.107053
H      -2.030353    -1.627453     0.372363
H      -2.465269    -0.431246    -0.867888
H      -2.325317     0.062421     0.845121
