19

C      -2.654314    -1.065472    -0.293143
N      -1.366048    -0.561663     0.123092
C      -1.333325     0.235524     1.337702
C      -0.384434    -0.396876    -0.879772
O      -0.487281    -0.893048    -2.003689
C       0.881572     0.370640    -0.508743
N       1.108876     1.641497    -0.383940
O       0.054526     2.464727    -0.673627
S       2.071260    -0.869585    -0.189205
C       3.534598     0.180809    -0.091924
H      -3.270471    -0.226673    -0.630921
H      -2.553836    -1.782692    -1.112679
H      -3.139629    -1.564672     0.550411
H      -1.875205    -0.297847     2.124828
H      -0.313475     0.404161     1.688404
H      -1.824650     1.194361     1.151210
H       4.414848    -0.448985     0.064277
H       3.675931     0.739741    -1.021261
H       3.461058     0.876051     0.748980
