19

C      -2.248155    -0.638929    -0.644670
N      -1.357364     0.234487     0.080958
C      -1.933189     1.523581     0.488114
C      -0.023501    -0.010205     0.433857
O       0.542607     0.960201     1.091536
C       0.811814    -1.150028     0.188398
N       0.605559    -2.229558    -0.394542
O      -0.324502    -2.891265    -1.034242
Se      2.649889    -1.002442     0.904073
C       3.607509     0.394253    -0.032081
H      -2.451856    -1.601430    -0.157241
H      -1.810185    -0.792727    -1.661315
H      -3.249706    -0.129553    -0.747403
H      -2.585151     1.869719    -0.332467
H      -1.149031     2.233356     0.748840
H      -2.560383     1.326308     1.383736
H       2.946435     1.162690    -0.459793
H       4.353626     0.847504     0.674723
H       4.175585    -0.105962    -0.842929
