19

C      -2.623054    -1.055960     0.035418
N      -1.477005    -0.297083    -0.409510
C      -1.729651     1.014001    -0.986825
C      -0.231509    -0.588193     0.184078
O      -0.030745    -1.585223     0.878197
C       0.894658     0.419165    -0.050906
N       0.881102     1.604995     0.478083
O       1.896580     2.456520     0.128779
S       1.977725    -0.398593    -1.141036
C       3.418773    -0.449510    -0.057999
H      -3.060044    -0.558415     0.906430
H      -3.360626    -1.106368    -0.770596
H      -2.340014    -2.074663     0.315046
H      -1.921499     1.727798    -0.180484
H      -2.604442     0.957821    -1.641592
H      -0.881930     1.351637    -1.587411
H       4.153327    -1.141645    -0.479321
H       3.892378     0.531171     0.024209
H       3.145976    -0.807453     0.938842
