19

C      -2.650369    -0.670686     0.873625
N      -1.423142    -0.082567     0.389129
C      -1.541229     0.905862    -0.669610
C      -0.240309    -0.839180     0.546924
O      -0.169694    -1.822645     1.287030
C       1.009449    -0.355639    -0.183696
N       1.370404    -0.456642    -1.425401
O       0.517532    -1.154658    -2.236981
S       1.932445     0.491816     1.035124
C       3.467841     0.701426     0.111676
H      -2.475470    -1.270451     1.771306
H      -3.066590    -1.315131     0.093379
H      -3.362825     0.122740     1.116943
H      -1.852422     0.408346    -1.592208
H      -0.604352     1.440927    -0.835406
H      -2.301162     1.639865    -0.384251
H       3.311633     1.332474    -0.767676
H       4.205326     1.190740     0.753987
H       3.872934    -0.266597    -0.196341
