19

C      -2.765797     0.775961    -0.062803
N      -1.583508    -0.115042    -0.222813
C      -1.865993    -1.504604    -0.341337
C      -0.354762     0.552891    -0.233737
O      -0.477628     1.844695    -0.102455
C       0.983888     0.037872    -0.364671
N       1.397286    -1.124038    -0.500521
O       0.974639    -2.359891    -0.592207
Se      2.404295     1.392127    -0.322820
C       3.850047     0.825578     0.813621
H      -2.601995     1.702883    -0.651488
H      -2.823197     1.077237     1.002647
H      -3.679910     0.305777    -0.419057
H      -2.997023    -1.655394    -0.360121
H      -1.554791    -1.971356    -1.302068
H      -1.445025    -2.119590     0.491611
H       4.417520     1.760618     1.080161
H       3.527517     0.409399     1.780099
H       4.594438     0.164879     0.307961
