19

C      -2.788404     0.235723    -0.745660
N      -1.362205     0.354754    -0.549466
C      -0.839196     1.691664    -0.323658
C      -0.682508    -0.782808    -0.059138
O      -1.187007    -1.907611    -0.043256
C       0.762416    -0.599386     0.397003
N       1.261818    -0.101905     1.485778
O       0.352823     0.296402     2.428306
S       1.724548    -1.168931    -0.946704
C       3.335590    -1.185695    -0.135277
H      -3.295361     0.452623     0.199474
H      -3.111187     0.947999    -1.510376
H      -3.061439    -0.772479    -1.069882
H      -1.163295     2.042624     0.659874
H      -1.237506     2.361128    -1.092329
H       0.250192     1.720228    -0.386432
H       3.322947    -1.836724     0.743387
H       3.635516    -0.175861     0.158260
H       4.082257    -1.571743    -0.834802
