19

C      -2.818817     0.560860    -0.078970
N      -1.449779     0.142735    -0.272909
C      -1.240084    -1.185128    -0.824888
C      -0.468521     0.754298     0.539237
O      -0.684688     1.776713     1.193375
C       0.931577     0.146676     0.532906
N       1.413377    -0.904375     1.120687
O       0.544026    -1.582215     1.931882
S       1.849341     1.165430    -0.551296
C       3.496362     0.521699    -0.194813
H      -2.876654     1.621918     0.179787
H      -3.256594    -0.025791     0.734371
H      -3.384031     0.394711    -1.000519
H      -1.868353    -1.301434    -1.713394
H      -0.202669    -1.343637    -1.125167
H      -1.529311    -1.932831    -0.081357
H       4.232687     1.090495    -0.769423
H       3.735687     0.629104     0.866901
H       3.576445    -0.529228    -0.486409
