19

C      -2.838954    -0.985032    -0.409402
N      -1.692360    -0.148154    -0.131289
C      -1.842084     1.080174     0.584521
C      -0.430955    -0.585501    -0.588918
O      -0.409085    -1.693308    -1.215459
C       0.800242     0.167540    -0.372171
N       0.700114     1.282155     0.271310
O       1.712428     2.122456     0.573858
Se      2.451833    -0.520637    -1.036251
C       3.912261    -0.339225     0.191469
H      -3.623349    -0.849121     0.348538
H      -3.221928    -0.683050    -1.407023
H      -2.496400    -2.055576    -0.464421
H      -1.288959     1.066062     1.560068
H      -1.564903     1.956797    -0.034243
H      -2.916243     1.218576     0.879708
H       4.083512    -1.300286     0.752499
H       4.847709    -0.215382    -0.414997
H       3.817121     0.481513     0.912203
