19

C      -2.835231    -0.361254    -0.399681
N      -1.451092     0.069964    -0.267399
C      -0.949377     1.096327    -1.159946
C      -0.677261    -0.551683     0.738822
O      -1.240953    -1.428606     1.442486
C       0.716280    -0.250984     1.016559
N       1.277137    -0.914893     1.976256
O       0.520694    -1.834468     2.642540
Se      1.755135     1.027933     0.084425
C       3.470719     0.297400    -0.480370
H      -3.300251    -0.283317     0.623554
H      -2.855416    -1.451885    -0.681836
H      -3.394504     0.174654    -1.166763
H      -1.731561     1.385321    -1.900925
H      -0.102441     0.634692    -1.731985
H      -0.608923     1.974967    -0.564728
H       3.331738    -0.805001    -0.667607
H       4.245600     0.458736     0.282478
H       3.829705     0.762098    -1.410779
