19

C      -2.806392    -0.995048    -0.093914
N      -1.647737    -0.127591    -0.336780
C      -1.788961     1.312447    -0.478128
C      -0.391447    -0.773541    -0.424639
O      -0.389159    -2.031113    -0.285814
C       0.848404    -0.032333    -0.663862
N       0.836383     1.263722    -0.805721
O       2.023812     1.914147    -1.028245
Se      2.494777    -1.008496    -0.764708
C       3.737395    -0.363158     0.552135
H      -2.834308    -1.116022     1.017613
H      -3.740448    -0.439635    -0.353553
H      -2.741262    -1.955946    -0.623133
H      -1.257801     1.877363     0.286801
H      -1.411474     1.674859    -1.470797
H      -2.889633     1.540810    -0.388494
H       4.671054    -0.985867     0.474145
H       4.023873     0.709284     0.413223
H       3.262926    -0.463882     1.557274
