19

C      -1.878908     0.981001     0.572677
N      -1.607711    -0.066865    -0.421821
C      -2.649728    -0.428020    -1.363379
C      -0.358447    -0.728629    -0.481503
O      -0.156864    -1.636557    -1.360333
C       0.725034    -0.387104     0.459943
N       0.563073     0.520267     1.358897
O       1.562210     0.826650     2.217785
Se      2.398567    -1.309889     0.340834
C       3.804175    -0.121175    -0.290580
H      -2.950154     1.298324     0.486773
H      -1.802751     0.482750     1.560231
H      -1.195589     1.845017     0.467571
H      -2.548551    -1.534203    -1.534961
H      -3.656252    -0.198936    -0.958856
H      -2.447782     0.122149    -2.312486
H       3.344287     0.673100    -0.932229
H       4.332371     0.366126     0.552819
H       4.523018    -0.704005    -0.882129
