19

C      -1.984794     0.519053     0.547252
N      -1.428726    -0.485724    -0.345659
C      -2.341378    -1.141981    -1.253227
C      -0.066325    -0.444754    -0.706953
O       0.411116    -1.120267    -1.619046
C       0.825935     0.514340     0.081871
N       0.721992     1.803792    -0.030921
O       1.510640     2.568191     0.788858
S       1.808628    -0.530850     1.067787
C       3.411737    -0.079844     0.375813
H      -2.943734     0.164718     0.937152
H      -1.323648     0.701942     1.397414
H      -2.137414     1.447162    -0.011158
H      -1.855691    -1.973268    -1.772004
H      -3.195394    -1.531011    -0.691511
H      -2.686220    -0.415143    -1.994824
H       3.383706    -0.095011    -0.717450
H       4.157407    -0.807849     0.707646
H       3.732163     0.906505     0.718215
