14

C      -1.849066     0.272298    -0.719476
N      -0.553094     0.200181    -0.081568
C      -0.371853    -0.807366     0.951779
C       0.539723     0.796163    -0.718630
O       0.428770     1.530016    -1.698044
C       1.860466     0.506975    -0.192978
N       3.139280     0.125931     0.419968
O       4.359107    -0.268966     1.037868
H      -2.004714    -0.640420    -1.302383
H      -2.624549     0.355317     0.047431
H      -1.922815     1.135050    -1.387097
H      -0.239766    -1.781435     0.471516
H       0.496608    -0.592414     1.578770
H      -1.258097    -0.831331     1.592843
