14

C      -0.515192    -1.165234    -0.039090
N      -0.505995     0.282536    -0.179378
C      -1.766343     0.930250    -0.468619
C       0.678271     0.983709    -0.426697
O       0.705396     2.180149    -0.705796
C       1.922232     0.240197    -0.363037
N       3.107927    -0.622520    -0.284868
O       4.233090    -1.490430    -0.204484
H       0.378857    -1.527891     0.473455
H      -0.568137    -1.613114    -1.035842
H      -1.389556    -1.466319     0.545550
H      -2.090596     0.635510    -1.471142
H      -2.511744     0.613709     0.266630
H      -1.678210     2.019448    -0.431511
