14

C      -1.868786    -0.513323    -0.504951
N      -0.508865    -0.066340    -0.298820
C      -0.318874     1.201344     0.388701
C       0.525323    -1.001731    -0.402717
O       0.360968    -2.140495    -0.834348
C       1.844272    -0.593683     0.042449
N       3.123028    -0.068686     0.537850
O       4.343502     0.473332     1.030174
H      -2.313024    -0.746093     0.467436
H      -2.440912     0.283313    -0.989156
H      -1.909060    -1.406121    -1.134861
H      -0.477861     1.045802     1.459889
H      -1.043591     1.929207     0.011917
H       0.683878     1.603472     0.226437
