14

C      -0.660130    -0.926262     0.367821
N      -0.488737     0.326446    -0.351311
C      -1.626471     0.830892    -1.088036
C       0.781754     0.820736    -0.662479
O       0.965339     1.786596    -1.399712
C       1.925286     0.134908    -0.091270
N       2.997627    -0.651022     0.532158
O       4.009502    -1.438837     1.149554
H      -0.617768    -1.750626    -0.350192
H       0.113716    -1.066815     1.126078
H      -1.632739    -0.925447     0.868819
H      -1.835531     0.151351    -1.919650
H      -2.494491     0.877154    -0.424098
H      -1.437355     1.830928    -1.487612
