14

C      -1.359193     1.341411    -0.850497
N      -0.378973     0.312844    -0.580520
C      -0.866071    -0.953811    -0.056952
C       0.963633     0.684220    -0.458928
O       1.379880     1.804427    -0.745242
C       1.890002    -0.310217     0.048259
N       2.722153    -1.394348     0.585331
O       3.495592    -2.466990     1.111594
H      -2.146012     0.931015    -1.489951
H      -1.791803     1.671875     0.098560
H      -0.912097     2.202747    -1.354185
H      -1.773595    -1.242632    -0.595424
H      -1.093885    -0.828840     1.005779
H      -0.129633    -1.751703    -0.177686
