14

C      -0.907418    -0.900303     0.249082
N      -0.405892     0.400594    -0.165577
C      -1.284061     1.536877     0.005739
C       0.961888     0.633051    -0.340042
O       1.434390     1.750570    -0.534959
C       1.850218    -0.511371    -0.266070
N       2.643844    -1.741753    -0.153919
O       3.379831    -2.954124    -0.034746
H      -0.329454    -1.716077    -0.191392
H      -0.852480    -0.965147     1.339810
H      -1.947607    -1.006261    -0.073015
H      -2.248077     1.321892    -0.464226
H      -0.867459     2.440768    -0.446942
H      -1.427723     1.711285     1.076256
