19
 energy: -35.150195183506 gnorm: 0.000232374301 xtb: 6.7.1 (edcfbbe)
C           -2.82761531686486        0.21291733275831       -0.60396763022462
N           -1.45011675960984        0.35419634590244       -0.15608930573434
C           -0.98454987186242        1.72773642957754       -0.03038956099214
C           -0.60028291095290       -0.68768764350257       -0.42997090737979
O           -1.03035517627993       -1.69685961555527       -1.01011699838084
C            0.78846762666500       -0.59295484262482        0.02952064756967
N            1.28016621450444       -0.04014472645777        1.10645970965849
O            0.47097447549347        0.60465250954220        1.92326653325457
S            1.90988333883101       -1.56313831788126       -0.95363039952809
C            3.41196648293703       -1.30461332117047        0.02195828220129
H           -3.46108899424616        0.88745369718092       -0.02938730663316
H           -2.92097673262467        0.45268073879041       -1.66751269432439
H           -3.15311937159998       -0.81505045576379       -0.44278207558145
H           -1.20621571683606        2.11577591855248        0.96571903079552
H           -1.48834650384815        2.34750373662462       -0.77645506322857
H            0.09009281033812        1.77290822185272       -0.20334158018016
H            3.30214394811662       -1.70610022406837        1.02942944139181
H            3.65321397079740       -0.24431340456160        0.09442061948947
H            4.21575748704185       -1.82496037919642       -0.49202874217308
